192
Lattice="13.066373825073242 0.0 0.0 -5.291772140481044e-07 13.066373825073242 0.0 -5.291772140481044e-07 -5.291772140481044e-07 13.066373825073242" Properties=species:S:1:pos:R:3:momenta:R:3 step=0 time_fs=0.0 phase=equilibration pbc="T T T"
O       12.64542961      -2.82263112     -15.46091652       1.11768299       0.20408896       0.69008038
H       11.89812565      -2.74155045     -16.09106064       0.36097603       0.29840838      -0.15413935
H       13.26149845      -3.37739921     -16.00020218       0.15239367      -0.02783003      -0.01289933
O       25.27027321      24.43639755       0.35318395       0.24636511       0.03920975       0.99621760
H       25.31266212      25.21264648       0.74189055       0.12184479       0.01628950       0.07550418
H       25.35134506      24.55180931      -0.71252650       0.05278673       0.23805757      -0.02937182
O        5.36733866       1.52952313       8.14218521       0.18357736      -0.60336600      -1.58355279
H        5.85688019       1.94819224       8.86520004       0.10448683       0.13631298      -0.11614725
H        4.66960764       0.81533509       8.43852425       0.36563978      -0.23838440       0.01117406
O       -2.93321347      -5.70437145      -2.06760645      -0.13847139       0.93324112       1.00592910
H       -2.11669278      -6.19126701      -2.36016202       0.02390609       0.05773556      -0.13967824
H       -2.98088694      -4.75015354      -1.60816944      -0.32121079      -0.05959153       0.02904448
O        3.38407755      16.26336098      10.69519997       0.77406131       0.72053872      -0.18935610
H        3.89453769      17.07395363      10.80886745      -0.04998140      -0.17280874      -0.22568214
H        3.42589307      16.37501717       9.74289322      -0.27684983       0.31185556      -0.07857528
O       -1.96962392       4.40010309       2.94610405      -0.29998804      -0.86003830       0.56052247
H       -2.32842731       4.61702871       3.87909627      -0.26192329      -0.03774898      -0.14091939
H       -2.77761412       4.31724453       2.25013542       0.06138793      -0.08591356      -0.18699957
O       23.88134384      13.33156109       7.30634975      -0.03611034       0.22222706       0.10281672
H       24.78475380      13.75828934       7.41726494       0.04774470      -0.10587278      -0.05483579
H       23.53219223      13.41421795       6.46532822      -0.10979553      -0.06147261      -0.12761717
O       -0.64325720     -14.98470974       3.92837858      -1.12930256       0.06070057      -0.19866128
H       -0.55697489     -15.69682407       3.17299390      -0.26455731       0.07140934      -0.14283130
H       -1.35569894     -14.46638107       3.50380921       0.00726189       0.11444236       0.02462237
O       18.42494392     -18.37583733       9.85613728       0.71554873      -0.84846998       0.31901162
H       19.30014992     -18.54400826       9.94424534      -0.11179112      -0.14408501      -0.08975696
H       17.81485558     -18.88326454      10.41489506      -0.05147608       0.00570373      -0.18449776
O        4.83259964     -14.17898464     -13.56820869       0.56196096       0.24625949      -0.92899846
H        5.77131224     -14.48098755     -13.72235775       0.23935606       0.30298645       0.19426001
H        4.58696604     -14.93793106     -12.92383003      -0.03020624      -0.17639601       0.17416975
O       -4.81121540       2.19039130       4.33023071      -0.27752205       0.73345619       0.19407663
H       -4.90639305       2.05848861       3.34761715       0.15668401       0.05421351       0.11795573
H       -5.49905062       1.76712906       4.75293684       0.00056469       0.28520842       0.02428775
O       -5.85185289      15.23765755      27.76232910       0.24082278       1.15880104      -0.80765703
H       -6.93275023      14.99428844      28.00818443      -0.20643089       0.15327365      -0.18578622
H       -5.56249857      14.84871197      26.85283089       0.31293957      -0.07020916      -0.11700203
O        7.43372250     -15.57654190      -6.91692829       1.21997197       0.89959466       1.26227987
H        7.83621454     -16.40586853      -7.23538685       0.14527660      -0.14253835       0.31242910
H        7.21215582     -15.85541916      -6.10686350      -0.04443893       0.12629761       0.15684724
O       15.41884708       7.48679876      20.53091049      -0.11775878       0.34180640       0.65368701
H       14.76631927       6.98550940      20.06814575       0.05969494      -0.18102529       0.05197249
H       16.21483612       6.83829212      20.46291161       0.21319994      -0.11560795      -0.02039969
O       -0.25643131       0.99778473       0.95212734      -0.29810774       1.13698550       0.49280032
H        0.08169544       1.33199728       1.79520726       0.06471013      -0.12778354       0.09091769
H        0.45881301       1.49934947       0.51064277      -0.11009807       0.00177145      -0.09896707
O      -16.15043449      12.55615711      17.73955345       0.41750254       0.31767226      -0.07410255
H      -16.71914291      13.30330372      17.32319641       0.06285908      -0.18000092      -0.23719382
H      -16.87297249      11.96564865      18.22290421       0.06986971       0.02356085       0.10639523
O      -17.86353874       6.26270628      13.02225685       1.51623836       0.55450928      -0.52765617
H      -18.60412407       5.90937471      12.25008106       0.17936770      -0.21601080      -0.07080799
H      -17.16492081       6.29779053      12.38174057      -0.01215924       0.27348859      -0.11656573
O       -9.97795391      34.26676178     -11.48647881      -0.55000669      -0.11690284      -0.36713513
H       -9.67293549      33.90147018     -10.61100864       0.18092215      -0.17787923      -0.18164064
H      -10.06812477      33.42055511     -11.81774426      -0.07187977      -0.08384961       0.31557481
O       36.51899719      10.89078426      21.81437874       0.59324470       0.00284148      -0.72890836
H       36.75870895      11.81425190      21.45014572       0.13530940      -0.16499782      -0.24584112
H       35.51689148      10.80193520      21.88041878       0.19084284       0.04784298       0.15258235
O       30.55273438     -11.00169945       2.39843750       0.18722109       0.49808324      -0.35911841
H       30.61803246     -11.65290451       3.16384459      -0.16825629       0.10676742      -0.12604383
H       29.84707642     -11.55505943       1.84262669      -0.11255702      -0.07698201       0.00660438
O       16.38184357       9.80401230      -6.87454081      -0.24585931      -0.93867906      -0.35434986
H       17.00061035       9.64822292      -7.57427216      -0.36041383       0.09765966      -0.25509811
H       16.22467804       8.90726948      -6.52904129      -0.17959036       0.00505733      -0.11572678
O       -9.31997395       3.54060292      33.44907761       0.97538472      -0.88582886       0.23191499
H       -9.03792381       4.44114637      33.49209976      -0.00747976      -0.19212541       0.08833667
H       -8.60569096       2.89968991      33.75277328      -0.02885235       0.12134229       0.13685072
O        3.17334318       1.13243389       0.08931823       1.37466686       0.80689973      -0.17767484
H        3.07582641       1.93705845      -0.51232713      -0.03981352       0.17432296       0.10966459
H        3.85647416       0.47270024      -0.21488616       0.10230744      -0.26465753      -0.00015098
O       23.50477982       1.94969523      12.99003029      -0.49309219       0.12668637      -0.00319194
H       23.17785645       2.61787677      13.56529903       0.14594465       0.04788751       0.13084338
H       24.29891777       1.68835568      13.39368629      -0.07650112      -0.15598604      -0.06248042
O        0.10551053      32.49132156      15.57887077      -0.02892466       0.19056619       1.51447818
H       -0.72191942      32.10576248      15.49414921      -0.00796039      -0.15784413      -0.05212762
H       -0.22901094      33.45452881      15.64427662      -0.07604493       0.07443097      -0.24519894
O        6.05241108      20.26791000       5.02742147       0.02275903       0.04723308       0.20946672
H        5.26115894      19.97469330       4.49127483      -0.09765288      -0.04181807      -0.22633545
H        6.43347168      20.98118782       4.71206331      -0.08084804      -0.09109358       0.07100982
O       -9.59615231      10.90766430      10.36414719      -0.76228711       0.44939303       1.02210441
H       -9.97731876      10.04939270      10.40134811      -0.33562285       0.06550747       0.11316211
H       -9.12888908      11.05313587      11.35254383      -0.10413607      -0.06756761      -0.01769240
O       17.21640968      17.99869156      28.20270920      -0.20967728      -0.25245609      -1.01897234
H       17.22360611      16.93732262      28.21525192       0.18507433       0.17108451      -0.12765240
H       16.44344139      18.16321373      27.63500786      -0.23809291       0.08082729      -0.08926222
O        6.71023130      18.44732857      10.88819122       0.07341833      -0.25909691       0.50518909
H        7.21765900      18.88315773      10.27365780       0.11113316      -0.12062204      -0.21975919
H        6.94809675      17.49592018      10.87961864      -0.25692053       0.09525970      -0.18832899
O        1.05389345     -13.58985233      10.43368149      -0.34424236      -0.43741294       0.02615325
H        0.52050924     -14.43383694      10.50644207      -0.31401730       0.02713283       0.08843595
H        2.04940796     -13.87724781      10.19994354       0.01315619      -0.05360847       0.01951889
O       -0.00847742       9.26964951       1.83980632       0.23892814      -1.83844376       1.31915943
H        0.94434845       9.16873646       1.66105020       0.06190353      -0.10879540      -0.05939462
H       -0.16747771       9.87793827       1.19759142       0.07865219      -0.02213342      -0.32436032
O        0.42741007       0.65217912       7.74403191       1.31109867      -0.12468486       0.71675497
H        1.03889656       0.21235140       7.08086729      -0.11296100       0.24489254       0.05005045
H        0.49172574       0.19270886       8.65278816       0.09725164      -0.17227556       0.19949001
O      -18.85241318      28.84873009     -15.91055965       0.42611937       0.78457256      -0.34435151
H      -17.97228622      28.59213066     -16.52736855      -0.07886164       0.36892000      -0.16750906
H      -18.95480919      28.34384155     -15.10911942      -0.02310026       0.18033927       0.01957137
O        4.60828638      26.42588997      -8.29379463       0.35732283      -0.31067644       0.29822691
H        5.44475698      26.54718018      -7.69905186      -0.21225492       0.26456683      -0.01531434
H        3.94140697      26.49876022      -7.68359995      -0.11104265       0.10430939      -0.07066824
O      -18.19099426      21.58392143       1.45866632      -0.87692777      -0.92050290       0.50662754
H      -17.93074608      20.76591873       1.05815327      -0.02691764      -0.02497704       0.17793354
H      -19.07234001      22.02440643       1.52598298      -0.18321686      -0.12144299      -0.05841319
O       11.43895912      20.28431320       6.91496992       0.04277370      -0.08067057      -0.12469572
H       11.58135986      21.30393219       6.79146004      -0.01109028      -0.02071164      -0.11250165
H       10.39494514      20.07539558       6.90041733      -0.13250432       0.04098728      -0.14018391
O       -9.44247913      -6.80389595       4.30549145      -0.76304215      -0.25456721      -0.04150717
H       -9.28129196      -7.34836626       3.38757014       0.36353407      -0.11724526       0.15620229
H      -10.39155769      -6.93391466       4.59196186       0.11960685      -0.19549482       0.12873058
O      -25.43453217       2.10612512      11.25163078      -0.78011849      -1.76542662       0.45032720
H      -25.34340668       1.21531880      11.27904129      -0.28486803       0.06949485      -0.10675007
H      -24.80063057       2.49930382      10.86040878       0.26703637       0.16928937      -0.06948314
O      -12.44503021      -7.40535831      19.41635895      -0.46077907      -0.83511270      -0.22385967
H      -12.23388863      -8.29755116      19.07535553      -0.04643492      -0.06230325       0.02910183
H      -13.07951355      -6.77124548      19.03661919       0.09235182       0.05312892      -0.11969884
O        8.15028095       8.56557941      17.42204857      -0.94357958       0.82492790      -0.38385450
H        8.93446827       8.11022282      17.65599823      -0.10653675      -0.08759155      -0.29404345
H        8.36242867       8.60436726      16.48773384      -0.07836829      -0.08088011       0.10402419
O      -11.18669987      -0.72987819      18.47828484       0.43168092      -0.05109410       0.65989409
H      -10.66821194      -1.52712595      18.67910767       0.05380325      -0.00590616       0.02978444
H      -11.84674263      -0.98341757      17.78823853      -0.03193989      -0.06717618      -0.03948341
O       22.69503403       4.00474977      19.09154892      -0.74415130       0.12701927      -0.57935209
H       22.22258377       3.31821632      18.40965080       0.13486798      -0.04368233       0.01177784
H       22.59380150       3.45698237      19.86409569       0.07866754       0.10058171      -0.25001862
O       -4.97554636     -18.87792015      -3.72662473      -0.15116650       0.51311426      -1.03320103
H       -4.09095764     -18.86754799      -3.25351381       0.06144900      -0.36785083      -0.16144795
H       -4.82189941     -19.09774017      -4.64425468       0.00511033      -0.27108224      -0.15546971
O       27.64061737     -10.03663921      -7.21003914      -0.96549591       1.00750409       0.16572019
H       28.56313324     -10.00975704      -6.65519667       0.09053696      -0.03935436      -0.05333147
H       27.19330597     -10.59502697      -6.57275105      -0.26233961      -0.05053035      -0.11927034
O        6.96926355       0.34402019       5.89455748       0.53434142       0.68108958       1.00413937
H        6.91010141       0.59992290       6.86930227       0.13663266      -0.10010913      -0.17653895
H        7.22453880      -0.59115446       5.89334059       0.12275381       0.05420162      -0.28199990
O      -18.62021065      -2.03114080      24.54964256       0.21088243       0.47084467       0.09792943
H      -18.82579613      -2.33972526      23.63458824      -0.03103501      -0.13388076      -0.22996701
H      -17.82464600      -2.65755963      24.87730789       0.12818889      -0.05332217      -0.03394620
O        4.88410425      -6.75822783      -5.54921627       1.09751282       0.38714205       0.29872204
H        5.20116615      -6.31826973      -4.74055433       0.02182389       0.24224533       0.28164996
H        5.23333502      -6.39134932      -6.44125080       0.14906759       0.09071014      -0.33468899
O       12.15218353       9.78707886       6.31858730       0.06168154      -0.13728112       0.12047930
H       11.77461529      10.31519890       7.24411821       0.15125569      -0.44607910      -0.08821577
H       11.89278126      10.46336746       5.63018036       0.04248208      -0.07881009      -0.22517930
O        4.43175840      11.87341309      -5.10165977       0.54144840       0.12472113      -0.56517681
H        4.06190586      11.41646862      -4.34855556       0.04973959       0.12938873       0.00463515
H        4.22329950      11.23866558      -5.89688635       0.12823201       0.00927406      -0.06008552
O       13.21900558      29.02663994      15.90510750      -0.76437171      -0.10884166       0.18507536
H       13.70399570      28.93953705      16.78042030       0.14039463      -0.02197240       0.07769412
H       12.32982826      29.43564034      15.92611694      -0.15700458      -0.12983786      -0.01405801
O       -4.10051441       3.99022365       1.21240842      -0.69690935       0.47453222       0.35814578
H       -4.29834223       5.03262329       0.97218847       0.04396733       0.05139176       0.33036224
H       -4.83862686       3.50298357       1.45779312      -0.07689622      -0.35910506       0.03598501
O        6.56999922     -15.80699825       8.89901447      -0.05054459      -0.38668680      -0.57015015
H        5.89122391     -15.11356449       8.71544266      -0.07210106       0.02593057      -0.07747072
H        6.22238302     -16.68866158       9.04945946       0.38869865      -0.15858089      -0.12438068
O        1.65242445       8.72078705      22.82431030      -1.49132057       0.10837733      -1.23811470
H        1.54069412       7.95395660      23.38116455      -0.08830300      -0.04791794      -0.11090571
H        1.67888343       8.32781982      21.88629150       0.27985406       0.15731305       0.21694048
O       22.91511726      22.85293961      -0.32201543      -0.58604532       0.67303738       0.37930701
H       23.36100388      23.68247795      -0.18107967       0.12352020       0.16297592      -0.14306801
H       22.27412605      22.64110947       0.38846105      -0.06969790       0.13601563      -0.42534410
O       11.96183872       5.99319601     -16.66627693       0.95627332       0.30257013       0.03057169
H       11.79472446       5.02690840     -16.57737541       0.03450003      -0.16980029      -0.05276778
H       11.97030544       6.24497890     -17.68504906       0.17666397       0.20637652       0.43946529
O       -7.75614977      22.88384438       1.76380587      -0.06555812      -0.47748072      -0.27105557
H       -8.57563400      22.37996101       1.68921304      -0.16563836      -0.01595270       0.06562600
H       -7.66772413      23.08884621       2.90891337      -0.00666526       0.17378764      -0.03406725
O        5.20647383     -15.66830158      17.50819778      -0.24164693      -0.42772701      -0.99105234
H        5.93699789     -15.58569717      18.22263908      -0.25446908      -0.19391332       0.21407889
H        4.89739227     -14.70895672      17.51629448       0.14353394       0.21880966      -0.21149344
O        1.76133454      18.69641304       0.57801497      -1.28531600      -0.47844854       0.17318229
H        1.16449153      18.82553101       1.37979782       0.07945182       0.16597073       0.04971692
H        1.09147549      18.51066971      -0.24702151       0.28046748      -0.03934314      -0.14376543
O       -4.67106819      -6.54047155       6.54221773      -1.10029130      -0.62581800       0.21586385
H       -4.37135315      -7.46203327       6.20793676      -0.14474116       0.14799702       0.23199927
H       -5.51963568      -6.39695835       6.07648849      -0.38403580       0.13625095      -0.35811983
O       -3.53516293       2.26197839       8.47741890       0.24050713       0.73501765       0.10174734
H       -2.87086558       2.68327761       9.00834179      -0.20791820      -0.09797246      -0.03849963
H       -3.33475828       1.33587074       8.41809750      -0.03058112      -0.03615837      -0.01397616
O       14.28291607      -6.86967230      -2.45764709       0.11946546      -0.83156953      -0.09581129
H       13.47967815      -7.04504156      -2.98524737       0.24420524      -0.06552730      -0.06793999
H       15.12213802      -7.39218187      -2.73928571       0.17309491      -0.41691315       0.19467999
O       11.49124146       3.48392272      23.58780861      -0.42477033       0.05201119       0.12200384
H       10.81320667       3.22980642      24.25626564       0.15116230      -0.04661297      -0.10578292
H       12.27569389       3.14015865      23.87795639       0.20858811      -0.38540116       0.00706572
O        8.06788826      13.77363586      25.39875984      -0.88572619      -0.54380255       1.35478868
H        8.94939137      14.15316105      25.66064835      -0.00833823       0.02814942      -0.28410452
H        8.13662910      12.72311306      25.25376320      -0.11893903       0.02838982       0.06110553
O       -9.14656353       5.80697918      11.48769569       0.37916792      -0.04796728       0.39926609
H       -8.31755447       5.74644089      11.64142132       0.07219503      -0.29904156       0.00975969
H       -9.53222752       6.10908604      12.43381214       0.12295406       0.09194716      -0.05501639
192
Lattice="13.066316047164237 0.0 0.0 -5.291748740911026e-07 13.066316047164237 0.0 -5.291748740911026e-07 -5.291748740911026e-07 13.066316047164237" Properties=species:S:1:pos:R:3:momenta:R:3 step=10 time_fs=1.0 phase=equilibration pbc="T T T"
O       12.65223865      -2.82165280     -15.45723126       1.12995048       0.10724804       0.49120078
H       11.93268965      -2.71158102     -16.10238790       0.34052402       0.31792243      -0.08621066
H       13.27521307      -3.37851071     -15.99569357       0.12785237       0.00740033       0.10647559
O       25.27149862      24.43482703       0.35769580       0.18980152      -0.47602298       0.49499743
H       25.32716184      25.24403335       0.76098117       0.17651945       0.59154320       0.29817163
H       25.35725608      24.57325027      -0.70297947       0.07088116       0.20347570       0.22243534
O        5.36798717       1.52538267       8.13274225       0.04193360      -0.73773034      -1.47977508
H        5.86333046       1.95696662       8.85093623       0.02662172       0.04154280      -0.17787018
H        4.71706778       0.80232399       8.43724199       0.60265437      -0.03000443      -0.03571200
O       -2.93405004      -5.69852825      -2.06073700      -0.14794662       0.96623461       1.22691698
H       -2.12150079      -6.16793860      -2.37038605      -0.11327128       0.41007413      -0.07270968
H       -3.00119657      -4.77270544      -1.61787667      -0.09799169      -0.39811512      -0.22558141
O        3.38877719      16.26771834      10.69387238       0.74966946       0.70401665      -0.24334459
H        3.89090093      17.06294696      10.79149819      -0.01315480      -0.03623522      -0.13187830
H        3.39875033      16.40332515       9.73394848      -0.27808491       0.27104455      -0.08904640
O       -1.97250204       4.39524561       2.95014720      -0.63107781      -0.72133156       0.73953039
H       -2.34819943       4.60737817       3.84683034      -0.15006617      -0.15447824      -0.49840408
H       -2.76187439       4.31048305       2.24338055       0.25766574      -0.05300727       0.04543718
O       23.88183074      13.33307749       7.30811849       0.20534035       0.29089108       0.44313082
H       24.78182225      13.74244538       7.40932211      -0.09860430      -0.21373009      -0.10660810
H       23.51774332      13.40823636       6.43831429      -0.16851745      -0.06506393      -0.38659816
O       -0.65043577     -14.98471781       3.92638778      -1.20541590      -0.08750727      -0.44238685
H       -0.58066229     -15.68486104       3.16834465      -0.22045899       0.17124033       0.04850537
H       -1.35365558     -14.45552851       3.51189806       0.02875579       0.11115734       0.13909409
O       18.42778197     -18.38063898       9.85772108       0.25082348      -0.73517995       0.20868419
H       19.31027207     -18.56144043       9.93820051       0.31277716      -0.21313385      -0.03394607
H       17.81069908     -18.88153102      10.39778441      -0.03772697       0.02422534      -0.15931096
O        4.83652554     -14.17865252     -13.57314838       0.72168881      -0.15718689      -0.69713704
H        5.78554432     -14.44565303     -13.70372856       0.05362370       0.41794096       0.18625608
H        4.58587781     -14.94027742     -12.91849524       0.01069055       0.12786530      -0.06912538
O       -4.81193345       2.19542603       4.33045269       0.02867124       0.90463788      -0.09233642
H       -4.89107756       2.06415783       3.36403435       0.15462111       0.05941839       0.20462740
H       -5.51528584       1.78473076       4.76568982      -0.32259396       0.08402504       0.22925208
O       -5.85053457      15.24405381      27.75638027       0.17725082       0.94209596      -1.08812227
H       -6.94305550      15.01137608      27.98574786      -0.00313064       0.19903055      -0.27168324
H       -5.54004606      14.84679992      26.85850005       0.14595526       0.03294245       0.23387265
O        7.44166020     -15.57077579      -6.91053655       1.36984931       0.93775098       0.83968979
H        7.84936540     -16.41569061      -7.20637305       0.12334869      -0.05601755       0.28187739
H        7.19970764     -15.84768547      -6.06635661      -0.20339957       0.04320924       0.64408384
O       15.41901666       7.48850351      20.53483730       0.18474892       0.21382110       0.64696284
H       14.76395864       6.96608065      20.06930420      -0.09240393      -0.20806016      -0.01682716
H       16.23255605       6.83633154      20.46343803       0.14886201       0.07744233       0.03226332
O       -0.25794864       1.00500418       0.95512980      -0.20446704       1.20933459       0.49363377
H        0.08535373       1.32130497       1.80409464       0.00877081      -0.09198555       0.09474948
H        0.44491540       1.49503723       0.50036035      -0.16625196      -0.08305920      -0.12025950
O      -16.14928722      12.55823887      17.73921800      -0.05298618       0.36700820      -0.00260583
H      -16.70214338      13.27121849      17.30848775       0.27394127      -0.45903823      -0.07165154
H      -16.85355621      11.97863143      18.22195241       0.32341450       0.23879576      -0.12116842
O      -17.85496891       6.26584085      13.01882904       1.26781731       0.47569905      -0.58160988
H      -18.58355174       5.88970489      12.25216857       0.23981374      -0.18672262       0.11432301
H      -17.15618602       6.33060878      12.36439795       0.17324429       0.39921355      -0.22116085
O       -9.98081862      34.26693104     -11.48749583      -0.40407977       0.20570611      -0.00775671
H       -9.65893461      33.88881428     -10.63954352       0.10677668      -0.08809442      -0.39937514
H      -10.07627577      33.39659026     -11.79406451      -0.09071337      -0.38078165       0.19050579
O       36.52195802      10.89142558      21.80951590       0.44802636       0.20917132      -0.81958788
H       36.76568711      11.78625019      21.43070851       0.01572665      -0.39137600      -0.15563012
H       35.54963666      10.80878879      21.89441624       0.45449535       0.09036300       0.13757251
O       30.55327070     -10.99951804       2.39630450       0.03015772       0.21025373      -0.34626559
H       30.60237146     -11.63520710       3.14642207      -0.14682883       0.24270219      -0.21352522
H       29.84398091     -11.55444585       1.84430641       0.04909297       0.08794675       0.02381344
O       16.38008443       9.79810950      -6.87628425      -0.29980747      -0.96711328      -0.22991656
H       16.97249903       9.65924867      -7.60751935      -0.22022642       0.12896553      -0.42089494
H       16.20454070       8.90763951      -6.53648540      -0.23090848      -0.00039944      -0.03742326
O       -9.31365419       3.53426370      33.45058410       1.05324142      -1.16613551       0.30016983
H       -9.03360529       4.43114216      33.50131675       0.09455988      -0.00435897       0.10329383
H       -8.61466165       2.91832461      33.76338574      -0.14064561       0.24291495       0.09048140
O        3.18218380       1.13754903       0.08784791       1.51245322       0.85245611      -0.29567756
H        3.07436929       1.94083443      -0.49543341       0.01213520      -0.09334127       0.23364679
H        3.85769745       0.45540695      -0.21332942      -0.07839422      -0.08561204       0.03275721
O       23.50123637       1.95029710      12.98929117      -0.62218084       0.08296182      -0.19923365
H       23.18669350       2.63166934      13.58315267       0.04586890       0.22110219       0.22408478
H       24.30435563       1.66561815      13.39193530       0.17437874      -0.30496992       0.02076394
O        0.10580990      32.49376877      15.58849697       0.08639589       0.62893607       1.63426027
H       -0.73880985      32.07770167      15.48712047      -0.29683470      -0.39621770      -0.08541069
H       -0.22876104      33.45125926      15.61885002       0.07935626      -0.13322815      -0.27286901
O        6.05106380      20.26629494       5.02932751      -0.44522861      -0.52667481       0.40725574
H        5.25712864      19.97219315       4.47465752       0.02387459      -0.00257902      -0.10952364
H        6.44263669      20.99828534       4.70659584       0.25359283       0.41991982      -0.17216126
O       -9.60027656      10.91099425      10.37101560      -0.60467816       0.62607063       1.23383503
H      -10.01296551      10.04812489      10.41167760      -0.38609348      -0.06515558       0.09812258
H       -9.14331198      11.04436073      11.33864894      -0.19346343      -0.11035490      -0.26798602
O       17.21481510      17.99597156      28.19585053      -0.29761933      -0.60545430      -1.18260613
H       17.24343001      16.96658795      28.20422017       0.22158598       0.43467745      -0.09618669
H       16.42299685      18.17023105      27.62934020      -0.16649764       0.06106349      -0.01514703
O        6.71022452      18.44482614      10.89194013      -0.04593430      -0.49143017       0.70498902
H        7.23821841      18.88095904      10.23998474       0.28904031       0.05605196      -0.44181324
H        6.91997776      17.50441418      10.86112239      -0.31356977       0.06313955      -0.19012339
O        1.05234638     -13.59324379      10.43356710      -0.15427414      -0.68673384      -0.05092478
H        0.49635026     -14.41991055      10.51441552      -0.18239951       0.25258289       0.07456940
H        2.03369476     -13.87886557      10.20666357      -0.33764478       0.01756551       0.11894362
O       -0.00652002       9.25756805       1.84879408       0.39023597      -2.03127546       1.55438864
H        0.94809388       9.15680355       1.65721356       0.01293223      -0.13635943      -0.01604171
H       -0.16467873       9.89103549       1.14984227      -0.01124502       0.24026376      -0.60146972
O        0.43580494       0.65058506       7.74878484       1.39781396      -0.37397104       0.86655784
H        1.02036323       0.24040363       7.09457121      -0.24213204       0.31249936       0.20578875
H        0.50242964       0.18277089       8.65825932       0.12271894      -0.03310646      -0.08233322
O      -18.84913760      28.85355035     -15.91320773       0.60989989       0.82837798      -0.53916751
H      -17.98825549      28.62942069     -16.53724058      -0.24773070       0.39557364      -0.03572850
H      -18.95605238      28.35901053     -15.10427486      -0.00192038       0.13523175       0.07464394
O        4.61203538      26.42382240      -8.29215926       0.82825375      -0.32280962       0.24238366
H        5.41498153      26.57272297      -7.70999804      -0.38349418       0.26152621      -0.20078307
H        3.91107276      26.51031408      -7.67983878      -0.47799422       0.13203684       0.11945368
O      -18.19620885      21.57896089       1.46189345      -0.84993068      -0.66085720       0.54168280
H      -17.93840663      20.75941484       1.07297936      -0.12963959      -0.11145000       0.12221572
H      -19.08597993      22.00627870       1.51534229      -0.09735221      -0.24772799      -0.16054895
O       11.43822865      20.28446112       6.91412583      -0.26599619       0.15313920      -0.14233507
H       11.57763174      21.28461889       6.78244543      -0.06248874      -0.36473969      -0.07263648
H       10.40087385      20.08366007       6.88677105       0.25424610       0.12981247      -0.13894577
O       -9.44775604      -6.80588984       4.30484195      -0.93812549      -0.40387319      -0.17434190
H       -9.24964420      -7.35186220       3.41779903       0.28323044       0.04605640       0.46517089
H      -10.36701072      -6.95178506       4.60030650       0.35454928      -0.17554159       0.05054302
O      -25.44095754       2.09607175      11.25538201      -1.28287128      -1.48410713       0.74668904
H      -25.36976418       1.18958099      11.26874438      -0.25989888      -0.55565912      -0.11047598
H      -24.74573785       2.53360400      10.83724309       0.78021280       0.48200820      -0.35890975
O      -12.44784790      -7.41048224      19.41532275      -0.47345205      -0.84244692      -0.08445467
H      -12.24171134      -8.29693970      19.07280528      -0.11232210       0.06838960      -0.08026962
H      -13.06616832      -6.77430378      19.02216106       0.17695729      -0.11279688      -0.17583046
O        8.14383005       8.57106905      17.41980971      -1.13455448       0.96737409      -0.30683225
H        8.93359632       8.09435143      17.63232501       0.07598596      -0.22849946      -0.19480560
H        8.35492407       8.59663567      16.49243698      -0.07141862      -0.07650539      -0.00779353
O      -11.18423727      -0.73036029      18.48197707       0.35345905      -0.10820259       0.56698227
H      -10.66524969      -1.52704236      18.68129226       0.00651568       0.00690273       0.01726879
H      -11.84436312      -0.98823864      17.79112017       0.08053530      -0.03085125       0.10126832
O       22.69001582       4.00547898      19.08705358      -0.85808666       0.12194616      -0.87602404
H       22.23879798       3.32096046      18.41356725       0.20114195       0.10428767       0.07278978
H       22.60199173       3.46347846      19.85006778       0.09037868       0.02330819      -0.02079460
O       -4.97605065     -18.87463961      -3.73266105      -0.01900506       0.52098492      -0.96257382
H       -4.09299442     -18.90213123      -3.27492802      -0.09990176      -0.34186083      -0.27337117
H       -4.82081060     -19.12533460      -4.66237244       0.01169289      -0.29131920      -0.19716713
O       27.63520789     -10.03023493      -7.20847790      -0.76637966       1.05177495       0.34452039
H       28.56489011     -10.01190892      -6.66925898      -0.05558747      -0.00678642      -0.23347407
H       27.16160989     -10.60219670      -6.58534543      -0.37088021      -0.08327179      -0.15287282
O        6.97289073       0.34799725       5.90173108       0.65135328       0.61169083       1.29594531
H        6.92055100       0.59052945       6.83967399       0.07838483      -0.08451881      -0.39078513
H        7.23680281      -0.58338743       5.86397450       0.13120694       0.10001997      -0.31707585
O      -18.61836746      -2.02886329      24.54970832       0.36143588       0.25976692      -0.05580649
H      -18.82647659      -2.34901039      23.62129607       0.01912388      -0.05118488      -0.02430528
H      -17.81974808      -2.65608963      24.87147792      -0.03294605       0.08508354      -0.08492100
O        4.89104169      -6.75525492      -5.54788337       1.17493558       0.58123616       0.13657225
H        5.19980824      -6.29808509      -4.72272155      -0.05533149       0.15985798       0.05977292
H        5.24449702      -6.38621686      -6.46051376       0.08021701       0.01505007      -0.05445853
O       12.15192542       9.78726259       6.31954143      -0.12814227       0.20535973       0.20678853
H       11.79369199      10.26432583       7.22196428       0.24373941      -0.59736420      -0.36724453
H       11.90221107      10.44618021       5.61594054       0.15006984      -0.26881735      -0.07212787
O        4.43503744      11.87352863      -5.10578980       0.53403254      -0.06824760      -0.78516610
H        4.06403898      11.42888092      -4.34494446      -0.00596603       0.12604648       0.06893292
H        4.23699183      11.24671053      -5.89166440       0.15211170       0.15590759       0.16529141
O       13.21448446      29.02568651      15.90645152      -0.68707943      -0.16147184       0.27564808
H       13.70900608      28.93908383      16.77843092      -0.03733391       0.01524924      -0.11749208
H       12.32125125      29.42045047      15.92959683      -0.01921672      -0.17798844       0.08714936
O       -4.10390438       3.99460092       1.21405191      -0.46921419       0.91885563       0.20046841
H       -4.29461620       5.02099935       1.00810710       0.03057092      -0.28824145       0.40305317
H       -4.85998500       3.46186835       1.46522781      -0.30096753      -0.44196116       0.09637635
O        6.56950953     -15.80883819       8.89541420      -0.09719089      -0.23377789      -0.59172883
H        5.88813320     -15.11885447       8.70908727       0.00897276      -0.13640705      -0.05182736
H        6.25873114     -16.70335873       9.03694641       0.35619729      -0.14614523      -0.13189753
O        1.64323459       8.72122277      22.81582714      -1.49947403       0.05175027      -1.45108157
H        1.53127463       7.94580133      23.37396729      -0.10412953      -0.11142226      -0.03708378
H        1.70744113       8.34946716      21.91586916       0.30652229       0.27385337       0.35224064
O       22.91109355      22.85691940      -0.31982239      -0.66118682       0.67754316       0.31119089
H       23.37289428      23.69708326      -0.19451946       0.11396558       0.12416285      -0.13388398
H       22.26734151      22.65239598       0.34701078      -0.08986834       0.09079099      -0.40000778
O       11.96731562       5.99462688     -16.66700256       0.84932870       0.17344290      -0.27029970
H       11.79992760       5.02025239     -16.58204973       0.07382312       0.03216640      -0.04551891
H       11.98602168       6.26327481     -17.62792320       0.14742768       0.16730079       0.71622286
O       -7.75644804      22.88074394       1.76294778      -0.05992994      -0.50947285      -0.01605750
H       -8.59056277      22.37771364       1.69717318      -0.12547643      -0.01884083       0.09801578
H       -7.67072141      23.10297610       2.88750623      -0.05476588       0.11949793      -0.39333769
O        5.20513239     -15.66989359      17.50294265      -0.18983036      -0.11113949      -0.69700847
H        5.90737693     -15.60751482      18.23518105      -0.34981496      -0.25382400       0.04478618
H        4.91445935     -14.69926840      17.49360504       0.20782012      -0.02417897      -0.25113856
O        1.75256277      18.69322967       0.57914854      -1.55975095      -0.53481144       0.17709325
H        1.17764161      18.83906728       1.36944941       0.17771998       0.11524692      -0.24644473
H        1.12589607      18.51037832      -0.24795437       0.42767614       0.03672841       0.13048057
O       -4.67796907      -6.54495948       6.54306859      -1.17806808      -0.81972206       0.07128918
H       -4.38820190      -7.43767635       6.23535076      -0.19570734       0.33052833       0.32244944
H       -5.55197893      -6.38544401       6.04490228      -0.26489078       0.09583498      -0.28032068
O       -3.53422076       2.26651887       8.47794329       0.05028100       0.72208390       0.06910478
H       -2.88641703       2.67860510       9.00939648      -0.09705783       0.01057981       0.07294974
H       -3.33597233       1.32645369       8.41309523       0.00180091      -0.13969676      -0.08649164
O       14.28424915      -6.87510420      -2.45860720       0.35504819      -0.94578996      -0.20701469
H       13.51211658      -7.05151195      -2.98770988       0.39814334      -0.07280260       0.00223406
H       15.12309432      -7.42510821      -2.71661055      -0.15153310      -0.25740200       0.26940762
O       11.48744804       3.48459321      23.58822057      -0.72134915       0.15494200       0.04851759
H       10.83011088       3.22661622      24.24499829       0.18179639      -0.02517584      -0.10666515
H       12.31097101       3.09608922      23.88277035       0.46652357      -0.50106993       0.07567379
O        8.06287587      13.76963771      25.40707213      -0.74831631      -0.74439287       1.38401840
H        8.94006010      14.14916726      25.62999606      -0.16884751      -0.10239226      -0.33705914
H        8.12468679      12.74207855      25.26227990      -0.12540981       0.36168177       0.11622841
O       -9.14676855       5.80709605      11.49065766      -0.40921540       0.09223143       0.58446564
H       -8.27294360       5.71208221      11.64695066       0.79296157      -0.40405512       0.09947589
H       -9.51429702       6.11298582      12.41166780       0.24319910      -0.00882837      -0.39208716
192
Lattice="13.066146040742238 0.0 0.0 -5.291679889731679e-07 13.066146040742238 0.0 -5.291679889731679e-07 -5.291679889731679e-07 13.066146040742238" Properties=species:S:1:pos:R:3:momenta:R:3 step=20 time_fs=2.0 phase=equilibration pbc="T T T"
O       12.65920299      -2.82125663     -15.45454183       1.19860609       0.01407455       0.32788630
H       11.96285107      -2.67898779     -16.10893540       0.27592123       0.35324260      -0.05892617
H       13.28628501      -3.37565744     -15.97921910       0.10560033       0.04838115       0.22444394
O       25.27220223      24.43101406       0.35969746       0.15305859      -0.56366220       0.19883652
H       25.34586633      25.31355354       0.79314732       0.20809238       0.74658828       0.31397566
H       25.36483536      24.59082732      -0.66943995       0.09167169       0.16268402       0.47174265
O        5.36788416       1.52057514       8.12376609      -0.03376224      -0.79845366      -1.42994656
H        5.86239773       1.95653888       8.83105947      -0.03771608      -0.04421373      -0.21949406
H        4.78425787       0.80748147       8.43230504       0.75057701       0.10990931      -0.05289872
O       -2.93515256      -5.69248881      -2.05264696      -0.24109272       0.94504802       1.37643890
H       -2.13517524      -6.11539173      -2.37553022      -0.14301045       0.63958598      -0.04366757
H       -3.00150798      -4.82254344      -1.64911693       0.07827778      -0.56931378      -0.38573758
O        3.39312123      16.27160526      10.69185593       0.67484321       0.63081507      -0.37841561
H        3.89309066      17.06791692      10.78259197       0.06010681       0.14215216      -0.04935640
H        3.37202748      16.42738001       9.72786863      -0.26766792       0.22521446      -0.02385578
O       -1.97708179       4.39102716       2.95455447      -0.83530609      -0.65148982       0.63853678
H       -2.36106227       4.58920096       3.79145382      -0.14380900      -0.19894098      -0.56141713
H       -2.72816773       4.30667185       2.25800872       0.42753266      -0.02561061       0.24639880
O       23.88304633      13.33487622       7.31106714       0.25441000       0.34638309       0.50302742
H       24.76759554      13.71775611       7.39678829      -0.16769817      -0.27949815      -0.14518412
H       23.50253427      13.40022315       6.39884680      -0.12138605      -0.10076461      -0.38020171
O       -0.65795586     -14.98555058       3.92294426      -1.23813023      -0.24582837      -0.65118393
H       -0.59978824     -15.66385355       3.18209882      -0.17191591       0.24760845       0.22765493
H       -1.35164288     -14.44340522       3.53006896       0.00284642       0.14010954       0.22966132
O       18.42815561     -18.38452036       9.85851667       0.00629401      -0.61178628       0.09334030
H       19.35446792     -18.58413937       9.93713809       0.54401321      -0.24886557       0.01145221
H       17.80664015     -18.87904628      10.38477409      -0.04053412       0.01811574      -0.10144260
O        4.84123666     -14.18058874     -13.57654023       0.81366507      -0.51593707      -0.47367408
H        5.78392577     -14.40015265     -13.68631734      -0.06167804       0.50600763       0.16315007
H        4.58870790     -14.91348421     -12.93665728       0.04190129       0.40365161      -0.29475486
O       -4.81109667       2.20128253       4.32949199       0.18286745       0.99064500      -0.15270197
H       -4.87670618       2.06933810       3.38431486       0.13649429       0.04354992       0.19645884
H       -5.55577437       1.78703934       4.79338060      -0.46302986      -0.00996859       0.30871363
O       -5.84964494      15.24894854      27.74862471       0.07602422       0.72188602      -1.29546149
H       -6.93363861      15.03281889      27.95508351       0.19039826       0.24511042      -0.34795520
H       -5.53320975      14.85416855      26.89541552       0.00296914       0.11238730       0.50326943
O        7.45023036     -15.56504687      -6.90583963       1.43208181       0.83523506       0.73375489
H        7.85983394     -16.41595219      -7.18044043       0.09169752       0.04894524       0.24928738
H        7.17523993     -15.84305664      -5.99157246      -0.27540935       0.07030154       0.81681225
O       15.42063000       7.48913929      20.53835992       0.38557064       0.01101399       0.57495869
H       14.75194611       6.94733010      20.06711474      -0.12773902      -0.16041333      -0.00764612
H       16.24293644       6.85318324      20.46864782       0.06421734       0.26901496       0.07921649
O       -0.25905158       1.01250356       0.95828331      -0.16463954       1.22734308       0.54784048
H        0.08312321       1.31398856       1.81428137      -0.05622917      -0.05831992       0.11801090
H        0.42863435       1.48484691       0.48525064      -0.15539640      -0.11669798      -0.20160236
O      -16.15035822      12.56019756      17.73936490      -0.29535875       0.30336188       0.13766227
H      -16.66999911      13.22110409      17.30455941       0.34473879      -0.50766700      -0.04161972
H      -16.81215031      12.00881192      18.20132369       0.48999492       0.34874001      -0.26953854
O      -17.84732652       6.26845419      13.01461369       1.17442717       0.40350032      -0.76532291
H      -18.55707544       5.87308693      12.27214783       0.30073929      -0.15048076       0.30105398
H      -17.13621291       6.37480137      12.34365802       0.20062234       0.50413526      -0.17078629
O       -9.98291347      34.26833286     -11.48692034      -0.34089044       0.35938396       0.09015473
H       -9.65058103      33.88097840     -10.68473189       0.07410983      -0.08265166      -0.50016602
H      -10.08430196      33.35385881     -11.77580462      -0.06887133      -0.43364307       0.20619792
O       36.52430624      10.89289333      21.80402120       0.51641352       0.28238356      -0.86773320
H       36.76312218      11.74353943      21.41759868      -0.04225775      -0.43887751      -0.12346320
H       35.59563521      10.81816114      21.90756295       0.43725589       0.09593304       0.14499875
O       30.55253366     -10.99870497       2.39384498      -0.14443425       0.02918160      -0.47652509
H       30.58952336     -11.60919691       3.12716814      -0.10613699       0.26390919      -0.15006515
H       29.85613463     -11.53749877       1.84697029       0.21027571       0.25876826       0.03271983
O       16.37799795       9.79195825      -6.87743049      -0.29672212      -0.99874054      -0.19471932
H       16.95468204       9.67316372      -7.65251724      -0.16103512       0.15859256      -0.47624373
H       16.17991068       8.90703871      -6.53678760      -0.26608627      -0.00585159       0.02309728
O       -9.30711968       3.52655374      33.45205698       1.01459635      -1.28690885       0.30891778
H       -9.02030944       4.43929060      33.51141342       0.16712159       0.15546035       0.11116030
H       -8.62857995       2.94220080      33.77176625      -0.11977331       0.21950070       0.10342006
O        3.19182077       1.14273699       0.08587559       1.63232118       0.82355572      -0.31966097
H        3.07814890       1.92166515      -0.46884880       0.06381583      -0.27046098       0.29142995
H        3.84219439       0.45563512      -0.20888234      -0.22729478       0.08187718       0.05386788
O       23.49689423       1.95083139      12.98774319      -0.67267036       0.11066149      -0.21220582
H       23.18881448       2.65648759      13.60496977       0.01840846       0.26101980       0.20462950
H       24.32656453       1.63127615      13.39498941       0.24706805      -0.38133316       0.02850726
O        0.10594109      32.49799544      15.59851288      -0.08894924       0.83499983       1.68116078
H       -0.76881662      32.03357453      15.47880620      -0.26371883      -0.46933474      -0.07218559
H       -0.21448886      33.42992086      15.59118035       0.20445234      -0.27761167      -0.28972198
O        6.04719626      20.26170138       5.03207382      -0.74240734      -0.80487320       0.47712409
H        5.26666071      19.97456651       4.47006592       0.17420193       0.05861171       0.01526356
H        6.47601575      21.05177962       4.68301981       0.38328993       0.59963706      -0.27536977
O       -9.60353918      10.91481192      10.37920177      -0.50980816       0.63715595       1.48017803
H      -10.04992452      10.04208202      10.41989482      -0.36282178      -0.03153069       0.07153184
H       -9.16681799      11.03162959      11.29949872      -0.29117239      -0.14616216      -0.53059128
O       17.21239551      17.99116077      28.18769014      -0.41764465      -0.83899152      -1.35079340
H       17.26637757      17.01907951      28.19618199       0.25554923       0.60374492      -0.05962529
H       16.41159014      18.17471419      27.63204360      -0.06575529       0.03806354       0.07501098
O        6.70988992      18.44146373      10.89623330      -0.00614952      -0.49011370       0.70434742
H        7.26796991      18.88838727      10.19480184       0.29171325       0.07374824      -0.44302267
H        6.88792374      17.50561047      10.84213600      -0.33830283      -0.04005699      -0.19861047
O        1.05209215     -13.59799841      10.43283904       0.07166313      -0.90104862      -0.13799087
H        0.48347320     -14.38696096      10.52068807      -0.09499040       0.40257935       0.05896886
H        1.98336187     -13.87402325      10.22277870      -0.67859247       0.07343451       0.21105866
O       -0.00381856       9.24525028       1.85807398       0.48109608      -1.89959010       1.42674168
H        0.94665003       9.14177153       1.65838516      -0.04176685      -0.17151744       0.04245946
H       -0.16746644       9.91375205       1.09227656      -0.03762952       0.18726838      -0.53192177
O        0.44414832       0.64789733       7.75489387       1.28638411      -0.46874426       1.18164645
H        0.99816119       0.26877048       7.11357199      -0.17797866       0.24688721       0.14320756
H        0.51535656       0.18544482       8.63825468       0.13945895       0.08190818      -0.31032585
O      -18.84464377      28.85838436     -15.91683139       0.76976174       0.86723220      -0.70176591
H      -18.01970440      28.66795890     -16.53375788      -0.39920657       0.39823666       0.10526269
H      -18.95419696      28.37055929     -15.09592225       0.03951316       0.11480613       0.08272180
O        4.61752704      26.42149261      -8.29037380       0.89146559      -0.32323779       0.32544742
H        5.37465183      26.59802998      -7.73466853      -0.40721924       0.26992939      -0.28165323
H        3.85801123      26.52295600      -7.66802008      -0.55192264       0.12725381       0.07593261
O      -18.20106931      21.57538308       1.46518992      -0.80149610      -0.42463637       0.52775557
H      -17.95545870      20.74382033       1.08157938      -0.22509992      -0.19802109       0.05536273
H      -19.09151048      21.97629425       1.49463108      -0.02825971      -0.35690131      -0.26364944
O       11.43546308      20.28560143       6.91309613      -0.58079842       0.26683324      -0.16105953
H       11.56994553      21.23742770       6.77661558      -0.08217955      -0.54995728      -0.05111826
H       10.44376985      20.10003154       6.87335640       0.61370994       0.20578479      -0.13351296
O       -9.45328034      -6.80868919       4.30308837      -0.85078912      -0.52571010      -0.38943908
H       -9.22618049      -7.33924371       3.47784851       0.19738974       0.20528793       0.75653672
H      -10.33051785      -6.96926235       4.60422147       0.34175586      -0.19360501       0.04750253
O      -25.44878513       2.08787165      11.25998749      -1.28418386      -1.20503321       0.75121974
H      -25.39387450       1.12237085      11.25613972      -0.24545320      -0.72961311      -0.15081739
H      -24.66626328       2.58009845      10.80135115       0.75386137       0.40859922      -0.31959521
O      -12.45057299      -7.41555549      19.41502810      -0.46017704      -0.84126356       0.07698698
H      -12.25472300      -8.28602880      19.05930230      -0.15239142       0.13969310      -0.19214831
H      -13.04624703      -6.79135866      19.00162738       0.21729766      -0.22504751      -0.24420493
O        8.13653876       8.57712473      17.41806828      -1.16912124       1.02206857      -0.18524258
H        8.94423544       8.06865328      17.61656493       0.11280876      -0.27631090      -0.13006019
H        8.34855931       8.58942562      16.48715346      -0.05818359      -0.06817078      -0.08402293
O      -11.18211892      -0.73115559      18.48496562       0.29798156      -0.14673974       0.49439040
H      -10.66615912      -1.52635495      18.68248423      -0.02271727       0.00182129       0.01492677
H      -11.83203610      -0.98957551      17.80650189       0.15610020       0.00042753       0.20628532
O       22.68407599       4.00611976      19.08042547      -0.98252469       0.09224644      -1.18771332
H       22.26159377       3.33907547      18.42411611       0.27194288       0.26803143       0.14959372
H       22.61111093       3.46173974      19.85921232       0.10442204      -0.04606435       0.19423592
O       -4.97575097     -18.87128336      -3.73868458       0.08296824       0.48593382      -1.04025085
H       -4.10840561     -18.93367527      -3.30480737      -0.19939935      -0.31063981      -0.32569781
H       -4.82058364     -19.15313159      -4.67928240      -0.01362065      -0.27942560      -0.13814501
O       27.63064533     -10.02370545      -7.20551898      -0.60489248       1.02232293       0.59997717
H       28.55048035     -10.01108810      -6.70036524      -0.24108366       0.02036814      -0.40629845
H       27.12363223     -10.60819512      -6.60486380      -0.38712418      -0.03021967      -0.25837809
O        6.97706182       0.35146521       5.90965219       0.73090031       0.51381333       1.24772743
H        6.92516255       0.58572848       6.80358862       0.01729054      -0.00152030      -0.28987721
H        7.25042263      -0.57305226       5.83188146       0.15246405       0.10513067      -0.33807611
O      -18.61543478      -2.02796640      24.54848935       0.51687146       0.02483607      -0.23049754
H      -18.82167255      -2.34937004      23.62985624       0.07145509       0.04057878       0.19473812
H      -17.83104592      -2.64084590      24.86044166      -0.20140727       0.22505531      -0.13160265
O        4.89846414      -6.75094649      -5.54742025       1.26156870       0.78857820      -0.01459648
H        5.18993363      -6.28776720      -4.73057257      -0.14353975       0.05461379      -0.21431835
H        5.24901378      -6.38813724      -6.45125875       0.01507051      -0.05598224       0.24011942
O       12.15040265       9.78927568       6.32132342      -0.30515406       0.45962644       0.41467976
H       11.82297455      10.19785909       7.17123003       0.35758711      -0.75735284      -0.65588118
H       11.92070335      10.41342485       5.61252925       0.22357909      -0.37862152      -0.02539995
O        4.43825016      11.87242196      -5.11107760       0.53433329      -0.22980262      -0.93452915
H        4.06095256      11.44105552      -4.33563502      -0.05277157       0.12918419       0.11541838
H        4.25245893      11.26781242      -5.86617116       0.16212949       0.26585693       0.33551746
O       13.21039623      29.02411186      15.90813220      -0.58295920      -0.23278109       0.32401935
H       13.69718032      28.94171534      16.75850712      -0.19234848       0.04345457      -0.27157167
H       12.32419045      29.40130699      15.94279295       0.06716292      -0.19970609       0.18725829
O       -4.10682606       4.00101907       1.21509117      -0.52910385       1.15929381       0.15760621
H       -4.29253783       4.97608405       1.05008886       0.00833367      -0.62554402       0.45435319
H       -4.88608273       3.42520031       1.47289356      -0.19753618      -0.27759104       0.04949854
O        6.56877185     -15.80964977       8.89157181      -0.10381795      -0.10895784      -0.62395494
H        5.89190021     -15.13889396       8.70494200       0.05983407      -0.26797636      -0.03401338
H        6.29153544     -16.71705987       9.02357436       0.31880769      -0.13960187      -0.13995536
O        1.63395240       8.72136268      22.80677665      -1.52276533       0.03555627      -1.34127374
H        1.52055844       7.93424458      23.37251017      -0.11444042      -0.10983870       0.00522565
H        1.73911637       8.37744134      21.94452124       0.34900214       0.28338179       0.18921304
O       22.90691828      22.86106484      -0.31842571      -0.58347737       0.77996695       0.12960753
H       23.38137962      23.70409242      -0.20721537       0.06044916       0.01906962      -0.12597530
H       22.25243056      22.65739154       0.31449454      -0.22305029       0.01576243      -0.25474927
O       11.97212152       5.99522977     -16.66864324       0.77145315       0.04325372      -0.25285512
H       11.80861251       5.03059029     -16.58590292       0.10463692       0.16258377      -0.03676196
H       11.99931376       6.27921288     -17.55481637       0.13296052       0.18343865       0.69892172
O       -7.75690434      22.87710175       1.76343155      -0.12734514      -0.58225073       0.17364411
H       -8.59790823      22.37707544       1.70799823      -0.02454416       0.01333169       0.12149706
H       -7.67803320      23.11225190       2.83541956      -0.09602894       0.07987376      -0.66000787
O        5.20401155     -15.66946194      17.49924118      -0.15978487       0.16987423      -0.45051902
H        5.87032740     -15.63471114      18.23206011      -0.39393703      -0.30797747      -0.09097736
H        4.93726269     -14.71237686      17.46709655       0.25521768      -0.23381156      -0.28925766
O        1.74240581      18.68946495       0.57982473      -1.70179270      -0.61648556       0.01809293
H        1.19486043      18.84865984       1.33760944       0.14505338       0.09597196      -0.36042891
H        1.17462374      18.51761428      -0.22137414       0.56160230       0.11369431       0.39916166
O       -4.68568706      -6.54991122       6.54312771      -1.37547798      -0.76660883      -0.00623822
H       -4.40686187      -7.40525916       6.26789962      -0.16966301       0.27809776       0.32939844
H       -5.57051780      -6.37828542       6.02237483      -0.11887447       0.05027986      -0.17978865
O       -3.53448824       2.27052848       8.47807619      -0.14237068       0.57793301       0.01610504
H       -2.88912420       2.68503296       9.02290292       0.03251606       0.11112299       0.19997030
H       -3.33501089       1.31319045       8.40164499       0.01436139      -0.10667564      -0.14185159
O       14.28730294      -6.88110498      -2.45991737       0.71817788      -1.02900844      -0.20815324
H       13.55084174      -7.06025012      -2.98872782       0.36541471      -0.11384448      -0.04652506
H       15.09312412      -7.44215146      -2.68707304      -0.44739875      -0.09810334       0.33281888
O       11.48306713       3.48553828      23.58804515      -0.60800489       0.15565686      -0.00598142
H       10.84588624       3.22360564      24.23796211       0.13275851      -0.04202537      -0.01860696
H       12.35593751       3.04674521      23.88857639       0.42484510      -0.49650100       0.03759828
O        8.05830201      13.76425498      25.41523735      -0.73571754      -0.93211148       1.37957370
H        8.92076614      14.13538940      25.59599074      -0.19313347      -0.15756339      -0.34517881
H        8.11210805      12.79136681      25.27584178      -0.12989003       0.61973858       0.16526999
O       -9.15024979       5.80785504      11.49463306      -0.63283799       0.15343363       0.74086797
H       -8.18053879       5.66927455      11.65821343       0.98432658      -0.45830477       0.11722761
H       -9.48556713       6.10853280      12.36072618       0.33178844      -0.06882806      -0.61274346
192
Lattice="13.065906423602822 0.0 0.0 -5.291582846793851e-07 13.065906423602822 0.0 -5.291582846793851e-07 -5.291582846793851e-07 13.065906423602822" Properties=species:S:1:pos:R:3:momenta:R:3 step=30 time_fs=3.0 phase=equilibration pbc="T T T"
O       12.66656154      -2.82131050     -15.45261743       1.26790040      -0.03914105       0.21360334
H       11.98551828      -2.64250368     -16.11416853       0.19462718       0.39306280      -0.05618174
H       13.29624162      -3.37012260     -15.95253082       0.11014362       0.05465928       0.30888316
O       25.27263803      24.42805629       0.36039251       0.13666956      -0.23334161       0.04151031
H       25.36618687      25.37557060       0.81582799       0.21965503       0.52104896       0.15059861
H       25.37428121      24.60371910      -0.60897833       0.11247956       0.10930930       0.76288563
O        5.36773239       1.51596924       8.11458443       0.04477757      -0.65152852      -1.54491858
H        5.85775942       1.95015233       8.80998601      -0.04231603      -0.07294975      -0.19663384
H        4.85574495       0.81534476       8.42977847       0.67584273      -0.00131583       0.02314898
O       -2.93712969      -5.68744430      -2.04413827      -0.43923963       0.60326643       1.35588273
H       -2.14404514      -6.04828372      -2.38142039      -0.00923120       0.70760050      -0.09594553
H       -2.98873117      -4.86755507      -1.68525528       0.16672337      -0.26859379      -0.31629863
O        3.39694381      16.27505406      10.68884827       0.59373737       0.60705389      -0.53381969
H        3.90153509      17.08812657      10.78141281       0.10316131       0.25767682       0.02859657
H        3.34639383      16.44605239       9.72969487      -0.26070804       0.16037567       0.06252655
O       -1.98219707       4.38692921       2.95722400      -0.79491078      -0.66464272       0.23172991
H       -2.38159058       4.57175666       3.75136682      -0.29774757      -0.14569374      -0.20713591
H       -2.68113864       4.30479747       2.28737066       0.50789222      -0.01596380       0.31916067
O       23.88378347      13.33681013       7.31371622       0.09731841       0.35281764       0.39041247
H       24.75293360      13.68979184       7.38150903      -0.09736833      -0.27678102      -0.16249498
H       23.49489918      13.38753322       6.36869532      -0.02530911      -0.15662179      -0.22760648
O       -0.66552908     -14.98712727       3.91852743      -1.22828879      -0.33319110      -0.73195406
H       -0.61404307     -15.63939751       3.20917491      -0.11960186       0.22084333       0.29849054
H       -1.35458416     -14.42669689       3.55565805      -0.06913362       0.20147311       0.29332248
O       18.42799613     -18.38769389       9.85858339       0.09962891      -0.54397638      -0.01080039
H       19.40424467     -18.60748394       9.93929977       0.43531487      -0.22848799       0.03238239
H       17.80257594     -18.87785544      10.37791829      -0.03483234      -0.00200988      -0.03524180
O        4.84613781     -14.18403984     -13.57887049       0.80165956      -0.62841337      -0.41459176
H        5.77914097     -14.34787567     -13.67236237      -0.00397316       0.55515943       0.11434973
H        4.59098185     -14.86835813     -12.96925964      -0.01675935       0.45604344      -0.32642350
O       -4.81000479       2.20728187       4.32899370       0.11641541       0.96361371       0.05104566
H       -4.86472705       2.07190947       3.39952895       0.10569002       0.00711319       0.10513186
H       -5.59690849       1.78719866       4.82003530      -0.35161102       0.02932960       0.21892860
O       -5.84968219      15.25263290      27.74014969      -0.15443797       0.59717572      -1.23483848
H       -6.90598343      15.05878267      27.91737281       0.37609220       0.29438116      -0.41421896
H       -5.53606540      14.86448369      26.94683818      -0.04040393       0.07502969       0.49810607
O        7.45881224     -15.56021505      -6.90067132       1.40155498       0.65098698       0.92273270
H        7.86673518     -16.40547271      -7.15719730       0.05337334       0.15611864       0.22740217
H        7.14895464     -15.83086402      -5.91695021      -0.25559972       0.17323433       0.69865550
O       15.42306315       7.48828084      20.54113195       0.48589558      -0.24886137       0.44463837
H       14.74197824       6.93672271      20.06945645      -0.06084771      -0.04873224       0.07021307
H       16.24385524       6.88812222      20.47816638      -0.03961724       0.44594800       0.12398931
O       -0.26002017       1.01993381       0.96194042      -0.15262887       1.19432485       0.65710330
H        0.07406692       1.30967515       1.82765362      -0.13142202      -0.03143125       0.15999141
H        0.41664639       1.47335865       0.45904889      -0.08544200      -0.11410842      -0.34168005
O      -16.15133607      12.56152315      17.74035196      -0.03470399       0.21760319       0.27859144
H      -16.64150466      13.18256502      17.29247874       0.20627528      -0.23930963      -0.22897548
H      -16.76732547      12.03664462      18.17679160       0.36726838       0.17556641      -0.18307676
O      -17.83980481       6.27057976      13.00870561       1.16778667       0.32037906      -1.10164614
H      -18.52320686       5.86110932      12.31164806       0.39736479      -0.08536326       0.52453284
H      -17.12097956       6.42741349      12.33509198       0.09433927       0.57102804       0.01170974
O       -9.98493331      34.26990497     -11.48663632      -0.39288484       0.33954764      -0.10277356
H       -9.64176330      33.86783334     -10.73104869       0.11391950      -0.19225344      -0.43196101
H      -10.08799344      33.32020418     -11.74954113      -0.00486168      -0.21101410       0.34190051
O       36.52759967      10.89410250      21.79831575       0.79520090       0.14212668      -0.84974415
H       36.75961849      11.70926184      21.40228676      -0.00173976      -0.22014932      -0.20106002
H       35.62307468      10.82550580      21.92356183       0.10302210       0.05328319       0.19873587
O       30.55056842     -10.99855193       2.39008068      -0.29804521      -0.02084463      -0.74226252
H       30.58098443     -11.58734676       3.12194772      -0.05738933       0.16708989       0.05935985
H       29.88369633     -11.50404131       1.85056578       0.35442129       0.41218198       0.03388419
O       16.37607693       9.78548808      -6.87872516      -0.22236369      -1.05363173      -0.28637213
H       16.93689793       9.68956296      -7.69449493      -0.21255525       0.17940297      -0.36309988
H       16.15308776       8.90726407      -6.53330008      -0.27375807       0.01920223       0.03823910
O       -9.30109587       3.51892325      33.45319627       0.88501271      -1.13477735       0.25482043
H       -9.00279503       4.45638850      33.52154083       0.17779492       0.16724552       0.10700847
H       -8.63327250       2.95656042      33.78470130       0.03443761       0.06243423       0.18255149
O        3.20197851       1.14734408       0.08433432       1.67991584       0.66349672      -0.14299571
H        3.08540904       1.89589877      -0.44437491       0.07768916      -0.20907317       0.17774056
H        3.81635787       0.46837721      -0.20426995      -0.27861676       0.15607679       0.03138406
O       23.49245864       1.95168747      12.98666785      -0.61841109       0.18460847      -0.03710343
H       23.19184516       2.67774733      13.61896539       0.06165088       0.15765890       0.07363454
H       24.34432590       1.59473866      13.39448243       0.09624379      -0.35141841      -0.04210920
O        0.10448692      32.50234243      15.60853438      -0.37928624       0.71800706       1.67220707
H       -0.78368725      31.98953416      15.47375011      -0.02791208      -0.40931988      -0.02261971
H       -0.19156309      33.40215651      15.56188700       0.24829139      -0.23588751      -0.30733052
O        6.04230281      20.25665130       5.03469636      -0.77924528      -0.67221281       0.39577370
H        5.29017566      19.98292733       4.47676636       0.29867035       0.11639336       0.11468378
H        6.50877793      21.10013280       4.65874548       0.26561204       0.35569497      -0.20237962
O       -9.60645952      10.91825139      10.38857864      -0.53111918       0.53516582       1.57594411
H      -10.08190797      10.04410808      10.42498956      -0.29436442       0.07967296       0.03471163
H       -9.19719667      11.01670229      11.24040203      -0.30321738      -0.14432215      -0.61251460
O       17.20915532      17.98593595      28.17848029      -0.53405266      -0.68357493      -1.47004302
H       17.29364850      17.07085863      28.19210360       0.31846475       0.39404182      -0.01145167
H       16.40845512      18.17776122      27.64203017      -0.00162601       0.03547185       0.13306373
O        6.71014240      18.43846203      10.89999266       0.13344761      -0.37540813       0.57989150
H        7.29101848      18.89153395      10.15815630       0.17712792      -0.00755690      -0.29589643
H        6.85429737      17.49602594      10.82174886      -0.34791680      -0.14364758      -0.21693853
O        1.05261278     -13.60332318      10.43174889       0.03544201      -0.85512220      -0.13584274
H        0.47391683     -14.34553775      10.52647395      -0.13116639       0.40593077       0.06930867
H        1.91438163     -13.86682258      10.24489355      -0.63479109       0.04557686       0.22544446
O       -0.00067784       9.23409537       1.86607566       0.53563237      -1.68666148       1.20050085
H        0.94064237       9.12280741       1.66550260      -0.07326555      -0.21460565       0.10257384
H       -0.17128424       9.92482684       1.04915192      -0.03826694       0.04976061      -0.35740446
O        0.45128543       0.64516343       7.76307819       1.02923738      -0.38997005       1.50169637
H        0.99050598       0.28569320       7.11585591       0.03299065       0.09538476      -0.11273661
H        0.52929214       0.19673483       8.60303795       0.14756861       0.13051391      -0.36714805
O      -18.83917905      28.86331109     -15.92126200       0.88432369       0.91435908      -0.82995392
H      -18.06452994      28.70507381     -16.51568888      -0.51913653       0.36817287       0.25992033
H      -18.94677696      28.38119733     -15.08904783       0.11030448       0.11547785       0.04868826
O        4.62186280      26.41899659      -8.28783228       0.48864622      -0.33717861       0.44464972
H        5.34324731      26.62601024      -7.75908389      -0.19764026       0.32363458      -0.19579846
H        3.81177612      26.53302686      -7.67106016      -0.37033791       0.08464932      -0.15765945
O      -18.20532827      21.57286624       1.46820764      -0.67993610      -0.28708034       0.45575205
H      -17.98185437      20.72188127       1.08436338      -0.32401136      -0.23323989       0.00736320
H      -19.09294024      21.93733199       1.46414037      -0.02217959      -0.42570140      -0.35968210
O       11.43117710      20.28658212       6.91201449      -0.67292022       0.13712169      -0.13962784
H       11.56427120      21.18903501       6.77074039      -0.01080584      -0.36788093      -0.07538591
H       10.51036382      20.12011945       6.86055713       0.66477488       0.18869777      -0.12849598
O       -9.45752294      -6.81179105       4.30013702      -0.58409065      -0.47656043      -0.49214737
H       -9.20870223      -7.31612877       3.55753416       0.18328499       0.21961662       0.80559757
H      -10.30791056      -6.99072403       4.61239895       0.09085425      -0.25432755       0.13541089
O      -25.45567767       2.08063272      11.26413295      -1.15065298      -1.20616130       0.69007524
H      -25.41659802       1.05946491      11.23800520      -0.22373427      -0.52362750      -0.22060876
H      -24.60132397       2.60933787      10.77698598       0.61199586       0.21928139      -0.19887104
O      -12.45301717      -7.42058920      19.41574820      -0.40347478      -0.84414442       0.28033122
H      -12.26987119      -8.27219782      19.03470853      -0.15699871       0.12755015      -0.30520096
H      -13.02575543      -6.81485847      18.97306644       0.18676721      -0.24359054      -0.33961935
O        8.12962180       8.58313193      17.41694008      -1.01068620       0.97168956      -0.08635095
H        8.95000098       8.04374761      17.60558591      -0.01066053      -0.21801933      -0.09106573
H        8.34280354       8.58337594      16.47815804      -0.06028785      -0.05075275      -0.08147475
O      -11.18007179      -0.73202711      18.48764140       0.31792640      -0.13200625       0.50518986
H      -10.66820716      -1.52760359      18.68419294      -0.01795351      -0.03201778       0.02997626
H      -11.81703562      -0.98895293      17.82739403       0.12647112       0.00645727       0.20895094
O       22.67728953       4.00640730      19.07226338      -1.07943577       0.03192268      -1.30786165
H       22.28984334       3.37111349      18.44052200       0.30124901       0.36636617       0.17136929
H       22.62200539       3.45786707      19.88153095       0.12968272      -0.01200889       0.23695491
O       -4.97511018     -18.86812678      -3.74557636       0.07264285       0.42856453      -1.24445971
H       -4.12699349     -18.96228464      -3.33482456      -0.15534378      -0.28591189      -0.27240938
H       -4.82412802     -19.17848010      -4.68770584      -0.06400242      -0.24546663      -0.03359723
O       27.62688668     -10.01742199      -7.20087171      -0.46730929       0.96643402       0.85625846
H       28.51662269     -10.00763211      -6.74752264      -0.42799012       0.04722057      -0.55170885
H       27.08692914     -10.60660928      -6.63580941      -0.35378981       0.05776708      -0.37374514
O        6.98158837       0.35425145       5.91631883       0.78179212       0.39498587       0.93374016
H        6.92365182       0.59149615       6.79074450      -0.04496791       0.11987988       0.04750693
H        7.26648442      -0.56348282       5.79847498       0.17941771       0.09205413      -0.34067583
O      -18.61143748      -2.02839564      24.54628904       0.67242456      -0.16228554      -0.31677088
H      -18.81317888      -2.34231818      23.65388417       0.08595655       0.09303883       0.27239700
H      -17.85688183      -2.61336182      24.84634589      -0.32338997       0.32847505      -0.13898430
O        4.90629112      -6.74551674      -5.54799608       1.30262617       0.91681373      -0.21407888
H        5.17290578      -6.28490503      -4.75977859      -0.19366271       0.02121321      -0.34953215
H        5.24767744      -6.39675221      -6.41542350      -0.03532752      -0.11881720       0.47223136
O       12.14824087       9.79183848       6.32382854      -0.27734793       0.36125457       0.34698415
H       11.85744437      10.12328716       7.10985412       0.31026006      -0.72066504      -0.47830741
H       11.94363681      10.37657690       5.60476325       0.24421438      -0.35290913      -0.16135002
O        4.44153000      11.87060339      -5.11663923       0.56794985      -0.26310746      -0.86021642
H        4.05441962      11.45429430      -4.32341313      -0.07555311       0.15057068       0.12821391
H        4.26709108      11.29340772      -5.83275914       0.13062653       0.23210819       0.30463369
O       13.20694365      29.02187280      15.90963278      -0.46555522      -0.32551940       0.22625566
H       13.67427636      28.94576707      16.72991508      -0.24836500       0.04453345      -0.27300207
H       12.33013755      29.38226030      15.96525640       0.03739441      -0.17127810       0.27654482
O       -4.11030427       4.00804854       1.21610030      -0.61456664       1.05848016       0.19285494
H       -4.29458759       4.90799651       1.09466061      -0.06921524      -0.67295711       0.44462728
H       -4.89513529       3.41052351       1.47406711       0.01580915      -0.01795218      -0.02481303
O        6.56821665     -15.80988609       8.88746868      -0.01942822      -0.08355441      -0.65711772
H        5.89681636     -15.16761940       8.70126500       0.02509829      -0.30837834      -0.04425860
H        6.32081820     -16.72981379       9.00948400       0.28578696      -0.12625225      -0.14508057
O        1.62441252       8.72135219      22.79914932      -1.57974885       0.00388267      -0.98824883
H        1.50912458       7.92669484      23.37236323      -0.11831265      -0.03153694      -0.00942450
H        1.77633570       8.40200210      21.94569283       0.41849689       0.21901530      -0.16606502
O       22.90326999      22.86578130      -0.31826201      -0.47799950       0.88226774      -0.07242022
H       23.38304008      23.69976610      -0.21875286      -0.02141514      -0.09464893      -0.10847597
H       22.22284227      22.65522345       0.29747158      -0.36656553      -0.04528902      -0.10492478
O       11.97645635       5.99492152     -16.66868923       0.71566774      -0.10351251       0.18416591
H       11.81914762       5.04807309     -16.58856012       0.11204420       0.17512894      -0.02202590
H       12.01242363       6.30351688     -17.50557939       0.14410149       0.33579255       0.25795945
O       -7.75772828      22.87294319       1.76509866      -0.17631075      -0.62472964       0.39172071
H       -8.59618706      22.37888159       1.71992770       0.04286541       0.02350269       0.11845730
H       -7.68891602      23.11794076       2.75931713      -0.12773703       0.04536448      -0.90340347
O        5.20288875     -15.66764379      17.49657858      -0.18630797       0.29114522      -0.34008216
H        5.83438098     -15.66704199      18.22086106      -0.31800530      -0.36219911      -0.10601061
H        4.96224308     -14.73928922      17.43624295       0.24751777      -0.28658011      -0.34086345
O        1.73235623      18.68507952       0.57936522      -1.48825022      -0.69575830      -0.13016572
H        1.19974035      18.85948398       1.30914450      -0.07092601       0.14556339      -0.17615360
H        1.22930405      18.53007930      -0.17980049       0.51300932       0.13161450       0.37254944
O       -4.69490981      -6.55360911       6.54295285      -1.66678684      -0.44881266      -0.00507709
H       -4.41803264      -7.39219647       6.29661578      -0.05162591      -0.04093003       0.25427550
H       -5.57519343      -6.37533345       6.00977173       0.02087390       0.00760777      -0.07603370
O       -3.53564310       2.27350100       8.47804605      -0.23149315       0.41100865       0.04294712
H       -2.88317145       2.69689653       9.04550273       0.06828476       0.11348557       0.24965328
H       -3.33331759       1.30929020       8.38617560       0.01925573       0.03799563      -0.16765041
O       14.29255494      -6.88729975      -2.46083361       1.04282228      -1.00019698      -0.08606499
H       13.57744761      -7.07390872      -3.00007498       0.16594133      -0.17009963      -0.19757590
H       15.04134837      -7.44692286      -2.65297140      -0.55740745      -0.03509732       0.35595961
O       11.47988093       3.48632809      23.58735735      -0.35175998       0.11852692      -0.07882864
H       10.85358889       3.21760191      24.24195208       0.02726434      -0.08007613       0.10985720
H       12.39183147       2.99954314      23.88835006       0.31063177      -0.46071419      -0.03689341
O        8.05324732      13.75833573      25.42323154      -0.88602040      -0.84610991       1.38251936
H        8.90846421      14.12212494      25.56328865      -0.02786532      -0.09009630      -0.31213271
H        8.09930619      12.85021071      25.29216609      -0.12874557       0.51063442       0.16827320
O       -9.15324482       5.80843853      11.49877613      -0.36562438       0.04236325       0.59956841
H       -8.09221616       5.62439356      11.66749613       0.82352016      -0.45729792       0.07645543
H       -9.45365441       6.10334930      12.30355915       0.29069697      -0.00653588      -0.47745125
192
Lattice="13.065697637537694 0.0 0.0 -5.291498290183305e-07 13.065697637537694 0.0 -5.291498290183305e-07 -5.291498290183305e-07 13.065697637537694" Properties=species:S:1:pos:R:3:momenta:R:3 step=40 time_fs=4.0 phase=equilibration pbc="T T T"
O       12.67419376      -2.82150465     -15.45133640       1.26838510      -0.02634526       0.12561981
H       12.00128788      -2.60287975     -16.11906258       0.14148338       0.41497887      -0.04497179
H       13.30863646      -3.36685714     -15.92033792       0.15480446       0.00209495       0.33699269
O       25.27293000      24.42695773       0.36077195       0.08458845      -0.03252388       0.17628069
H       25.38826202      25.41866316       0.82567187       0.23934203       0.38766688       0.06405464
H       25.38677127      24.61314957      -0.53246922       0.15998481       0.10981070       0.70271149
O        5.36843519       1.51284432       8.10422311       0.21293271      -0.35188919      -1.79875722
H        5.85609877       1.94457905       8.79471163       0.01686119      -0.03268500      -0.10651632
H        4.91048394       0.79972567       8.43910754       0.44056220      -0.33558583       0.17603293
O       -2.94062081      -5.68525485      -2.03608222      -0.71384400       0.07363608       1.25287226
H       -2.13224922      -5.98165938      -2.39709945       0.25688978       0.64643987      -0.23236439
H       -2.97134592      -4.86474768      -1.70607682       0.18129017       0.34064867      -0.10325820
O        3.40041617      16.27876949      10.68504401       0.56633923       0.70955152      -0.63654147
H        3.91083246      17.11308509      10.78783240       0.07777316       0.23812054       0.10834475
H        3.32076464      16.45772397       9.73776998      -0.26669050       0.08292988       0.09158524
O       -1.98618651       4.38274174       2.95765504      -0.47749347      -0.66702898      -0.01375528
H       -2.42006371       4.56133332       3.75452901      -0.48461965      -0.07065098       0.25893032
H       -2.63729541       4.30224753       2.31047501       0.34599981      -0.04106182       0.10553564
O       23.88314677      13.33864890       7.31556070      -0.19274632       0.31091583       0.24760919
H       24.75196329      13.66525906       7.36528866       0.09885043      -0.21659940      -0.16688613
H       23.49650215      13.36907994       6.35440076       0.06431963      -0.21781630      -0.06507250
O       -0.67300978     -14.98875782       3.91423545      -1.21575755      -0.24589418      -0.61801539
H       -0.62284150     -15.62616823       3.23365661      -0.06092705       0.01895272       0.17627110
H       -1.36540327     -14.40341497       3.58688639      -0.15091263       0.26871519       0.35020759
O       18.42906774     -18.39069420       9.85806126       0.35483285      -0.53719784      -0.10656754
H       19.43316563     -18.62701586       9.94248313       0.15279351      -0.17645785       0.03405086
H       17.79951975     -18.87866844      10.37728636      -0.01951166      -0.01854170       0.02280121
O        4.85092259     -14.18711732     -13.58173537       0.79039761      -0.41233779      -0.62183236
H        5.78675265     -14.29225093     -13.66398241       0.16754814       0.57988699       0.05305152
H        4.58123383     -14.83488580     -12.99051496      -0.19439180       0.19070084      -0.08387431
O       -4.80965913       2.21297501       4.33019629      -0.03231771       0.90208537       0.36784343
H       -4.85617312       2.07030648       3.40335554       0.06768373      -0.03988249      -0.02538248
H       -5.62106852       1.79396180       4.83387787      -0.14072014       0.11125826       0.06360257
O       -5.85170787      15.25607209      27.73320798      -0.55561404       0.61919338      -0.84872726
H       -6.85938253      15.08996904      27.87359075       0.58025582       0.35250888      -0.47301200
H       -5.53658256      14.86286439      26.98057356       0.04526106      -0.12169011       0.16741672
O        7.46714202     -15.55628414      -6.89432061       1.34363638       0.57399662       1.10921351
H        7.87063909     -16.38714950      -7.13562311       0.03564548       0.19609356       0.21255229
H        7.12541016     -15.81012943      -5.85482664      -0.22244373       0.24042606       0.57102876
O       15.42590475       7.48592277      20.54309674       0.50236708      -0.46058402       0.30520725
H       14.74006337       6.93765347      20.08038354       0.02205673       0.06562343       0.15737186
H       16.23623969       6.93792737      20.49207686      -0.09105858       0.56127488       0.16711853
O       -0.26084622       1.02716115       0.96631697      -0.10635022       1.17375643       0.76741590
H        0.05720070       1.30746923       1.84509009      -0.21530731      -0.01462024       0.19370978
H        0.41084900       1.46237069       0.41894052      -0.04621285      -0.11716757      -0.47184160
O      -16.14964166      12.56267961      17.74202468       0.50959207       0.24588770       0.34694526
H      -16.63123416      13.17670450      17.25693652       0.00615529       0.11400706      -0.49062426
H      -16.74707106      12.03630075      18.17049646       0.03029164      -0.19038141       0.06980359
O      -17.83245777       6.27211531      13.00060817       1.14071036       0.22020748      -1.44002300
H      -18.47827753       5.85715740      12.37457167       0.49961950      -0.00297055       0.75041537
H      -17.11702694       6.48487496      12.34556162      -0.00872201       0.60771704       0.19783054
O       -9.98749632      34.27128068     -11.48798639      -0.49444891       0.29530091      -0.39513533
H       -9.62686704      33.84034668     -10.76625827       0.19072867      -0.36211186      -0.29075850
H      -10.08435427      33.31402817     -11.70806341       0.07548311       0.08790965       0.49930990
O       36.53279335      10.89405479      21.79291056       1.06296789      -0.09686248      -0.79778679
H       36.76253187      11.70370791      21.37590480       0.06897715       0.10223905      -0.33061074
H       35.61369851      10.82808416      21.94593871      -0.25472551       0.00776536       0.26324605
O       30.54819662     -10.99826978       2.38489016      -0.27569156       0.07853195      -0.89314506
H       30.57714864     -11.57671293       3.13900328      -0.01264246       0.05504766       0.28119766
H       29.91880482     -11.46127296       1.84947961       0.33702563       0.43110420      -0.08694823
O       16.37475353       9.77868103      -6.88084441      -0.12383341      -1.10987502      -0.44375413
H       16.91117888       9.70730534      -7.72002687      -0.31088533       0.18508434      -0.15749231
H       16.12664763       8.91100608      -6.53017671      -0.26166334       0.06002755       0.02056484
O       -9.29589063       3.51281351      33.45402344       0.77597884      -0.83067267       0.19400073
H       -8.98703373       4.46683920      33.53072595       0.13705768       0.03016133       0.09091118
H       -8.62145049       2.95412731      33.80637197       0.19218064      -0.09890220       0.26672091
O        3.21211149       1.15077820       0.08450809       1.61790935       0.47284444       0.21936372
H        3.09200961       1.88789674      -0.43830965       0.05433268       0.06344021      -0.06312755
H        3.79279619       0.48044162      -0.20463495      -0.17996939       0.06302436      -0.04896562
O       23.48860905       1.95304442      12.98698558      -0.50874673       0.26479269       0.21026057
H       23.20118816       2.68510768      13.61728302       0.13911426      -0.00767686      -0.10490640
H       24.34162515       1.56484021      13.38520000      -0.14812483      -0.25655008      -0.14542896
O        0.10141744      32.50512346      15.61851829      -0.61176830       0.32754756       1.66515203
H       -0.77343264      31.95434666      15.47411142       0.23868309      -0.29481558       0.03547622
H       -0.16910359      33.39031056      15.53012951       0.20210707       0.02709497      -0.34319777
O        6.03779447      20.25301854       5.03687238      -0.62581405      -0.39381704       0.36132884
H        5.32037785      19.99496225       4.48891554       0.29113640       0.12547021       0.11220985
H        6.52582304      21.11758651       4.64457627       0.08516118       0.00914936      -0.08655609
O       -9.61018242      10.92087788      10.39733063      -0.76209236       0.37078860       1.27205646
H      -10.10672746      10.05722825      10.42580279      -0.21820181       0.19189411      -0.01659723
H       -9.21792246      11.00564001      11.19455383      -0.09170794      -0.06890509      -0.26254640
O       17.20529514      17.98270088      28.16882527      -0.62523918      -0.26240842      -1.51552135
H       17.32918314      17.08662318      28.19316787       0.42043820      -0.07861665       0.04206886
H       16.40841914      18.18169009      27.65534026      -0.00764483       0.05335344       0.13928652
O        6.71129077      18.43610592      10.90301145       0.27341963      -0.31255524       0.46477853
H        7.30231121      18.88634017      10.13687420       0.06007886      -0.09064741      -0.14030729
H        6.82001045      17.47953307      10.79945789      -0.35296691      -0.17035280      -0.23585941
O        1.05186501     -13.60742607      10.43095839      -0.30227490      -0.52208167      -0.06267864
H        0.45210167     -14.31367910      10.53490013      -0.33554581       0.22468996       0.11087013
H        1.87550527     -13.86866067      10.26314346      -0.11391583      -0.10053351       0.14387549
O        0.00263467       9.22411871       1.87290059       0.53023658      -1.51988221       1.04061452
H        0.93445354       9.09958981       1.67780302      -0.04200773      -0.25919804       0.14709870
H       -0.17463903       9.92473464       1.02143382      -0.03088807      -0.04386379      -0.21393325
O        0.45678888       0.64334813       7.77241357       0.78141811      -0.18787293       1.51272650
H        1.00371745       0.28817905       7.09145666       0.21804301      -0.03100687      -0.36330841
H        0.54455424       0.20605067       8.57553643       0.17012799       0.03758610      -0.15301953
O      -18.83353416      28.86869341     -15.92618257       0.79276970       0.99705777      -0.80237101
H      -18.11577263      28.73746950     -16.48514800      -0.48684553       0.29881041       0.32233129
H      -18.93182042      28.39219849     -15.08658358       0.18823089       0.12080699      -0.00674066
O        4.62300540      26.41639363      -8.28474108      -0.09475273      -0.37432289       0.51567525
H        5.33969193      26.66140902      -7.76972662       0.12382915       0.41294538      -0.02421671
H        3.78811364      26.53806805      -7.69933542      -0.10799745       0.02712392      -0.42212903
O      -18.20863128      21.57086951       1.47066925      -0.48150246      -0.26956859       0.35146548
H      -18.01777580      20.69966510       1.08406946      -0.41569664      -0.20692673      -0.00743243
H      -19.09797627      21.89443150       1.42496404      -0.10019297      -0.43823600      -0.44077946
O       11.42779476      20.28633635       6.91127108      -0.30522156      -0.11751637      -0.05821905
H       11.57008443      21.17402918       6.76052934       0.13972134       0.08759365      -0.13457437
H       10.55474085      20.13176288       6.84727383       0.17929274       0.04308106      -0.14730431
O       -9.46034065      -6.81374059       4.29761623      -0.41553901      -0.16977609      -0.26742473
H       -9.18471377      -7.30545064       3.62061667       0.32467180      -0.03234919       0.44937819
H      -10.31442974      -7.01886732       4.63192413      -0.21351298      -0.32247252       0.26426652
O      -25.46177532       2.07239706      11.26802112      -0.93991307      -1.48813833       0.62474687
H      -25.43663091       1.02812816      11.21328454      -0.19494671      -0.09113780      -0.27916893
H      -24.54770523       2.62295340      10.76330505       0.46191110       0.05065491      -0.06708209
O      -12.45505139      -7.42567794      19.41782956      -0.32392684      -0.85257349       0.49360865
H      -12.28390614      -8.26268850      18.99953314      -0.13132410       0.06131577      -0.40587702
H      -13.01085110      -6.83631593      18.93436146       0.11266801      -0.19337187      -0.44648706
O        8.12402442       8.58865226      17.41630297      -0.76436669       0.86691451      -0.03831597
H        8.93988118       8.02750317      17.59801341      -0.19740486      -0.10847969      -0.05909135
H        8.33593614       8.57960692      16.47240415      -0.08023263      -0.02234211      -0.02782164
O      -11.17765362      -0.73267470      18.49072417       0.42279400      -0.08105172       0.60653877
H      -10.66871479      -1.53280457      18.68804049       0.00425957      -0.07342942       0.05578577
H      -11.81042288      -0.98924614      17.84330140      -0.00663553      -0.01615001       0.11201862
O       22.67028866       4.00662248      19.06438190      -1.06094156       0.08606371      -1.10726454
H       22.31551698       3.40367501      18.45042219       0.21088543       0.26555202       0.00146920
H       22.63596089       3.46198285      19.89978471       0.16547197       0.10291734       0.13194354
O       -4.97491818     -18.86536727      -3.75395727      -0.04621344       0.37309057      -1.50612925
H       -4.13430184     -18.98928079      -3.35495260       0.01507064      -0.27672488      -0.13358489
H       -4.83324479     -19.20006312      -4.68583938      -0.12543515      -0.20375504       0.06594373
O       27.62353285     -10.01141747      -7.19514220      -0.53598956       0.94675203       0.92937348
H       28.47426113     -10.00139685      -6.80290860      -0.36642230       0.07847873      -0.55365630
H       27.05307747     -10.59782867      -6.67563687      -0.33996853       0.10861483      -0.43408402
O        6.98639348       0.35633252       5.92086940       0.81797358       0.29142763       0.59721439
H        6.91654607       0.60775445       6.81173001      -0.09515100       0.20102488       0.35844625
H        7.28476432      -0.55428046       5.76646294       0.19503858       0.10281229      -0.30734542
O      -18.60666159      -2.02959542      24.54406279       0.75683894      -0.19883230      -0.26170427
H      -18.80661698      -2.33314124      23.67469341       0.02956968       0.08586570       0.12463405
H      -17.88945521      -2.57967495      24.83506887      -0.31045179       0.33313504      -0.06271581
O        4.91401533      -6.73985511      -5.54982313       1.21136838       0.85421057      -0.39150485
H        5.15426746      -6.27906794      -4.79038240      -0.17671165       0.11828866      -0.23804022
H        5.24416159      -6.40887972      -6.36608142      -0.01716057      -0.11441875       0.48438183
O       12.14698907       9.79284402       6.32448748      -0.05314076       0.00613574      -0.14083939
H       11.87686857      10.06300784       7.09520064       0.07772244      -0.50208546       0.22119165
H       11.96715869      10.34662442       5.57752135       0.24194064      -0.25711089      -0.39549942
O        4.44514162      11.86908426      -5.12094619       0.63493492      -0.15287193      -0.53730161
H        4.04691897      11.47076724      -4.31173707      -0.07279075       0.19479205       0.10263455
H        4.27614246      11.30729400      -5.81385220       0.05014100       0.03667568       0.05524092
O       13.20412651      29.01911923      15.90996321      -0.39603975      -0.41781300      -0.06097291
H       13.65326731      28.94823371      16.71178400      -0.15636177       0.01057830      -0.06386368
H       12.32755679      29.36816558      15.99531341      -0.09636403      -0.10574554       0.34082186
O       -4.11404139       4.01278013       1.21755235      -0.60796629       0.45315644       0.28935856
H       -4.30901002       4.86301248       1.13414113      -0.23727742      -0.18771358       0.35959096
H       -4.88237579       3.42135683       1.46812548       0.23850744       0.23068216      -0.09396935
O        6.56850143     -15.81036610       8.88326916       0.15698638      -0.16929233      -0.65639007
H        5.89330202     -15.19513563       8.69491338      -0.10844552      -0.24841084      -0.08792903
H        6.34721918     -16.74063374       8.99508869       0.25881200      -0.09919286      -0.14734223
O        1.61449879       8.72096415      22.79376074      -1.63526316      -0.09839215      -0.68250854
H        1.49769451       7.92887820      23.36834772      -0.11485116       0.07934605      -0.07082366
H        1.82027496       8.42048763      21.91464569       0.47579493       0.17403441      -0.42254298
O       22.90000551      22.87088095      -0.31915932      -0.49442386       0.87283534      -0.20626166
H       23.37666024      23.68712122      -0.22762552      -0.09265135      -0.13786742      -0.06828758
H       22.18361552      22.64949496       0.29089329      -0.40787071      -0.05439479      -0.04856960
O       11.98053436       5.99393060     -16.66568794       0.67725970      -0.16552306       0.68452581
H       11.82938169       5.06041047     -16.58939778       0.09915589       0.06543674      -0.00248333
H       12.02729913       6.34537922     -17.50578630       0.16458160       0.51582246      -0.24330179
O       -7.75866929      22.86867629       1.76785317      -0.16432406      -0.65960520       0.43319328
H       -8.59256734      22.37885965       1.72999250       0.01101010      -0.02749052       0.08305944
H       -7.70145088      23.12219907       2.66605615      -0.12084495       0.07581629      -0.91883536
O        5.20143850     -15.66580478      17.49418569      -0.26353537       0.19572413      -0.36340167
H        5.81176589     -15.70502816      18.21509753      -0.13375875      -0.42354962       0.00818284
H        4.98327318     -14.76042318      17.39935753       0.17856077      -0.12146085      -0.41361712
O        1.72466508      18.68034960       0.57875032      -0.99670616      -0.74053380      -0.01823594
H        1.17903719      18.87770825       1.30752043      -0.34261293       0.23281340       0.13201782
H        1.26723595      18.53993646      -0.16185612       0.24656674       0.06985528      -0.04313820
O       -4.70599671      -6.55514590       6.54283510      -1.95959771      -0.10558335      -0.00503165
H       -4.41664059      -7.41360232       6.31708513       0.07048522      -0.37973453       0.17361220
H       -5.56620136      -6.37680691       6.00743752       0.16131625      -0.04161556       0.02998679
O       -3.53691166       2.27561910       8.47844476      -0.17768685       0.30044777       0.13098947
H       -2.87876645       2.70393659       9.06796807       0.01112731       0.02239948       0.19926549
H       -3.33081216       1.32131308       8.36912949       0.03416131       0.20855932      -0.18006267
O       14.29897387      -6.89272745      -2.46075524       1.06362337      -0.77325926       0.09696285
H       13.58149065      -7.09278095      -3.02732426      -0.06748318      -0.21449904      -0.35291558
H       14.99506059      -7.45605227      -2.61961974      -0.33954909      -0.18951496       0.31954961
O       11.47832146       3.48681130      23.58634073      -0.11021595       0.05007078      -0.11621374
H       10.85298487       3.20822958      24.25718455      -0.01742488      -0.10563452       0.19569988
H       12.41208749       2.95985146      23.88017231       0.09539375      -0.34394505      -0.12421343
O        8.04703991      13.75407985      25.43143150      -1.08485349      -0.42979136       1.42857666
H        8.91729795      14.11912918      25.53450497       0.20347873       0.03103754      -0.27161258
H        8.08673332      12.87793736      25.30594795      -0.12766487       0.02324441       0.11656991
O       -9.15412654       5.80786251      11.50078429       0.06186213      -0.22031493       0.07426391
H       -8.02068251       5.58087251      11.67296554       0.61534746      -0.42504890       0.04033539
H       -9.43238781       6.11162016      12.28001108       0.13760733       0.19075395       0.03844130
192
Lattice="13.065577391354173 0.0 0.0 -5.291449591484457e-07 13.065577391354173 0.0 -5.291449591484457e-07 -5.291449591484457e-07 13.065577391354173" Properties=species:S:1:pos:R:3:momenta:R:3 step=50 time_fs=5.0 phase=equilibration pbc="T T T"
O       12.68163605      -2.82143549     -15.45068409       1.18266755       0.04770709       0.03851098
H       12.01479511      -2.56260065     -16.12144374       0.14914526       0.40515498      -0.00148526
H       13.32657921      -3.37070518     -15.88788294       0.21424115      -0.08294136       0.32146480
O       25.27297220      24.42684970       0.36359755      -0.00052380       0.06530724       0.79705003
H       25.41134747      25.44999891       0.82903900       0.23604351       0.25332776       0.00662471
H       25.40657119      24.62739807      -0.48959587       0.25921095       0.19650723       0.12327902
O        5.37010025       1.51144498       8.09238811       0.32833598      -0.13397100      -2.00531059
H        5.86096764       1.94405445       8.78888054       0.07858219       0.01773506      -0.01974945
H        4.94322473       0.75174547       8.46277744       0.25677045      -0.61294380       0.29399489
O       -2.94558289      -5.68619725      -2.02871907      -0.87532454      -0.34598072       1.14498823
H       -2.09761083      -5.92171743      -2.42498567       0.41336027       0.59355277      -0.31968054
H       -2.95376502      -4.80521230      -1.70680761       0.18062335       0.81418346       0.06371114
O        3.40391529      16.28354908      10.68092746       0.58901298       0.90592836      -0.66076627
H        3.91509617      17.13107563      10.80268310       0.00671012       0.12563804       0.20063061
H        3.29375903      16.46159355       9.74430582      -0.29003121      -0.00104093       0.03041015
O       -1.98799670       4.37879036       2.95783916      -0.15414763      -0.59139179       0.15658987
H       -2.47145222       4.55587824       3.79292263      -0.53216028      -0.05599916       0.45607090
H       -2.61828786       4.29606471       2.30266469       0.04173707      -0.08504162      -0.26726309
O       23.88083598      13.34029043       7.31655635      -0.47222485       0.26794729       0.09690434
H       24.77162331      13.64703201       7.34878815       0.29554010      -0.16236914      -0.17094454
H       23.50676542      13.34472001       6.35582149       0.15130591      -0.27969737       0.09674443
O       -0.68052002     -14.98952364       3.91098339      -1.24086495      -0.04069194      -0.43408550
H       -0.62616821     -15.63770126       3.24054566      -0.01097358      -0.25405467      -0.03373107
H       -1.38258700     -14.37546442       3.62425779      -0.19067334       0.28963030       0.41929732
O       18.43190353     -18.39390006       9.85705413       0.62165545      -0.56667324      -0.18856286
H       19.43276094     -18.64128445       9.94545454      -0.15789135      -0.11969569       0.02842186
H       17.79893806     -18.88040610      10.38140189       0.01411820      -0.01753524       0.05982477
O        4.85588188     -14.18862965     -13.58630892       0.85376214      -0.13555035      -0.90083359
H        5.80926129     -14.23481106     -13.66109027       0.26756203       0.59277539       0.01019380
H        4.55292989     -14.83250783     -12.98395800      -0.37215917      -0.12852887       0.20059733
O       -4.81029478       2.21830403       4.33332306      -0.19070127       0.83938142       0.64819383
H       -4.85148370       2.06426536       3.39603673       0.02756278      -0.08129793      -0.10897187
H       -5.62387590       1.80879263       4.83217283       0.08244112       0.19296019      -0.09783217
O       -5.85616515      15.25994754      27.72903155      -0.85030416       0.69237009      -0.45618289
H       -6.79681936      15.12682140      27.82584891       0.64435375       0.39956327      -0.48965777
H       -5.52537134      14.83961189      26.97725778       0.18430405      -0.34446440      -0.21525001
O        7.47498043     -15.55249157      -6.88675945       1.21844472       0.63436053       1.34910303
H        7.87488210     -16.37080041      -7.11597444       0.05995879       0.11713396       0.18689210
H        7.10666517     -15.78425530      -5.80842346      -0.15217264       0.28630587       0.35839908
O       15.42856808       7.48278259      20.54444088       0.38761341      -0.50636022       0.20340892
H       14.74407722       6.94780986      20.09839466       0.04960384       0.13297425       0.20717077
H       16.23181183       6.99296216      20.50988415       0.04133213       0.54495894       0.20046250
O       -0.26116027       1.03445155       0.97121606       0.01454008       1.21398080       0.81841449
H        0.03235968       1.30678752       1.86379111      -0.29078293       0.00194389       0.17856811
H        0.40459525       1.44892381       0.37041446      -0.09823834      -0.16685358      -0.50005513
O      -16.14510067      12.56445927      17.74402386       0.84883708       0.38408554       0.34695310
H      -16.63542037      13.19802518      17.20105776      -0.06039293       0.26966295      -0.60795192
H      -16.75850397      12.00187487      18.18766783      -0.23051571      -0.47136072       0.25071001
O      -17.82489917       6.27347322      12.99143232       1.31718828       0.28033393      -1.43864597
H      -18.43512268       5.85435381      12.44791301       0.31893158      -0.09625128       0.69720995
H      -17.11950642       6.54572022      12.37059139      -0.02849995       0.64502281       0.30079690
O       -9.99068237      34.27288948     -11.49103483      -0.56267382       0.35777257      -0.61063042
H       -9.60478196      33.79733826     -10.78843495       0.25124201      -0.50795693      -0.18494301
H      -10.07355829      33.33218950     -11.65376662       0.14341261       0.25979714       0.60886967
O       36.53927601      10.89290689      21.78790301       1.11529997      -0.21054797      -0.77736005
H       36.76965292      11.72322927      21.34006593       0.06605618       0.25851323      -0.37835538
H       35.58256063      10.82834330      21.97230125      -0.31529149       0.00969489       0.26781689
O       30.54679684     -10.99719867       2.37965207      -0.07073290       0.23141564      -0.75866615
H       30.57739549     -11.57341146       3.17269163       0.02077533       0.03045653       0.38163261
H       29.94244222     -11.42447673       1.82823067       0.13505029       0.30739843      -0.36643172
O       16.37409499       9.77168643      -6.88396058      -0.04951982      -1.13082837      -0.58071484
H       16.87675649       9.72485605      -7.72567032      -0.38240648       0.17430382       0.02709494
H       16.10178534       8.91809396      -6.52930264      -0.24610245       0.08153522      -0.00297410
O       -9.29108168       3.50851920      33.45486129       0.78688483      -0.57754633       0.19261573
H       -8.97640565       4.46011557      33.53824371       0.07841176      -0.17105451       0.06945386
H       -8.60000529       2.94136364      33.83342909       0.21829556      -0.13637174       0.27900368
O        3.22160594       1.15339809       0.08703894       1.47990335       0.41526579       0.58693799
H        3.09582307       1.90710391      -0.45569721       0.02889260       0.30095033      -0.27330719
H        3.78359564       0.47746917      -0.21503561      -0.00853697      -0.12501624      -0.16582571
O       23.48563008       1.95480280      12.98881966      -0.39434906       0.30138811       0.40595969
H       23.21779933       2.67754664      13.59941991       0.19882645      -0.12984824      -0.24423369
H       24.31568823       1.54476166      13.36630200      -0.36568610      -0.16027780      -0.23343954
O        0.09698461      32.50550747      15.62862804      -0.83487560      -0.08117327       1.67621566
H       -0.73731980      31.93262101      15.48027398       0.49794634      -0.14015476       0.09322468
H       -0.15274108      33.40625869      15.49420832       0.13748256       0.28007235      -0.39002535
O        6.03481346      20.25142898       5.03925464      -0.30724690      -0.05551417       0.44310920
H        5.34092102      20.00465564       4.49428248       0.10900219       0.06788529      -0.01672455
H        6.52524155      21.10163529       4.64182317      -0.09472958      -0.33060790       0.03193995
O       -9.61572964      10.92255764      10.40361150      -1.06901233       0.22160582       0.80500068
H      -10.12449049      10.08036315      10.42138753      -0.15264023       0.27434915      -0.07092178
H       -9.21165066      11.00384908      11.19459324       0.21894724       0.03316135       0.26500609
O       17.20119969      17.98206294      28.15929215      -0.64095301       0.06358404      -1.49719032
H       17.37467383      17.05865464      28.19916753       0.50534052      -0.44231611       0.08177235
H       16.40441461      18.18751937      27.66703355      -0.07701087       0.06450261       0.10254176
O        6.71330625      18.43395737      10.90544743       0.40125132      -0.34601716       0.36032288
H        7.30296441      18.87367358      10.13021005      -0.04438879      -0.16497443       0.00536820
H        6.78555150      17.46598072      10.77590360      -0.35114033      -0.08926056      -0.24305389
O        1.04877514     -13.60937270      10.43070969      -0.69119536      -0.17724826       0.00866402
H        0.40896102     -14.30088877      10.54777148      -0.52567303       0.05660912       0.15094595
H        1.89340767     -13.88677539      10.27265259       0.44845856      -0.26910785       0.06057941
O        0.00569632       9.21519058       1.87883906       0.46043665      -1.36044812       0.89920982
H        0.93375852       9.07227455       1.69346340       0.02905316      -0.29701931       0.17160969
H       -0.17706708       9.91566783       1.00780669      -0.01612855      -0.14459889      -0.06136778
O        0.46119629       0.64276584       7.78070979       0.68831722      -0.01914915       1.16605301
H        1.02685031       0.28329191       7.05263852       0.22068573      -0.04872590      -0.38250140
H        0.56333836       0.20150977       8.57672743       0.21936793      -0.13298635       0.17570968
O      -18.82980511      28.87492772     -15.93003431       0.32073271       1.12701928      -0.46749345
H      -18.14669830      28.76125240     -16.46216545      -0.10239672       0.19041080       0.10676745
H      -18.91014484      28.40417410     -15.08994922       0.24984546       0.12908386      -0.05921188
O        4.62087725      26.41378154      -8.28125705      -0.53215578      -0.38929709       0.59816876
H        5.36275645      26.70478075      -7.76596580       0.31113368       0.47030053       0.07712726
H        3.79053200      26.53798164      -7.75136777       0.14524773      -0.01956667      -0.62916055
O      -18.21078348      21.56884897       1.47250239      -0.28542893      -0.33254277       0.25381658
H      -18.06132971      20.68225706       1.08378777      -0.47384012      -0.14280434       0.00534247
H      -19.11316001      21.85274555       1.37894443      -0.21299791      -0.40809455      -0.49809820
O       11.42743706      20.28479220       6.91114953       0.20603640      -0.28956715       0.03282625
H       11.59088199      21.20337615       6.74481586       0.27901298       0.47293751      -0.17865044
H       10.54059711      20.12739174       6.83098200      -0.44105701      -0.12138938      -0.18591051
O       -9.46296805      -6.81368352       4.29704792      -0.52132915       0.15515165       0.11037897
H       -9.14415691      -7.32431325       3.64321877       0.50044214      -0.35392352       0.02695605
H      -10.34068252      -7.05177272       4.66045513      -0.26672023      -0.34302476       0.29529891
O      -25.46632403       2.06233368      11.27139562      -0.60667897      -1.76129312       0.50081207
H      -25.45358377       1.04322326      11.18388320      -0.15553314       0.38790824      -0.32064412
H      -24.51411882       2.61704505      10.76557870       0.20920954      -0.17917073       0.12217190
O      -12.45673516      -7.43087165      19.42114557      -0.27068019      -0.86163716       0.62099771
H      -12.29480580      -8.25935705      18.95668492      -0.09434397       0.01540396      -0.45816671
H      -13.00270162      -6.85272850      18.88703251       0.06179541      -0.15315752      -0.50809840
O        8.12001418       8.59356129      17.41597013      -0.52730597       0.76311806      -0.02053062
H        8.91166925       8.02250448      17.59349785      -0.37199391       0.00331859      -0.03079877
H        8.32669559       8.57889845      16.47176041      -0.10823748       0.00893236       0.00981088
O      -11.17454814      -0.73304948      18.49466644       0.55154477      -0.05203047       0.72848848
H      -10.66755670      -1.54098193      18.69445618       0.01302798      -0.08786621       0.07731370
H      -11.81848782      -0.99213837      17.84835317      -0.15331130      -0.04059322       0.00238826
O       22.66386758       4.00760049      19.05860453      -0.95835799       0.25263079      -0.70655949
H       22.32762068       3.41802271      18.43576999       0.03775281       0.02201306      -0.30498536
H       22.65362534       3.47768347      19.90636701       0.19947287       0.21649854       0.00933297
O       -4.97552629     -18.86306487      -3.76386221      -0.15279925       0.32020557      -1.71235613
H       -4.12462360     -19.01581823      -3.36072964       0.16561782      -0.26967305       0.00730251
H       -4.84838222     -19.21796430      -4.67622114      -0.18457294      -0.17012343       0.11963207
O       27.61901386     -10.00542981      -7.18973347      -0.88366967       0.98247215       0.78619240
H       28.45588631      -9.99202955      -6.84982160       0.03085830       0.11057178      -0.39347956
H       27.01856032     -10.58715317      -6.71812776      -0.36702122       0.10030497      -0.42982496
O        6.99142754       0.35795415       5.92392792       0.83973618       0.25209271       0.46218866
H        6.90581813       0.62749591       6.85215879      -0.11844065       0.18664904       0.42128060
H        7.30370823      -0.54238664       5.73967230       0.19262355       0.14460526      -0.23625091
O      -18.60213320      -2.03030816      24.54250211       0.63178796      -0.01502036      -0.18335962
H      -18.80856962      -2.32644413      23.67301272      -0.07492215       0.05116674      -0.15904786
H      -17.90827055      -2.55458027      24.83777475      -0.04664903       0.15822716       0.13828526
O        4.92075883      -6.73522672      -5.55234050       0.98563747       0.61668308      -0.41696672
H        5.13943505      -6.25889615      -4.80002510      -0.12647824       0.29945161       0.05286091
H        5.24771510      -6.41562111      -6.33128749       0.10547738      -0.01275433       0.18771376
O       12.14723421       9.79183172       6.32187339       0.15223305      -0.27813606      -0.66473679
H       11.87292224      10.02463708       7.14953246      -0.13877964      -0.29580751       0.83202732
H       11.99068421      10.32450079       5.53208647       0.24426237      -0.20897363      -0.49843602
O        4.44921208      11.86848655      -5.12295067       0.70062826      -0.01427978      -0.13896980
H        4.04071897      11.49227816      -4.30449290      -0.05221619       0.24829807       0.04045724
H        4.27631400      11.29905361      -5.82331289      -0.04353953      -0.19518796      -0.23806824
O       13.20156935      29.01607270      15.90837582      -0.41279946      -0.48050617      -0.39936390
H       13.64555721      28.94657696      16.71959285      -0.00071395      -0.03954911       0.22214839
H       12.31168809      29.36045423      16.03044828      -0.21039190      -0.05380885       0.37916574
O       -4.11739533       4.01350007       1.21954119      -0.46561374      -0.15939271       0.34663485
H       -4.34089699       4.87573490       1.16460413      -0.41138118       0.43707398       0.26953134
H       -4.85268838       3.45052473       1.45719452       0.33028525       0.32877399      -0.11677428
O        6.57000584     -15.81163066       8.87927753       0.34648355      -0.28593475      -0.61204214
H        5.87453853     -15.21475571       8.68348440      -0.27172346      -0.16114771      -0.14419618
H        6.37116806     -16.74846661       8.98055724       0.23403681      -0.06431002      -0.14888207
O        1.60443021       8.71979894      22.78960859      -1.62545050      -0.25721812      -0.65242988
H        1.48676194       7.94094572      23.35767954      -0.10967004       0.15795862      -0.13984002
H        1.86646912       8.43836624      21.87289329       0.45768704       0.20695321      -0.38002154
O       22.89628285      22.87560687      -0.32062255      -0.67471681       0.71068687      -0.26112994
H       23.36668213      23.67627195      -0.23104983      -0.09666179      -0.06111943       0.00199511
H       22.14703846      22.64587623       0.28497677      -0.32027664      -0.00776686      -0.08469144
O       11.98449336       5.99307329     -16.66048527       0.65033781      -0.06483780       0.88997905
H       11.83793139       5.06007945     -16.58937639       0.07874510      -0.06570998      -0.00482311
H       12.04347507       6.39914052     -17.54202773       0.16308279       0.55306853      -0.43001014
O       -7.75956178      22.86398364       1.76930592      -0.15746858      -0.82627914      -0.01771903
H       -8.59572253      22.37174536       1.73526899      -0.07608878      -0.11364220       0.02400700
H       -7.71023231      23.13812087       2.59872473      -0.05393853       0.28120321      -0.39425389
O        5.19953511     -15.66503323      17.49163147      -0.33449460       0.00904591      -0.40885129
H        5.80791917     -15.74882954      18.22223484       0.04261196      -0.47198922       0.12852149
H        4.99679063     -14.76013847      17.35515478       0.10616822       0.11709340      -0.48564523
O        1.71982286      18.67562726       0.57970209      -0.61821232      -0.73342216       0.36368923
H        1.13836761      18.90232560       1.32707040      -0.45549840       0.25981359       0.21283703
H        1.27658176      18.54311818      -0.18995969      -0.04490680       0.00446646      -0.51305978
O       -4.71862131      -6.55521777       6.54263289      -2.13931371       0.01014953      -0.04751180
H       -4.40716006      -7.45819859       6.33217730       0.10340919      -0.48406496       0.14873832
H       -5.54419490      -6.38355113       6.01512503       0.28183700      -0.09836463       0.12429547
O       -3.53761781       2.27729871       8.47941931      -0.06709588       0.27620330       0.21374307
H       -2.88186304       2.70076037       9.08241820      -0.07606239      -0.08425545       0.09718035
H       -3.32599035       1.34822600       8.35057247       0.06766113       0.32261364      -0.20111475
O       14.30465606      -6.89644872      -2.45979336       0.79762709      -0.46371182       0.18005390
H       13.56934005      -7.11413971      -3.06474671      -0.14108116      -0.21714576      -0.38796715
H       14.97943116      -7.48753963      -2.59126735       0.02053444      -0.46040441       0.26292692
O       11.47803639       3.48674985      23.58554752       0.03476381      -0.06820701      -0.05390505
H       10.85370399       3.19842515      24.27588443       0.05116817      -0.08690577       0.17379258
H       12.40895035       2.93329061      23.86352369      -0.15643814      -0.19996038      -0.21183480
O        8.04001606      13.75289441      25.44018703      -1.14669337       0.07246766       1.49971833
H        8.94302097      14.12557953      25.50911500       0.29086935       0.08544013      -0.24859563
H        8.07422133      12.85332303      25.31405956      -0.12578617      -0.49639587       0.05928315
O       -9.15200092       5.80549302      11.49938455       0.60142378      -0.52420005      -0.45366079
H       -7.97784028       5.54327482      11.67499536       0.24345781      -0.33829436       0.00278973
H       -9.42503407       6.13998728      12.31105207       0.03166826       0.37474255       0.55853591
192
Lattice="13.06550040218841 0.0 0.0 -5.291418411516093e-07 13.06550040218841 0.0 -5.291418411516093e-07 -5.291418411516093e-07 13.06550040218841" Properties=species:S:1:pos:R:3:momenta:R:3 step=60 time_fs=6.0 phase=equilibration pbc="T T T"
O       12.68846949      -2.82084240     -15.45066502       1.07020425       0.13863017      -0.06418273
H       12.03193520      -2.52490278     -16.11841355       0.21003815       0.36401331       0.06256482
H       13.34911581      -3.38229679     -15.85768830       0.24112921      -0.14805990       0.29783553
O       25.27254076      24.42739467       0.37057196      -0.08342406       0.16612558       1.42538076
H       25.43355475      25.46682432       0.82697302       0.22211175       0.09359172      -0.05041604
H       25.43727282      24.65121506      -0.50874332       0.36700612       0.28577008      -0.46380684
O        5.37215246       1.51060932       8.07994980       0.33543055      -0.18200251      -1.98804442
H        5.86948310       1.94633134       8.78833020       0.08505524       0.01811796      -0.00524537
H        4.96636355       0.69023922       8.49146191       0.24716905      -0.59575396       0.26889923
O       -2.95083861      -5.68842466      -2.02184236      -0.80368328      -0.30924637       1.10142911
H       -2.06032480      -5.86377748      -2.45488840       0.30985634       0.60248637      -0.27302177
H       -2.93574628      -4.72439892      -1.69994590       0.18861159       0.75287497       0.04821760
O        3.40761592      16.28969255      10.67684283       0.62102185       1.12549596      -0.65007875
H        3.91202918      17.13688532      10.82701693      -0.06703594      -0.00196437       0.30007410
H        3.26371076      16.45711351       9.74207163      -0.32744222      -0.08995409      -0.07476537
O       -1.98865324       4.37553774       2.96007674      -0.11589621      -0.45858464       0.57606928
H       -2.51726576       4.54777092       3.83041131      -0.38981809      -0.11765256       0.27066368
H       -2.62597950       4.28619068       2.26254909      -0.16600113      -0.11095622      -0.51065448
O       23.87731368      13.34182431       7.31663137      -0.59524343       0.26603406      -0.05585543
H       24.80445945      13.63135507       7.33184094       0.35058636      -0.16933611      -0.17528592
H       23.52573511      13.31451404       6.37340543       0.24009279      -0.33702095       0.26324854
O       -0.68831865     -14.98911790       3.90862917      -1.30525611       0.12348637      -0.35337008
H       -0.62613303     -15.67117368       3.23023087       0.00354591      -0.39802892      -0.14783322
H       -1.40010119     -14.34971156       3.66856865      -0.15672437       0.22071688       0.48890779
O       18.43635634     -18.39739482       9.85564966       0.85181440      -0.60419249      -0.24494698
H       19.40277341     -18.65017190       9.94798990      -0.44261930      -0.06758585       0.02683233
H       17.80243322     -18.88136381      10.38828019       0.06080170      -0.00306104       0.08170879
O        4.86134227     -14.18896104     -13.59223548       0.92029695      -0.04879977      -1.00713345
H        5.83299000     -14.17765175     -13.66025471       0.19359938       0.57193549       0.01267835
H        4.51399968     -14.85211911     -12.95831142      -0.38751188      -0.21817178       0.26980482
O       -4.81194133       2.22322732       4.33784287      -0.35127585       0.76884502       0.80823569
H       -4.85059760       2.05506330       3.38555223      -0.00831296      -0.10373936      -0.08809762
H       -5.60520647       1.83128814       4.81489829       0.29246992       0.26473454      -0.25148927
O       -5.86098688      15.26427372      27.72662723      -0.64221590       0.72689898      -0.33374444
H       -6.74762814      15.16586344      27.77971423       0.30174566       0.39631664      -0.44891826
H       -5.50256648      14.79926535      26.94498340       0.26142864      -0.45151995      -0.39051094
O        7.48187046     -15.54811766      -6.87749914       1.03675258       0.76309645       1.65936502
H        7.88303980     -16.36629289      -7.09931957       0.10882957      -0.02812577       0.15489294
H        7.09711647     -15.75431247      -5.78840389      -0.03804235       0.32461234       0.04128130
O       15.43026774       7.47993701      20.54539731       0.19671095      -0.38662449       0.15601218
H       14.74687725       6.96102253      20.11858541      -0.00174550       0.12605357       0.20020653
H       16.24950487       7.04066922      20.53057840       0.33535238       0.42726425       0.22524536
O       -0.26061074       1.04210838       0.97619728       0.16035391       1.28089783       0.79456340
H        0.00164339       1.30826470       1.87764365      -0.33238780       0.03195876       0.09827654
H        0.38952258       1.42881777       0.32604165      -0.21607084      -0.24653595      -0.39123116
O      -16.13996475      12.56715033      17.74599414       0.72222877       0.49799742       0.33459181
H      -16.63682103      13.21831245      17.14737740       0.05065436       0.10898208      -0.45546691
H      -16.78204607      11.95552697      18.21000817      -0.20508195      -0.42265990       0.16666516
O      -17.81563701       6.27582222      12.98332972       1.67505365       0.51347658      -1.15546877
H      -18.42393772       5.83243120      12.50275544      -0.10535866      -0.36510539       0.41413715
H      -17.11983947       6.61092223      12.40094844       0.02464592       0.69368376       0.31147913
O       -9.99408955      34.27543844     -11.49500260      -0.55140482       0.55263750      -0.67786939
H       -9.58114027      33.74218186     -10.80801443       0.21717905      -0.60411249      -0.24147753
H      -10.05554864      33.35838739     -11.58840081       0.22430633       0.25024498       0.72700985
O       36.54552477      10.89170915      21.78291500       0.96815644      -0.13064923      -0.81543654
H       36.77185287      11.74647759      21.30618718      -0.02710456       0.18918892      -0.29503589
H       35.56134737      10.83126237      21.99544077      -0.08221248       0.05564229       0.20087485
O       30.54687853     -10.99545128       2.37590231       0.13965569       0.29563147      -0.45170876
H       30.57993502     -11.56726733       3.20746888       0.02880856       0.10613936       0.30327162
H       29.94477296     -11.40160242       1.77818542      -0.06264776       0.17034565      -0.63715963
O       16.37376209       9.76475875      -6.88764058      -0.04130422      -1.09842826      -0.60550602
H       16.83913252       9.74071297      -7.71878201      -0.37036705       0.15074748       0.08488108
H       16.07823804       8.92554113      -6.53030063      -0.23645949       0.06602203      -0.01606500
O       -9.28586032       3.50539034      33.45602130       0.90587363      -0.46139314       0.25670676
H       -8.97145684       4.43428127      33.54380482       0.02554330      -0.34320977       0.04953791
H       -8.58331731       2.93165913      33.85755478       0.10702104      -0.04854223       0.21023512
O        3.23027728       1.15623234       0.09131601       1.36280642       0.53195918       0.76512876
H        3.09909083       1.93800687      -0.48583177       0.04761668       0.28683165      -0.31284251
H        3.78896360       0.45858133      -0.23611261       0.09992242      -0.23833484      -0.25663618
O       23.48329496       1.95652587      12.99140729      -0.33940152       0.24782520       0.42375113
H       23.23746519       2.66478539      13.57364152       0.19407063      -0.09884447      -0.25733938
H       24.27463438       1.53136038      13.34148851      -0.43939324      -0.13305129      -0.26009835
O        0.09122454      32.50418070      15.63885582      -1.01878961      -0.22823512       1.68510550
H       -0.67920887      31.92600231      15.49146599       0.66321316      -0.00803171       0.13157013
H       -0.14092760      33.43669451      15.45476575       0.11273768       0.30597767      -0.41065962
O        6.03399373      20.25204201       5.04228160       0.03889526       0.28111631       0.55068115
H        5.33964660      20.00678593       4.48464392      -0.13275336      -0.02414581      -0.17499672
H        6.50800690      21.05393560       4.65083790      -0.24758346      -0.62924563       0.15045794
O       -9.62291075      10.92368527      10.40735220      -1.25224843       0.19288662       0.48351171
H      -10.13769648      10.10764318      10.41234172      -0.12794720       0.27067693      -0.10913804
H       -9.17819787      11.01076997      11.24060119       0.43322156       0.09962301       0.62363183
O       17.19737292      17.98247165      28.15008319      -0.55732067       0.04298535      -1.44569590
H       17.42385610      17.01314958      28.20734300       0.48511569      -0.42247688       0.08160171
H       16.39334471      18.19242402      27.67504954      -0.14322235       0.03009062       0.06844958
O        6.71610072      18.43149128      10.90723400       0.52162082      -0.42185533       0.23872864
H        7.29349479      18.85396193      10.13811701      -0.15022541      -0.23719892       0.16135946
H        6.75193770      17.46344848      10.75235465      -0.33507089       0.04003972      -0.23716867
O        1.04374496     -13.60987960      10.43081540      -0.88843996      -0.06167747       0.03442849
H        0.35626821     -14.29692408      10.56288850      -0.52173601       0.04989478       0.15340860
H        1.95042933     -13.91832698      10.27722375       0.63326874      -0.35799267       0.05047405
O        0.00828685       9.20725839       1.88390955       0.38927669      -1.20938402       0.75668191
H        0.93919834       9.04223378       1.71089449       0.07306103      -0.31456170       0.18595221
H       -0.17735153       9.89602960       1.00990529       0.01104002      -0.25603295       0.10399827
O        0.46554686       0.64280059       7.78643423       0.74716859       0.00251205       0.73305911
H        1.04160124       0.28140472       7.02426082       0.06762329       0.01691388      -0.17538648
H        0.58741394       0.18199413       8.60508602       0.27151538      -0.24650098       0.36595100
O      -18.82948919      28.88215193     -15.93163324      -0.23958011       1.28355321      -0.10603724
H      -18.13153435      28.77406755     -16.46728766       0.40141194       0.07956033      -0.20527846
H      -18.88340938      28.41607358     -15.09587267       0.29509732       0.11186143      -0.05224570
O        4.61730104      26.41130642      -8.27734535      -0.53666731      -0.36176148       0.64295840
H        5.39248159      26.74989593      -7.75920321       0.26558468       0.44483530       0.04029141
H        3.80979233      26.53520965      -7.81630218       0.19662703      -0.02496673      -0.66796234
O      -18.21212246      21.56641073       1.47379314      -0.21649662      -0.42120886       0.16885459
H      -18.10813467      20.67174538       1.08540974      -0.47893403      -0.07131497       0.02761905
H      -19.13713972      21.81518279       1.32919572      -0.26275719      -0.35818990      -0.51427696
O       11.42955738      20.28299229       6.91141808       0.43094777      -0.22304822       0.05309556
H       11.62055082      21.25307646       6.72773147       0.30762924       0.48192139      -0.16033587
H       10.48176042      20.11145125       6.81169965      -0.66561284      -0.17626079      -0.20142740
O       -9.46695343      -6.81203373       4.29881756      -0.79043686       0.32479270       0.43308888
H       -9.08995689      -7.37100541       3.63167494       0.58211655      -0.56522494      -0.20761832
H      -10.35736596      -7.08387332       4.68518307      -0.05137357      -0.31044045       0.19995723
O      -25.46884789       2.05126112      11.27398388      -0.27366879      -1.77701553       0.37062033
H      -25.46619192       1.09640438      11.15040136      -0.10611194       0.63645914      -0.36988463
H      -24.50747389       2.58763352      10.78702113      -0.07123273      -0.41800940       0.31325924
O      -12.45832119      -7.43615005      19.42480753      -0.28176894      -0.87272666       0.57705773
H      -12.30212138      -8.25718766      18.91262974      -0.05711460       0.04015357      -0.42861444
H      -12.99623158      -6.86820034      18.83825141       0.08232867      -0.17635819      -0.47231269
O        8.11718932       8.59803608      17.41576739      -0.40739334       0.73020989      -0.01424947
H        8.87040496       8.02594212      17.59190310      -0.44777861       0.04956249       0.00313910
H        8.31484148       8.58100666      16.47234871      -0.13257627       0.03404093      -0.00386397
O      -11.17084428      -0.73344086      18.49925448       0.61744950      -0.08911507       0.78588382
H      -10.66706402      -1.54851669      18.70222731      -0.00988102      -0.06019511       0.08069066
H      -11.83707864      -0.99618659      17.84636488      -0.20845496      -0.03640444      -0.02103050
O       22.65810637       4.00960103      19.05524038      -0.88969534       0.38965361      -0.39144437
H       22.32396122       3.41003043      18.39353076      -0.09279836      -0.15807009      -0.52486197
H       22.67403787       3.50318290      19.90185626       0.21974330       0.30072867      -0.09639814
O       -4.97646561     -18.86115637      -3.77462123      -0.13887607       0.26505041      -1.77179157
H       -4.10666915     -19.04085276      -3.35566521       0.17526454      -0.24162218       0.08283653
H       -4.86862949     -19.23371908      -4.66483165      -0.22823645      -0.16060107       0.10075419
O       27.61220373      -9.99912220      -7.18549166      -1.26297691       1.05771978       0.58603727
H       28.48048531      -9.98035783      -6.87869681       0.44950472       0.12237378      -0.20672991
H       26.98171797     -10.57885814      -6.75802373      -0.37634427       0.06893015      -0.38577285
O        6.99655966       0.35958416       5.92691469       0.84212600       0.29104269       0.54697656
H        6.89420743       0.64151102       6.88572583      -0.11586157       0.09259955       0.24169840
H        7.32197114      -0.52606370       5.72091183       0.18334169       0.18695154      -0.14701814
O      -18.59876877      -2.02973121      24.54120637       0.43548001       0.18073771      -0.21505877
H      -18.81967942      -2.32219974      23.64670188      -0.14067654       0.04393523      -0.34112599
H      -17.89692571      -2.54976869      24.86196171       0.25807961      -0.04676944       0.34717276
O        4.92603100      -6.73213878      -5.55453322       0.75308306       0.39940234      -0.28250001
H        5.12844367      -6.22233232      -4.78281306      -0.10935407       0.42715568       0.25755719
H        5.26586601      -6.41026038      -6.33219271       0.26599907       0.12061916      -0.19672976
O       12.14834368       9.78969897       6.31700735       0.19799991      -0.36061217      -0.81614956
H       11.85517045      10.00135809       7.23911182      -0.18865053      -0.20409188       0.89024976
H       12.01469258      10.30368225       5.48610198       0.25021101      -0.22504072      -0.42035520
O        4.45359973      11.86850166      -5.12289384       0.72905186       0.01558567       0.10762918
H        4.03663099      11.51852536      -4.30439235      -0.03304892       0.28821719      -0.04044680
H        4.26875540      11.27317489      -5.85445761      -0.10247145      -0.30382020      -0.35953519
O       13.19872821      29.01286710      15.90514939      -0.49138659      -0.50203340      -0.57770174
H       13.65037633      28.94039679      16.75025896       0.07851480      -0.08048630       0.36925396
H       12.29095492      29.35551066      16.06815291      -0.18702378      -0.05363966       0.39188496
O       -4.11933201       4.01178904       1.22155880      -0.16038907      -0.27768509       0.29627012
H       -4.38640260       4.93846114       1.18785379      -0.49938163       0.75977320       0.21588179
H       -4.82685439       3.47734328       1.44827323       0.16100591       0.19048858      -0.05384787
O        6.57249432     -15.81349253       8.87563138       0.45780314      -0.33295875      -0.56179738
H        5.84262435     -15.22843057       8.66736505      -0.36307586      -0.13728599      -0.18000691
H        6.39271427     -16.75305979       8.96601976       0.20871345      -0.03398485      -0.14807833
O        1.59466718       8.71780633      22.78494577      -1.54165181      -0.35395414      -0.84954869
H        1.47604836       7.95608357      23.34268333      -0.11223319       0.13143143      -0.15020978
H        1.90738213       8.46201966      21.84630400       0.37573043       0.28189485      -0.14784428
O       22.89117607      22.87905789      -0.32229295      -0.95084386       0.45057235      -0.28226328
H       23.35879138      23.67727092      -0.22682635      -0.06074490       0.08835354       0.08502088
H       22.12326002      22.64865597       0.27305937      -0.15820961       0.07020030      -0.16181680
O       11.98835183       5.99328662     -16.65517661       0.62945934       0.14912117       0.77725546
H       11.84474842       5.04948961     -16.59075780       0.06425847      -0.13659812      -0.02766089
H       12.05761528       6.44755754     -17.57850970       0.12294547       0.42556859      -0.29186115
O       -7.76061250      22.85796467       1.76730905      -0.20897326      -1.09475319      -0.61188116
H       -8.60552735      22.35748352       1.73473028      -0.11233730      -0.16676226      -0.03206454
H       -7.71137267      23.17927527       2.59437938       0.02648426       0.56309397       0.28634328
O        5.19736401     -15.66528517      17.48906387      -0.35307334      -0.09627083      -0.37854733
H        5.81597897     -15.79475940      18.23534417       0.10024768      -0.46037326       0.11463072
H        5.00602358     -14.74217537      17.30637943       0.09681676       0.21304231      -0.49946655
O        1.71644136      18.67109379       0.58318234      -0.53590401      -0.71147724       0.72801577
H        1.09592180      18.92528436       1.33975309      -0.39532652       0.20329089       0.01553302
H        1.26289973      18.54251948      -0.25244525      -0.19800444      -0.00054407      -0.69383358
O       -4.73178493      -6.55549397       6.54218170      -2.11628122      -0.14869964      -0.07219350
H       -4.39962235      -7.49923682       6.34762926       0.03987547      -0.32948562       0.17408172
H       -5.51450302      -6.39540350       6.02952951       0.29556138      -0.13934374       0.15286942
O       -3.53782319       2.27930421       8.48097176      -0.02295478       0.40695752       0.30939348
H       -2.89280609       2.68862048       9.08752198      -0.14011625      -0.15585003       0.01783011
H       -3.31664935       1.37825271       8.32924315       0.12900018       0.26003111      -0.23924342
O       14.30850098      -6.89858136      -2.45884429       0.50548860      -0.28242454       0.10176789
H       13.56020107      -7.13389074      -3.09839373      -0.02023647      -0.18613194      -0.28619168
H       14.99400504      -7.54230831      -2.56763046       0.23468684      -0.62895057       0.22692567
O       11.47842528       3.48585449      23.58545858       0.10945911      -0.21920423       0.07354098
H       10.86442054       3.19234344      24.28819821       0.16883679      -0.03506122       0.07684732
H       12.38297785       2.92016764      23.83890749      -0.36459359      -0.07342878      -0.28929532
O        8.03319635      13.75426576      25.44940381      -1.03501947       0.33281163       1.54255700
H        8.96747505      14.13186978      25.48507329       0.18429374       0.02831085      -0.24348133
H        8.06260640      12.79237913      25.31872424      -0.10952814      -0.66952723       0.05006337
O       -9.14687204       5.80168922      11.49604209       1.01985138      -0.66369193      -0.51049312
H       -7.97453423       5.51572254      11.67319111      -0.17647962      -0.22371921      -0.03872632
H       -9.42034711       6.17800313      12.37268259       0.09595268       0.36315586       0.60579015
192
Lattice="13.065361431310818 0.0 0.0 -5.291362129472717e-07 13.065361431310818 0.0 -5.291362129472717e-07 -5.291362129472717e-07 13.065361431310818" Properties=species:S:1:pos:R:3:momenta:R:3 step=70 time_fs=7.0 phase=equilibration pbc="T T T"
O       12.69466737      -2.81974375     -15.45120719       1.00570906       0.20241284      -0.16100756
H       12.05574166      -2.49214155     -16.10958675       0.27750725       0.30678314       0.10773917
H       13.37145104      -3.39790896     -15.82909259       0.21026108      -0.16479620       0.28806744
O       25.27173068      24.42867083       0.38002349      -0.07072273       0.35442794       1.55075715
H       25.45419816      25.46781568       0.81870804       0.20742163      -0.06734703      -0.12177459
H       25.47464002      24.67895655      -0.56215895       0.38478102       0.26405687      -0.52328171
O        5.37408753       1.50886210       8.06822986       0.31996966      -0.38580021      -1.78546500
H        5.87543864       1.94558900       8.78519127       0.03112955      -0.04073649      -0.06700947
H        4.99424285       0.64203386       8.51150285       0.32821529      -0.38347443       0.13639163
O       -2.95505498      -5.68939954      -2.01517671      -0.56192665      -0.02163137       1.05322421
H       -2.04290626      -5.80380434      -2.47518989       0.02951614       0.62489627      -0.13462087
H       -2.91732854      -4.66713505      -1.69960620       0.18665050       0.41554548      -0.03993430
O        3.41142583      16.29704197      10.67267455       0.62446224       1.31669956      -0.68442352
H        3.90259041      17.13140832      10.86067585      -0.12167282      -0.09900517       0.38977380
H        3.23016641      16.44367609       9.73123077      -0.35592382      -0.18180438      -0.12988404
O       -1.98994989       4.37302117       2.96444232      -0.35211814      -0.35374839       0.81409662
H       -2.54628156       4.53235430       3.84204056      -0.20485122      -0.19790252      -0.03733870
H       -2.64266304       4.27570983       2.21347878      -0.13887263      -0.09723185      -0.44643523
O       23.87353998      13.34342108       7.31588256      -0.51939267       0.30498629      -0.13946806
H       24.83451450      13.61202319       7.31477353       0.25382800      -0.23065322      -0.17155514
H       23.55225993      13.27900575       6.40481583       0.29873463      -0.38952712       0.35645124
O       -0.69654736     -14.98805811       3.90624525      -1.37511224       0.14702504      -0.43084921
H       -0.62684696     -15.70784239       3.21750063      -0.02320473      -0.32799766      -0.08933802
H       -1.41154889     -14.33463165       3.71899971      -0.07572732       0.07883646       0.54398125
O       18.44171991     -18.40090396       9.85392214       0.91176941      -0.58850466      -0.28481746
H       19.35225077     -18.65547289       9.95121797      -0.53594314      -0.05730382       0.04642965
H       17.81029506     -18.88059615      10.39737882       0.10046677       0.01438043       0.10966129
O        4.86694346     -14.18949265     -13.59792639       0.91416753      -0.19523846      -0.86776944
H        5.84326979     -14.12417269     -13.65758140       0.00839410       0.51737553       0.04101787
H        4.48355525     -14.86559777     -12.94013359      -0.21636646      -0.03545185       0.07250492
O       -4.81429635       2.22780273       4.34282945      -0.39273677       0.74722224       0.79603572
H       -4.85254448       2.04458625       3.38100595      -0.02937105      -0.10843637      -0.00040051
H       -5.57135922       1.85808889       4.78599598       0.35605230       0.26417593      -0.31153916
O       -5.86318485      15.26832938      27.72387234      -0.06526309       0.62677401      -0.49439110
H       -6.74501154      15.20320452      27.73772940      -0.25874157       0.37394680      -0.41210682
H       -5.47877419      14.75688227      26.91017164       0.20769575      -0.39595830      -0.28610871
O        7.48763999     -15.54295237      -6.86632974       0.88031233       0.85017999       1.94138447
H        7.89515982     -16.37426057      -7.08511922       0.13353809      -0.12086320       0.13945078
H        7.09922819     -15.72119366      -5.80013251       0.07916293       0.34884075      -0.27176989
O       15.43092556       7.47799769      20.54609163       0.10110233      -0.22394531       0.14561129
H       14.74246359       6.97032191      20.13578140      -0.08456840       0.06007175       0.15366072
H       16.29485861       7.07662770      20.55300804       0.56665607       0.32369948       0.23681548
O       -0.25931553       1.05007706       0.98085064       0.24414166       1.30659842       0.71933860
H       -0.03100065       1.31376668       1.88271341      -0.33022768       0.08558027       0.01112870
H        0.36281412       1.40159343       0.29616700      -0.32385236      -0.30402977      -0.22059217
O      -16.13645954      12.57016944      17.74787787       0.34922220       0.52015248       0.33851917
H      -16.62323032      13.21556048      17.11563579       0.22798107      -0.16773879      -0.18442609
H      -16.79239719      11.92551984      18.21531291       0.00050864      -0.17824378      -0.06129062
O      -17.80415721       6.27968414      12.97698944       1.97534153       0.74808023      -0.88523896
H      -18.45227735       5.78507093      12.52913666      -0.43720053      -0.57376785       0.15075111
H      -17.11549853       6.67995560      12.42960176       0.04696017       0.71621489       0.27534271
O       -9.99713569      34.27915929     -11.49892347      -0.46306782       0.77467959      -0.62151272
H       -9.56079981      33.68529236     -10.83209350       0.21900510      -0.51484655      -0.22142463
H      -10.03393641      33.37287651     -11.51929935       0.18331645       0.01649873       0.63648806
O       36.55042758      10.89133615      21.77744495       0.75420020       0.05444769      -0.89489928
H       36.76280429      11.75621555      21.28462564      -0.15081739       0.00460846      -0.13716776
H       35.56913731      10.83926258      22.01012553       0.25174419       0.11013110       0.10375543
O       30.54766687     -10.99364614       2.37387828       0.19087573       0.23505025      -0.22716184
H       30.58122605     -11.55143209       3.22729138      -0.00093713       0.21800126       0.08846940
H       29.93632260     -11.38776737       1.71180753      -0.06647309       0.13100009      -0.67823341
O       16.37315882       9.75811575      -6.89096117      -0.10904619      -1.02770611      -0.47664004
H       16.80742383       9.75387943      -7.71445306      -0.26386665       0.12081603      -0.02209601
H       16.05526224       8.92986407      -6.53201053      -0.23199105       0.02165249      -0.01989655
O       -9.27982537       3.50241655      33.45747936       1.01605045      -0.53127727       0.33053238
H       -8.96994494       4.39863226      33.54764218       0.01351845      -0.34729293       0.03910131
H       -8.58040917       2.93260242      33.87292437      -0.04864786       0.06316531       0.11274877
O        3.23849877       1.15997165       0.09594652       1.34629339       0.68239921       0.70722468
H        3.10634834       1.95640498      -0.51175295       0.10565808       0.06988545      -0.20132122
H        3.79861166       0.43643954      -0.26230815       0.07567644      -0.18798847      -0.26478763
O       23.48079428       1.95769179      12.99337517      -0.41726058       0.13594617       0.23507228
H       23.25302432       2.66398368      13.55333261       0.12313416       0.10414256      -0.14130624
H       24.23671093       1.51473859      13.31824716      -0.30200271      -0.22732779      -0.20063260
O        0.08497782      32.50294579      15.64909419      -0.96279563       0.00260156       1.71008606
H       -0.61708090      31.92440559      15.50359988       0.55625475      -0.06082123       0.10735731
H       -0.12962945      33.45917732      15.41525046       0.12300393       0.13967591      -0.39039366
O        6.03473100      20.25405226       5.04595944       0.15935383       0.37490546       0.67332522
H        5.31733239      19.99988124       4.46279546      -0.30237777      -0.10807302      -0.25195337
H        6.48186743      20.98658529       4.66821007      -0.24459175      -0.68124501       0.17862325
O       -9.63042694      10.92504697      10.41015382      -1.19128304       0.31060512       0.52283397
H      -10.15044136      10.13076931      10.40101585      -0.14073365       0.19763595      -0.11550100
H       -9.13532576      11.02067515      11.30218601       0.40532633       0.09477393       0.57918269
O       17.19417157      17.98184877      28.14108543      -0.42470857      -0.19614211      -1.38792185
H       17.46603633      16.98382013      28.21350686       0.37596367      -0.16081626       0.04760869
H       16.37736159      18.19199468      27.68061695      -0.17476584      -0.03914426       0.05537393
O        6.71958977      18.42854754      10.90818250       0.63354888      -0.46397384       0.11305889
H        7.27347041      18.82739471      10.16178166      -0.25669961      -0.29903798       0.32200742
H        6.72062650      17.47203754      10.72965405      -0.30476475       0.12429814      -0.22656788
O        1.03854418     -13.61038533      10.43083141      -0.76777953      -0.17631780       0.00074664
H        0.31171228     -14.28752324      10.57647218      -0.37832570       0.15065202       0.12456693
H        2.00195292     -13.95216416      10.28476740       0.38061970      -0.32682128       0.11301613
O        0.01057831       9.20013577       1.88811958       0.36528658      -1.08226960       0.62425752
H        0.94576782       9.01156850       1.72976807       0.05099555      -0.30850387       0.20270734
H       -0.17503122       9.86634905       1.02750844       0.03498014      -0.34470373       0.25281050
O        0.47050157       0.64243384       7.79003918       0.87612286      -0.14466031       0.50847569
H        1.03889333       0.28700376       7.02059507      -0.12395640       0.09800669       0.10631475
H        0.61519106       0.15833336       8.63889583       0.29283650      -0.21564268       0.28724061
O      -18.83192374      28.89018749     -15.93158063      -0.54724696       1.42808520       0.00809797
H      -18.07512499      28.77734827     -16.49617622       0.68965481       0.00159566      -0.34266411
H      -18.85215139      28.42441055     -15.09837722       0.34498987       0.06270898       0.00010384
O        4.61515625      26.40891941      -8.27345436      -0.08634903      -0.32481988       0.58111777
H        5.40985696      26.78890118      -7.76059015       0.07670798       0.35334514      -0.07790837
H        3.81821141      26.53438332      -7.87519159      -0.06766617       0.02130087      -0.51933382
O      -18.21355748      21.56332495       1.47451049      -0.34856461      -0.50860093       0.06583004
H      -18.15241400      20.66742215       1.08864385      -0.42363212      -0.01915788       0.03493155
H      -19.15989607      21.78298133       1.28054669      -0.18764092      -0.29478277      -0.47322645
O       11.43165704      20.28191217       6.91154482       0.24191947      -0.05422954       0.00474713
H       11.64750583      21.28867957       6.71482660       0.23952975       0.23161814      -0.09871551
H       10.42782473      20.09690472       6.79317411      -0.38052260      -0.10521824      -0.17093953
O       -9.47221408      -6.81023520       4.30161573      -0.93134542       0.19561893       0.45129269
H       -9.03753674      -7.42458157       3.61478680       0.46226619      -0.49682320      -0.09442816
H      -10.34828834      -7.11129984       4.69820393       0.23942024      -0.25040419       0.06672159
O      -25.46940181       2.04152361      11.27596146      -0.00901813      -1.30713458       0.33510749
H      -25.47425126       1.14870555      11.10954668      -0.06755581       0.34570055      -0.48072434
H      -24.52561551       2.53796164      10.82462365      -0.29429852      -0.58719091       0.45033797
O      -12.46010166      -7.44147596      19.42756601      -0.34678979      -0.88929393       0.36655649
H      -12.30552627      -8.24990987      18.87544261      -0.01330964       0.10995511      -0.31924796
H      -12.98464266      -6.88830937      18.79775293       0.15709484      -0.23910952      -0.34277995
O        8.11446900       8.60265286      17.41546352      -0.48228694       0.82426017      -0.02966729
H        8.82999197       8.02771037      17.59471541      -0.35176354      -0.03361105       0.06380336
H        8.30096784       8.58518246      16.46963527      -0.15002833       0.05288463      -0.05155581
O      -11.16698164      -0.73424591      18.50382440       0.58739779      -0.18081532       0.75388165
H      -10.67010587      -1.55181925      18.70926161      -0.05669920      -0.00656925       0.06584524
H      -11.85505024      -0.99814379      17.84758885      -0.14690246       0.00027652       0.06491515
O       22.65236035       4.01208635      19.05287606      -0.91858992       0.42101434      -0.36418199
H       22.31294656       3.39344565      18.34118582      -0.11181257      -0.15289432      -0.50754386
H       22.69563424       3.53463697      19.88848153       0.22626945       0.33322248      -0.15898486
O       -4.97690990     -18.85949151      -3.78526640      -0.00909171       0.21330876      -1.69118934
H       -4.09473951     -19.06174268      -3.34684386       0.05212625      -0.18751712       0.08708989
H       -4.89223481     -19.24986761      -4.65852921      -0.25491934      -0.17886982       0.02062604
O       27.60353767      -9.99223938      -7.18224716      -1.41050041       1.15164178       0.46505693
H       28.53294482      -9.96912792      -6.89281814       0.56775967       0.10083128      -0.10294016
H       26.94703406     -10.57312208      -6.79283148      -0.31850461       0.04897280      -0.32939345
O        7.00160696       0.36163841       5.93068733       0.82186937       0.38831063       0.70536877
H        6.88351231       0.64474223       6.89678634      -0.10069881      -0.02735265      -0.01558931
H        7.33961432      -0.50715754       5.71087974       0.18290447       0.19249597      -0.05865778
O      -18.59620585      -2.02841091      24.53924716       0.36663642       0.20852428      -0.34742947
H      -18.83238102      -2.31626304      23.61429543      -0.10963503       0.08422664      -0.28079736
H      -17.86531699      -2.55846753      24.89991014       0.33548622      -0.09610266       0.40329612
O        4.93016331      -6.72982118      -5.55559825       0.63486852       0.36683695      -0.09843391
H        5.11604479      -6.18053248      -4.75862154      -0.15001335       0.40899656       0.20362325
H        5.29774768      -6.39352109      -6.36414520       0.37268699       0.20638322      -0.41652457
O       12.14919834       9.78757026       6.31242378       0.11867275      -0.28484255      -0.65015630
H       11.84027453       9.98227352       7.30742898      -0.10968494      -0.18648080       0.48808279
H       12.03923774      10.27890182       5.45464882       0.25527364      -0.28773402      -0.20479320
O        4.45800618      11.86818440      -5.12204285       0.71803737      -0.09548283       0.11505954
H        4.03363617      11.54761846      -4.31222435      -0.03187706       0.30819976      -0.11750085
H        4.25786494      11.24545647      -5.88541992      -0.11352009      -0.23839878      -0.24506521
O       13.19533180      29.00947699      15.90158308      -0.56596057      -0.49952996      -0.48736529
H       13.65612629      28.93113200      16.78302535       0.02346522      -0.09999788       0.26940264
H       12.27923651      29.34805744      16.10553989      -0.03598854      -0.09784735       0.37308950
O       -4.11937722       4.01126230       1.22304719       0.12039043       0.17891895       0.18945326
H       -4.43313830       5.00510304       1.20798150      -0.44422560       0.54806210       0.20028936
H       -4.82512541       3.48467890       1.44794606      -0.13285148      -0.04174286       0.05007362
O        6.57528385     -15.81523303       8.87216871       0.45653865      -0.27209282      -0.54136563
H        5.80783884     -15.24428149       8.64936627      -0.32866103      -0.20450435      -0.18232539
H        6.41173152     -16.75539096       8.95157356       0.18334953      -0.02112232      -0.14613359
O        1.58556724       8.71555683      22.77858735      -1.41204802      -0.33432157      -1.15068591
H        1.46441783       7.96274770      23.33061112      -0.12772867      -0.00506413      -0.08415627
H        1.93886813       8.49309543      21.84488982       0.26819229       0.35489172       0.12341134
O       22.88430147      22.88082150      -0.32410802      -1.19096628       0.21907845      -0.31462432
H       23.35378458      23.69190003      -0.21462662      -0.04470473       0.20159080       0.16356860
H       22.11608260      22.65908101       0.25409866       0.01194723       0.14444910      -0.21718442
O       11.99201827       5.99468929     -16.65078047       0.60628638       0.31318365       0.59788762
H       11.85069234       5.03669486     -16.59479895       0.06306653      -0.10613643      -0.06064423
H       12.06650303       6.48077678     -17.59693651       0.05971762       0.25575204      -0.09073368
O       -7.76206006      22.85034069       1.76243213      -0.29209807      -1.27537878      -0.88161055
H       -8.61446352      22.34116100       1.73012617      -0.05608130      -0.14963493      -0.05321964
H       -7.70662410      23.24287646       2.64276703       0.05587961       0.70081955       0.60946961
O        5.19520066     -15.66563714      17.48683125      -0.32941628      -0.05067724      -0.28227589
H        5.82392213     -15.83647318      18.23990803       0.05255154      -0.39286514      -0.03249319
H        5.01749935     -14.72519802      17.26002642       0.14638321       0.10309506      -0.43742616
O        1.71262433      18.66651695       0.58796872      -0.73467306      -0.71743424       0.79218098
H        1.06374411      18.94043953       1.32696458      -0.25684206       0.10818882      -0.28324086
H        1.24513576      18.54491374      -0.31132471      -0.14106986       0.05962398      -0.46706199
O       -4.74400457      -6.55721175       6.54191108      -1.84308723      -0.44642939       0.02952503
H       -4.40033386      -7.51942421       6.36638644      -0.05715045      -0.08104244       0.21265031
H       -5.49393067      -6.40902487       6.04022708       0.08974004      -0.13416597       0.04529690
O       -3.53809023       2.28243816       8.48307989      -0.10040762       0.62232808       0.40352749
H       -2.90692758       2.67242183       9.08836948      -0.13744165      -0.16281536       0.01848531
H       -3.30030353       1.39423028       8.30340605       0.20382448       0.05901682      -0.28959605
O       14.31107039      -6.90035540      -2.45868984       0.41824121      -0.36390401      -0.06979645
H       13.56801854      -7.15007899      -3.11842748       0.19126514      -0.14691057      -0.11898462
H       15.01491514      -7.60161980      -2.54611166       0.15066855      -0.54764179       0.21742317
O       11.47927611       3.48398998      23.58601138       0.22416610      -0.37576423       0.17814539
H       10.88443924       3.19132989      24.29126141       0.22665138       0.01115183       0.00414769
H       12.33872744       2.91897547      23.80650948      -0.53753896       0.05299178      -0.37281684
O        8.02738644      13.75598622      25.45859878      -0.81785136       0.23540806       1.53440132
H        8.97500138      14.12866482      25.46121713      -0.04075802      -0.09711827      -0.23931561
H        8.05281055      12.73652163      25.32491243      -0.09074506      -0.43113276       0.08563055
O       -9.13966277       5.79763008      11.49382812       1.27309699      -0.61920642      -0.13397853
H       -8.01042174       5.49967271      11.66734692      -0.54272997      -0.10678695      -0.07712126
H       -9.40227743       6.20456060      12.41486778       0.27976419       0.16704672       0.22610964
192
Lattice="13.065084283565493 0.0 0.0 -5.29124988695332e-07 13.065084283565493 0.0 -5.29124988695332e-07 -5.29124988695332e-07 13.065084283565493" Properties=species:S:1:pos:R:3:momenta:R:3 step=80 time_fs=8.0 phase=equilibration pbc="T T T"
O       12.70059492      -2.81836155     -15.45203991       1.02857949       0.22062501      -0.20480916
H       12.08420623      -2.46485083     -16.09893824       0.30188861       0.25508283       0.09080904
H       13.38809592      -3.41298559     -15.80075934       0.13106273      -0.14083451       0.28681803
O       25.27109796      24.43112835       0.38876837       0.05220900       0.62019417       1.27692053
H       25.47308202      25.45278386       0.80299303       0.18970275      -0.23299104      -0.19984130
H       25.50848820      24.69840397      -0.59661930       0.31367234       0.13756572      -0.15679045
O        5.37598662       1.50590152       8.05780304       0.33666281      -0.56350769      -1.56105942
H        5.87488898       1.93773054       8.77424507      -0.03713934      -0.11749709      -0.15063371
H        5.02946809       0.61495507       8.51755581       0.39227757      -0.17757685      -0.00741321
O       -2.95753759      -5.68855283      -2.00895473      -0.26698351       0.25400210       0.95450375
H       -2.05577464      -5.74279075      -2.48032370      -0.29032916       0.61627371       0.02591690
H       -2.89969789      -4.64179767      -1.70667636       0.17016864       0.11402059      -0.09952304
O        3.41506834      16.30520436      10.66791341       0.57627894       1.44070051      -0.80704951
H        3.88904980      17.11883724      10.90170996      -0.15003807      -0.14121627       0.45119037
H        3.19557322      16.42165596       9.71994745      -0.34369952      -0.25796060      -0.07963016
O       -1.99321066       4.37098395       2.96968197      -0.73328795      -0.28381170       0.90552133
H       -2.55650895       4.50912546       3.82213232      -0.00258713      -0.27598612      -0.37266570
H       -2.64865177       4.26777194       2.18121792       0.02193957      -0.06257043      -0.20386060
O       23.87051775      13.34518975       7.31510331      -0.27654385       0.36725974      -0.02399616
H       24.85126618      13.58552591       7.29868632       0.09678478      -0.30634424      -0.15154365
H       23.58010092      13.23767554       6.43513634       0.26430699      -0.45754866       0.22375427
O       -0.70510087     -14.98704471       3.90308950      -1.40430587       0.06482866      -0.57165950
H       -0.63092404     -15.73136097       3.21468944      -0.05840275      -0.15658503       0.03095275
H       -1.41540585     -14.33393514       3.77374721      -0.01282093      -0.06512571       0.57619284
O       18.44630188     -18.40385841       9.85179185       0.66017474      -0.48899219      -0.34462175
H       19.30968618     -18.66339497       9.95757060      -0.27360214      -0.12531106       0.09140791
H       17.82018954     -18.87808604      10.40968114       0.10316559       0.02853525       0.14812820
O        4.87233747     -14.19095115     -13.60234651       0.86556753      -0.37012762      -0.66802812
H        5.83448888     -14.07733098     -13.65171479      -0.17458762       0.43392651       0.07258322
H        4.47346890     -14.85718723     -12.94557743       0.01385969       0.19696601      -0.18623756
O       -4.81603786       2.23259208       4.34706092      -0.16795771       0.84639885       0.58600822
H       -4.85545646       2.03422176       3.38512505      -0.02897490      -0.10208922       0.08212453
H       -5.54567651       1.87798412       4.76061135       0.12424508       0.12446199      -0.17805091
O       -5.86174168      15.27133514      27.71962741       0.44225549       0.45059994      -0.68865956
H       -6.79368221      15.23879438      27.69720419      -0.68773197       0.36705904      -0.41280057
H       -5.46383297      14.72313480      26.89070692       0.09241497      -0.28930439      -0.10149190
O        7.49261691     -15.53741405      -6.85363724       0.80594267       0.82640973       2.13470049
H        7.90697059     -16.38522339      -7.07103809       0.10278446      -0.09043363       0.15018604
H        7.11123082     -15.68627866      -5.83814265       0.16529616       0.35968487      -0.49755586
O       15.43143322       7.47681332      20.54656659       0.20039387      -0.12292792       0.15293632
H       14.73099088       6.97210095      20.14783221      -0.13594042      -0.01890244       0.10472748
H       16.35135045       7.10622443      20.57556658       0.55926773       0.29893719       0.23239902
O       -0.25784926       1.05794283       0.98499449       0.20832924       1.24637261       0.64295664
H       -0.06142857       1.32570518       1.88138314      -0.28844003       0.16383081      -0.02717902
H        0.32893087       1.37155968       0.28155692      -0.35370114      -0.29930211      -0.09524593
O      -16.13513855      12.57306560      17.74956489      -0.01372847       0.50056130       0.33908699
H      -16.59236538      13.18563759      17.11097283       0.38730794      -0.42827475       0.08579666
H      -16.78117980      11.92092863      18.19742726       0.21731863       0.08624229      -0.29431055
O      -17.79134346       6.28437717      12.97168488       2.02929580       0.78556641      -0.78302091
H      -18.49717137       5.72907468      12.53788454      -0.43441308      -0.52854631       0.06534846
H      -17.11265930       6.74853398      12.45406205      -0.00582707       0.68557827       0.23380424
O       -9.99930066      34.28375452     -11.50208049      -0.30126402       0.93881385      -0.47625922
H       -9.53631256      33.64678236     -10.84854053       0.28635332      -0.23870386      -0.11477896
H      -10.02354786      33.35659625     -11.46922035       0.01074444      -0.33660073       0.37023370
O       36.55374169      10.89202189      21.77121196       0.60260538       0.23626888      -0.98608115
H       36.74196489      11.74722270      21.27864142      -0.25361444      -0.17297259       0.01698165
H       35.60664464      10.85189751      22.01544592       0.50116665       0.14947773       0.02290248
O       30.54798245     -10.99234835       2.37275306       0.11385990       0.11143792      -0.14045232
H       30.57819125     -11.52451784       3.22309793      -0.04969562       0.32572363      -0.17293027
H       29.93585790     -11.37305216       1.65261882       0.08227378       0.17219458      -0.51516308
O       16.37183645       9.75184733      -6.89310498      -0.20829671      -0.94739940      -0.26682470
H       16.78835857       9.76375034      -7.72539288      -0.12113731       0.08457151      -0.20579899
H       16.03261521       8.92934388      -6.53416523      -0.22419435      -0.02702485      -0.02970213
O       -9.27330428       3.49838879      33.45892167       1.02276632      -0.77334756       0.35949377
H       -8.96663439       4.37411502      33.55094903       0.05804561      -0.12307944       0.04615369
H       -8.59103752       2.94162132      33.87935196      -0.15892975       0.10704111       0.04273066
O        3.24688980       1.16444082       0.09966336       1.41850122       0.77057417       0.48667969
H        3.11977384       1.94954933      -0.52295640       0.17023069      -0.21114977      -0.02433551
H        3.80031225       0.42587938      -0.28509757      -0.04835570      -0.01725232      -0.19384620
O       23.47723529       1.95818241      12.99374588      -0.58562695       0.04750735      -0.01828172
H       23.26055251       2.68610638      13.54647972       0.04723296       0.33960062      -0.00067890
H       24.21809874       1.48504920      13.30349741      -0.07106230      -0.37963298      -0.09420961
O        0.07990704      32.50373735      15.65941788      -0.66679334       0.49985433       1.76316328
H       -0.57886186      31.90626468      15.50973510       0.20848185      -0.31675339       0.01902676
H       -0.11674239      33.45914589      15.37940980       0.14009577      -0.14306412      -0.33161268
O        6.03492721      20.25512942       5.05047706      -0.11504594       0.05743559       0.83481243
H        5.28556285      19.98663890       4.43984010      -0.32017524      -0.14509703      -0.19367124
H        6.46875295      20.93351668       4.67945713       0.01424359      -0.34744527       0.02829608
O       -9.63699270      10.92733956      10.41375470      -1.01034543       0.51913102       0.72308931
H      -10.16568389      10.14451207      10.39022417      -0.17918342       0.08588026      -0.09891143
H       -9.10270219      11.02771683      11.34741672       0.25597071       0.05233520       0.35019893
O       17.19158203      17.97948669      28.13214229      -0.30335684      -0.44543910      -1.33099136
H       17.49569414      16.98175193      28.21534716       0.23723989       0.12448663       0.00136314
H       16.35998539      18.18353434      27.68551518      -0.16895292      -0.12905591       0.05977230
O        6.72349950      18.42526406      10.90849933       0.66184521      -0.48209356       0.10078414
H        7.24552496      18.79745127      10.19702155      -0.28834207      -0.28582474       0.37023894
H        6.69216851      17.48328920      10.70780506      -0.27907372       0.09361135      -0.21707108
O        1.03435857     -13.61174227      10.43047193      -0.59353809      -0.36050884      -0.04543366
H        0.28421590     -14.26613733      10.58651322      -0.18170616       0.28205013       0.08532832
H        2.02265252     -13.98133831      10.29906229       0.05077984      -0.28213381       0.18318404
O        0.01279329       9.19369337       1.89158555       0.34743776      -0.94273776       0.52422156
H        0.94784820       8.98280219       1.75050880      -0.00872933      -0.27200849       0.22512524
H       -0.17100607       9.83035212       1.05779156       0.04512898      -0.37853528       0.36292726
O        0.47629508       0.64085176       7.79281041       1.00231646      -0.36378058       0.47874558
H        1.01823815       0.29998973       7.04401873      -0.28514019       0.16036741       0.35816763
H        0.64364765       0.14270050       8.65585056       0.28862783      -0.09937284       0.05509293
O      -18.83482052      28.89865914     -15.93158302      -0.48267097       1.51921069      -0.13605740
H      -18.00845275      28.77506784     -16.52517589       0.62839491      -0.02834514      -0.23473316
H      -18.81523247      28.42771264     -15.09596928       0.40184733       0.02351311       0.03319391
O        4.61642630      26.40647064      -8.27000255       0.52515620      -0.29024660       0.49182111
H        5.40576617      26.81695382      -7.77460916      -0.15900068       0.23225503      -0.21149475
H        3.79278653      26.53930145      -7.91571285      -0.44345618       0.09135874      -0.32197196
O      -18.21615476      21.55948795       1.47453192      -0.64242996      -0.59182221      -0.04809224
H      -18.18843400      20.66575564       1.09142560      -0.31684221      -0.01447895       0.01887940
H      -19.17018773      21.75767619       1.23875152      -0.02313656      -0.21298042      -0.37721503
O       11.43189998      20.28169731       6.91121410      -0.08812815       0.12455708      -0.06618722
H       11.66592770      21.29543815       6.70879818       0.14081447      -0.08789379      -0.02060361
H       10.41222722      20.09138082       6.77879955       0.07155250       0.00240423      -0.11976602
O       -9.47786176      -6.80959636       4.30400665      -0.94829515      -0.02920921       0.34778298
H       -9.00200704      -7.46465336       3.61580477       0.26091839      -0.32751966       0.11372538
H      -10.31169442      -7.13237653       4.69885864       0.48290089      -0.19135062      -0.03863700
O      -25.46834131       2.03548113      11.27792930       0.16936257      -0.66321293       0.38656370
H      -25.47916092       1.15689650      11.05476319      -0.04966750      -0.16492209      -0.63800501
H      -24.56184359       2.47551868      10.87267998      -0.45568336      -0.68421403       0.53604714
O      -12.46218818      -7.44685457      19.42853973      -0.41474253      -0.91668969       0.08316176
H      -12.30379451      -8.23594144      18.85125862       0.04640992       0.16704015      -0.16530829
H      -12.96543057      -6.91371230      18.77195640       0.22524312      -0.27578522      -0.17945804
O        8.11077205       8.60803573      17.41477314      -0.67023530       0.99130398      -0.08141638
H        8.80487931       8.01636772      17.60463564      -0.15541600      -0.20013685       0.15053740
H        8.28512454       8.59106745      16.46161994      -0.17373692       0.07261922      -0.10417777
O      -11.16340125      -0.73562918      18.50782118       0.49598536      -0.26825046       0.67253625
H      -10.67750631      -1.55031379      18.71447864      -0.09515149       0.02934032       0.05149004
H      -11.86368345      -0.99568842      17.85989221      -0.03467901       0.04962598       0.19521238
O       22.64599175       4.01462357      19.04965559      -1.00444808       0.43982472      -0.58512336
H       22.30340115       3.38344757      18.29895035      -0.06932323      -0.04281334      -0.33638073
H       22.71721507       3.56483256      19.87455578       0.22693052       0.27116757      -0.09457540
O       -4.97632185     -18.85792206      -3.79515144       0.16957228       0.16780526      -1.55346870
H       -4.09825603     -19.07625013      -3.34015419      -0.13040415      -0.11671529       0.04282012
H       -4.91770159     -19.26831137      -4.66101420      -0.26742343      -0.20744094      -0.07029059
O       27.59449373      -9.98465990      -7.17938736      -1.32460106       1.24735280       0.42338955
H       28.58071005      -9.96103096      -6.90092510       0.39742581       0.05888909      -0.07151564
H       26.92043774     -10.56858479      -6.82195741      -0.20868770       0.04113496      -0.27120855
O        7.00637288       0.36443274       5.93535152       0.77485401       0.52939284       0.84515244
H        6.87458084       0.63630229       6.88323492      -0.07909583      -0.14280808      -0.24862355
H        7.35791839      -0.49014952       5.70906193       0.19849885       0.14902539       0.02257282
O      -18.59344129      -2.02737075      24.53606362       0.40677742       0.10962026      -0.52959224
H      -18.83876045      -2.30493218      23.59622470      -0.02385012       0.14797333      -0.06260424
H      -17.83855037      -2.56254933      24.93409494       0.18275053       0.03241093       0.28491947
O        4.93397665      -6.72702723      -5.55591990       0.66388246       0.52477814      -0.07559536
H        5.09866653      -6.14513891      -4.74745824      -0.20409554       0.30405642       0.00661309
H        5.33410726      -6.37343543      -6.40317481       0.35376331       0.18561589      -0.33861220
O       12.14948456       9.78591772       6.30868351       0.06626529      -0.19270856      -0.52668124
H       11.83274907       9.96532897       7.33482633      -0.04361115      -0.15352335       0.08703227
H       12.06362025      10.24729297       5.44714076       0.24696354      -0.34914382       0.04394100
O        4.46228892      11.86686512      -5.12165803       0.71334916      -0.25146841      -0.04725701
H        4.02910534      11.57749672      -4.32543869      -0.06712142       0.30552378      -0.14197075
H        4.24722973      11.22898527      -5.89864475      -0.10099861      -0.08914116      -0.02242927
O       13.19140130      29.00581706      15.89899481      -0.61807049      -0.49339995      -0.23141231
H       13.65258213      28.92036011      16.79767808      -0.09197616      -0.10818200       0.02778889
H       12.28454613      29.33524976      16.13929795       0.14514610      -0.14968693       0.32218569
O       -4.11789270       4.01388506       1.22388105       0.30678335       0.66867121       0.10093932
H       -4.47234828       5.04273715       1.22655727      -0.36620651       0.23719649       0.17811101
H       -4.85041599       3.47143266       1.45737786      -0.35500452      -0.19921657       0.13360145
O        6.57774849     -15.81618342       8.86863585       0.38527346      -0.13942352      -0.55338084
H        5.78150000     -15.26937223       8.63232856      -0.19832343      -0.32062358      -0.16051454
H        6.42842169     -16.75721170       8.93743000       0.16336966      -0.02561440      -0.13884502
O        1.57729114       8.71347002      22.77015465      -1.27720723      -0.29093033      -1.41862706
H        1.45112611       7.95456506      23.32548399      -0.14271479      -0.15051830      -0.01946864
H        1.95944891       8.52986751      21.86838444       0.15730636       0.39540723       0.35325571
O       22.87617742      22.88127922      -0.32621579      -1.25924025       0.11157983      -0.38166130
H       23.34772265      23.71206314      -0.19537751      -0.07653503       0.20265219       0.22884479
H       22.12328867      22.67443903       0.23414655       0.13179572       0.16793856      -0.16768604
O       11.99542832       5.99678579     -16.64728173       0.59013464       0.40338651       0.42774301
H       11.85721554       5.03160838     -16.60243003       0.07825164       0.01355777      -0.10488652
H       12.06862043       6.49703175     -17.59594854      -0.01146575       0.08033460       0.10226101
O       -7.76402745      22.84194376       1.75733740      -0.41198690      -1.28868841      -0.72963556
H       -8.61314843      22.33005265       1.72566634       0.09094276      -0.06034788      -0.03547312
H       -7.70234098      23.30663508       2.69725414       0.02455028       0.59436153       0.47387733
O        5.19316914     -15.66526424      17.48504480      -0.29799502       0.06632204      -0.18371124
H        5.82499779     -15.87001530      18.22697112      -0.02824007      -0.29958242      -0.22559334
H        5.03505283     -14.72483515      17.22205318       0.21687208      -0.10644411      -0.32992320
O        1.70721299      18.66169264       0.59266734      -1.01145878      -0.72558612       0.73300854
H        1.04638575      18.94545539       1.28501240      -0.10389634       0.00439515      -0.56440270
H        1.23716516      18.55363644      -0.34026553      -0.02210455       0.12504165      -0.12918645
O       -4.75402061      -6.56082093       6.54249893      -1.45220758      -0.77059093       0.20987770
H       -4.41056295      -7.51476981       6.38877775      -0.15278243       0.16876904       0.24812219
H       -5.50048111      -6.42064535       6.03572892      -0.22687433      -0.10745817      -0.13569979
O       -3.53913319       2.28666957       8.48551146      -0.26711781       0.74197700       0.43104663
H       -2.91705463       2.65909420       9.09353189      -0.06201488      -0.10210483       0.09981761
H       -3.27780032       1.39138092       8.27263113       0.24947318      -0.09247599      -0.33549136
O       14.31345776      -6.90317811      -2.45967846       0.46954381      -0.61499118      -0.26754090
H       13.59736311      -7.16209605      -3.12088173       0.41102568      -0.10212773       0.06496821
H       15.01766376      -7.64361931      -2.52499367      -0.09593243      -0.30648973       0.21407590
O       11.48094695       3.48120875      23.58672398       0.39289478      -0.48813485       0.19860763
H       10.90462398       3.19343167      24.29161263       0.17501980       0.02783035       0.03213062
H       12.28014978       2.93001224      23.76555298      -0.63071752       0.15990279      -0.45267189
O        8.02295598      13.75654504      25.46738710      -0.57532418       0.03965664       1.50211195
H        8.95827013      14.11225194      25.43802470      -0.29315388      -0.22972049      -0.22317312
H        8.04439672      12.71050829      25.33444993      -0.08006194      -0.10005719       0.11845568
O       -9.13120051       5.79402053      11.49414205       1.40812438      -0.51445381       0.30845779
H       -8.07540981       5.49394172      11.65829228      -0.77434604      -0.01239463      -0.10128775
H       -9.36578035       6.20948598      12.41429633       0.45826511      -0.05998132      -0.22613062
192
Lattice="13.0646637542847 0.0 0.0 -5.291079576110989e-07 13.0646637542847 0.0 -5.291079576110989e-07 -5.291079576110989e-07 13.0646637542847" Properties=species:S:1:pos:R:3:momenta:R:3 step=90 time_fs=9.0 phase=equilibration pbc="T T T"
O       12.70677498      -2.81695157     -15.45275182       1.12595493       0.20659916      -0.17863028
H       12.11210164      -2.44154887     -16.09336193       0.27084457       0.22524572       0.00346986
H       13.39563600      -3.42451975     -15.77258096       0.03207613      -0.09728169       0.27839426
O       25.27110461      24.43505161       0.39571907       0.21851533       0.92527999       1.00499678
H       25.48933601      25.42009463       0.78002321       0.15665071      -0.42861221      -0.26860772
H       25.53412563      24.70409910      -0.59321529       0.23029920      -0.00458340       0.20865464
O        5.37786712       1.50181936       8.04851310       0.32202408      -0.76156914      -1.39292994
H        5.86938658       1.92405999       8.75725569      -0.05983128      -0.14939280      -0.17756296
H        5.06973764       0.60684272       8.50956790       0.43470362       0.01142088      -0.15291922
O       -2.95831843      -5.68599357      -2.00332577      -0.04655786       0.52197073       0.87007409
H       -2.09579936      -5.68570200      -2.47206283      -0.49637493       0.53846370       0.12131847
H       -2.88526873      -4.64231686      -1.71751388       0.11560777      -0.11683051      -0.11632058
O        3.41822815      16.31367939      10.66208910       0.48323061       1.47571466      -0.98014483
H        3.87395114      17.10481610      10.94690162      -0.15364848      -0.12694972       0.47813812
H        3.16474763      16.39383899       9.71759795      -0.27935574      -0.29416153       0.04360211
O       -1.99873216       4.36924112       2.97526179      -1.05265387      -0.24673810       0.90672991
H       -2.54782419       4.47901671       3.77154202       0.15287138      -0.33065568      -0.62002950
H       -2.63866109       4.26327746       2.17336627       0.17515579      -0.02751497       0.03582519
O       23.86902269      13.34724879       7.31552212       0.03883141       0.44263632       0.24293421
H       24.85222380      13.55210946       7.28562342      -0.05487772      -0.36632986      -0.10840440
H       23.59993613      13.18819747       6.44207165       0.15301278      -0.55195726      -0.08650383
O       -0.71355761     -14.98664127       3.89906721      -1.33904610      -0.10506403      -0.68923989
H       -0.63747858     -15.73801778       3.22229368      -0.07598070       0.00587570       0.12533876
H       -1.41657994     -14.34454034       3.83008305      -0.02972531      -0.14739419       0.57790823
O       18.44852234     -18.40585448       9.84915274       0.25277380      -0.35533997      -0.41004941
H       19.30384845     -18.68006843       9.96877084       0.17071214      -0.22923107       0.14498558
H       17.82864721     -18.87394850      10.42552368       0.08225618       0.04512509       0.18128048
O        4.87712073     -14.19308766     -13.60553698       0.72952992      -0.44802429      -0.53780228
H        5.81317455     -14.03914407     -13.64300437      -0.22910795       0.34176270       0.09562341
H        4.48525801     -14.82909317     -12.97275961       0.21747770       0.34270995      -0.34985754
O       -4.81587268       2.23817778       4.34966767       0.16971097       0.99564979       0.31417815
H       -4.85746195       2.02466135       3.39573757      -0.01411024      -0.09342931       0.13109586
H       -5.55107552       1.88038408       4.75389338      -0.23853787      -0.07317554       0.04398619
O       -5.85847683      15.27298041      27.71399801       0.46760134       0.24134516      -0.85678077
H       -6.86241098      15.27441530      27.65581586      -0.63719132       0.37356119      -0.41323058
H       -5.46080486      14.69974927      26.88864998      -0.03496494      -0.17892694       0.07747793
O        7.49721894     -15.53216756      -6.83974418       0.77499293       0.71170210       2.32186540
H        7.91351576     -16.38834080      -7.05521429       0.03428394       0.02039305       0.16838448
H        7.13075353     -15.65017275      -5.89602595       0.23841121       0.37171523      -0.69053934
O       15.43273726       7.47596870      20.54687591       0.38667717      -0.08109128       0.16190845
H       14.71727418       6.96720589      20.15594852      -0.12186678      -0.06928954       0.08123730
H       16.39744247       7.13576399      20.59661295       0.37730282       0.31396695       0.20941984
O       -0.25702058       1.06513011       0.98882393       0.03889291       1.09229940       0.62894925
H       -0.08638446       1.34616016       1.87902682      -0.22113746       0.25839400      -0.01390614
H        0.29750738       1.34550481       0.27357658      -0.27303181      -0.22381746      -0.09054376
O      -16.13531399      12.57543383      17.75133321      -0.14963984       0.38289180       0.45535058
H      -16.55137946      13.13725384      17.12556762       0.40739673      -0.50412368       0.17031317
H      -16.75168859      11.93921964      18.15885646       0.35002964       0.26561512      -0.46342234
O      -17.77857704       6.28876122      12.96650207       1.93794377       0.70623375      -0.77140608
H      -18.52998509       5.68625424      12.54392010      -0.24169907      -0.34060829       0.06768542
H      -17.11703410       6.81154875      12.47502143      -0.10041762       0.60327912       0.20737634
O      -10.00026171      34.28836195     -11.50410781      -0.11951002       0.86687589      -0.30476283
H       -9.50365195      33.63875424     -10.85329014       0.37201411       0.09038146       0.00234905
H      -10.03259073      33.31166089     -11.44783990      -0.19542598      -0.50296745       0.06915026
O       36.55634204      10.89346875      21.76416506       0.67510093       0.32486052      -1.08027886
H       36.71363935      11.72605198      21.28432665      -0.28772736      -0.22063013       0.09402633
H       35.65528380      10.86650525      22.01616696       0.45821163       0.14840924       0.02653979
O       30.54742993     -10.99154733       2.37177098       0.02978414       0.05832582      -0.18987600
H       30.56975529     -11.48938660       3.19599845      -0.10318154       0.36672322      -0.34923710
H       29.95137257     -11.35343659       1.61330914       0.25493046       0.22149472      -0.28538379
O       16.36979124       9.74594002      -6.89398383      -0.27714942      -0.87742174      -0.11156095
H       16.78145497       9.76948741      -7.75159992      -0.02231368       0.03744826      -0.31283036
H       16.01113206       8.92466719      -6.53806349      -0.20384294      -0.05938125      -0.05781886
O       -9.26701315       3.49278850      33.45995781       0.91354378      -0.98872002       0.31667030
H       -8.95775178       4.37664014      33.55508360       0.11426619       0.16852502       0.06026138
H       -8.60740260       2.94992164      33.88165509      -0.16231218       0.04774889       0.03989672
O        3.25577334       1.16922443       0.10188149       1.50695394       0.78187806       0.25168643
H        3.13872599       1.91718080      -0.51734795       0.21403670      -0.42449342       0.12145706
H        3.78884070       0.43325249      -0.29934667      -0.17781832       0.15997094      -0.09994585
O       23.47240606       1.95832955      12.99270616      -0.72715980       0.03378915      -0.15357245
H       23.26307901       2.72493821      13.54928037       0.03327295       0.42304702       0.04478468
H       24.21822659       1.44340066      13.29853463       0.06028521      -0.44961483      -0.00655216
O        0.07675120      32.50720949      15.66987642      -0.38651711       0.92782065       1.80044987
H       -0.57498768      31.86198726      15.50659161      -0.09645164      -0.53931742      -0.06585405
H       -0.10274617      33.42924729      15.35060420       0.14370545      -0.42782396      -0.25177551
O        6.03257748      20.25334710       5.05587529      -0.59250466      -0.42152550       0.96497563
H        5.25871843      19.97231347       4.42802560      -0.21273212      -0.12718158      -0.03791500
H        6.48712768      20.92139927       4.67123096       0.35878474       0.09999008      -0.19135077
O       -9.64236783      10.93081217      10.41841488      -0.85031860       0.71607626       0.89967019
H      -10.18435909      10.14777755      10.38156309      -0.20249228      -0.00061199      -0.07016399
H       -9.08497001      11.03001296      11.37017902       0.10179675       0.00036600       0.12530303
O       17.18950617      17.97545221      28.12324594      -0.19295159      -0.67707116      -1.27102410
H       17.51084733      17.00701465      28.21213151       0.08387718       0.40312208      -0.04909470
H       16.34431635      18.16571278      27.69115362      -0.14012189      -0.22389475       0.07535404
O        6.72702127      18.42150313      10.90933530       0.53274049      -0.56588885       0.32081478
H        7.22286600      18.77536729      10.22539618      -0.14449882      -0.13461422       0.18253732
H        6.66527283      17.48651120      10.68691798      -0.27096424      -0.02196606      -0.20328470
O        1.03123306     -13.61405503      10.42972186      -0.40184350      -0.53137368      -0.08922575
H        0.27600334     -14.23269124      10.59258067       0.00690329       0.38672907       0.04779603
H        2.01213790     -14.00686491      10.31971667      -0.26919441      -0.24947505       0.24761740
O        0.01463701       9.18828750       1.89429740       0.24054627      -0.71510513       0.36069371
H        0.94497598       8.95860152       1.77415915      -0.04070986      -0.22147981       0.26432179
H       -0.16578982       9.79106217       1.10063650       0.06496580      -0.43568650       0.53330353
O        0.48244944       0.63812764       7.79599823       0.96908874      -0.49177079       0.69163348
H        0.98871397       0.31509336       7.08205619      -0.28132172       0.12762977       0.36769425
H        0.67090573       0.13902726       8.64929701       0.26846937       0.02161411      -0.17664117
O      -18.83657233      28.90715154     -15.93233290      -0.27822299       1.53909653      -0.25764293
H      -17.95515313      28.77119597     -16.53985078       0.45056744      -0.02923494      -0.08143239
H      -18.77402938      28.42901761     -15.09348757       0.42465483       0.03037585      -0.00497265
O        4.62086179      26.40395590      -8.26681726       0.89756694      -0.25161275       0.47494144
H        5.37979902      26.83309989      -7.80030187      -0.35680945       0.12308103      -0.31083526
H        3.73866765      26.54996805      -7.94077368      -0.60521375       0.13702749      -0.22120903
O      -18.22058540      21.55490431       1.47386865      -0.99109909      -0.67677403      -0.14886479
H      -18.21243138      20.66239878       1.09184859      -0.18538958      -0.04340501      -0.00983974
H      -19.16297488      21.74057447       1.20770618       0.15378660      -0.12178239      -0.25775652
O       11.43000192      20.28234305       6.91035286      -0.39732147       0.29528682      -0.14152039
H       11.67416208      21.27070515       6.71052578       0.03707422      -0.39757148       0.05963295
H       10.44077918      20.09628940       6.76956643       0.50758561       0.10941745      -0.06607203
O       -9.48283108      -6.81005309       4.30543497      -0.71440833      -0.17251215       0.13516518
H       -8.98640521      -7.48791544       3.63594964       0.05057126      -0.15165829       0.30058170
H      -10.26190216      -7.15106792       4.69461253       0.47778581      -0.21864750      -0.01744460
O      -25.46587548       2.03279330      11.27992441       0.35909299      -0.26037034       0.36324798
H      -25.48375174       1.12416147      10.98671865      -0.06523551      -0.44694918      -0.73163505
H      -24.61525736       2.40487975      10.92939223      -0.65349631      -0.75510337       0.63497208
O      -12.46443023      -7.45236833      19.42766642      -0.43502055      -0.96017279      -0.14341200
H      -12.29533829      -8.21847058      18.84203674       0.12132441       0.17622844      -0.01700778
H      -12.94197535      -6.93930393      18.76023585       0.23480952      -0.23961939      -0.06311870
O        8.10595064       8.61425964      17.41347022      -0.78891668       1.10690442      -0.16376518
H        8.79740434       7.98968192      17.62319107      -0.01459633      -0.32336033       0.23865937
H        8.26610970       8.59917733      16.44914708      -0.21429037       0.10118346      -0.13528679
O      -11.16030061      -0.73736613      18.51111762       0.40248315      -0.29114039       0.60272424
H      -10.68673833      -1.54802032      18.71897541      -0.09307944       0.00490900       0.05747805
H      -11.86245068      -0.98879254      17.88331813       0.03885129       0.08798447       0.28449800
O       22.63878898       4.01735778      19.04444623      -1.10513433       0.49611219      -0.91699177
H       22.29865655       3.38545021      18.27620866      -0.01266092       0.08608998      -0.11374254
H       22.73880772       3.58514086      19.87181262       0.23161469       0.14385917       0.05381324
O       -4.97457394     -18.85643895      -3.80420284       0.34162019       0.11556205      -1.44638457
H       -4.11983815     -19.08338632      -3.33891001      -0.30937280      -0.04347308      -0.01925158
H       -4.94362305     -19.28869939      -4.67052671      -0.26533194      -0.21887352      -0.11735078
O       27.58588142      -9.97639391      -7.17665193      -1.18981059       1.34235433       0.39009799
H       28.60670519      -9.95741944      -6.90649590       0.15254635       0.00754598      -0.04597523
H       26.90578208     -10.56454595      -6.84515464      -0.07342702       0.03234728      -0.20727805
O        7.01072138       0.36811187       5.94050050       0.71614519       0.66568676       0.86107269
H        6.86751684       0.61800256       6.85200027      -0.06490354      -0.22259058      -0.35426603
H        7.37820558      -0.47896804       5.71475861       0.22310501       0.07861899       0.09708739
O      -18.59028847      -2.02693652      24.53137967       0.42106639       0.01646396      -0.73206618
H      -18.83538241      -2.28786434      23.60230603       0.07954850       0.19496307       0.19594709
H      -17.83105574      -2.54939521      24.95073468      -0.04318825       0.24179533       0.06564105
O        4.93821766      -6.72280518      -5.55644773       0.77514083       0.78723540      -0.16060817
H        5.07639587      -6.12240867      -4.75889551      -0.24516072       0.15421070      -0.24565573
H        5.36360286      -6.35900274      -6.42417674       0.24796485       0.10235576      -0.08578776
O       12.14943322       9.78450505       6.30582112       0.04795070      -0.18623229      -0.30701023
H       11.83087639       9.95224843       7.32489786       0.01381383      -0.10708359      -0.28548772
H       12.08600198      10.21290288       5.45853635       0.21645482      -0.33142435       0.15995146
O        4.46660838      11.86450199      -5.12255678       0.74679100      -0.39041420      -0.31015310
H        4.01895801      11.60572485      -4.33700124      -0.14380787       0.27823717      -0.08684954
H        4.23819849      11.22782782      -5.88928924      -0.08055105       0.07218867       0.20785444
O       13.18715082      29.00183293      15.89792387      -0.61454437      -0.50488894       0.04030254
H       13.63839927      28.90823166      16.78744448      -0.17955880      -0.12470441      -0.21783186
H       12.30381897      29.31854554      16.16697262       0.23269253      -0.16397967       0.25637140
O       -4.11588633       4.01874363       1.22439772       0.25956748       0.91697335       0.09545021
H       -4.50478582       5.05290240       1.24195074      -0.30276279      -0.01949831       0.13518985
H       -4.88502752       3.45320356       1.47098585      -0.30968448      -0.13304823       0.13047496
O        6.57964700     -15.81607180       8.86484354       0.30585667       0.00742436      -0.59269274
H        5.76979679     -15.30580733       8.61795809      -0.04013445      -0.43222836      -0.12872515
H        6.44349895     -16.75971053       8.92430530       0.15162369      -0.03723734      -0.12359758
O        1.56966121       8.71139779      22.76039046      -1.21180353      -0.30371546      -1.47125587
H        1.43705083       7.93591843      23.32304194      -0.14203309      -0.20872522      -0.03029880
H        1.97093228       8.56778113      21.90735235       0.09503840       0.37684760       0.41920979
O       22.86807500      22.88122085      -0.32889101      -1.10867582       0.12709734      -0.50404126
H       23.33664496      23.72709711      -0.17063506      -0.13886681       0.11014170       0.27487509
H       22.13692258      22.68811390       0.22609525       0.14101490       0.11738005       0.02240691
O       11.99866923       5.99931196     -16.64464640       0.59630239       0.48850679       0.25432955
H       11.86531126       5.03927971     -16.61434583       0.09429220       0.13984793      -0.14916724
H       12.06366297       6.49605821     -17.57603718      -0.08131997      -0.09619837       0.29611961
O       -7.76668874      22.83332787       1.75341631      -0.51682417      -1.26769306      -0.52960170
H       -8.59673564      22.32798126       1.72299888       0.22043184       0.02121408      -0.01910529
H       -7.70134549      23.35661004       2.73432131      -0.00792803       0.44292764       0.28334566
O        5.19120515     -15.66405818      17.48354906      -0.29615851       0.14819106      -0.12990656
H        5.81903209     -15.89386361      18.19621139      -0.07988513      -0.20247632      -0.38018867
H        5.05913764     -14.74358819      17.19522039       0.27637270      -0.26747017      -0.20884150
O        1.70034128      18.65653872       0.59670086      -1.17753728      -0.77031877       0.55251802
H        1.03994014      18.94180116       1.22210790      -0.06154368      -0.05037871      -0.68231993
H        1.24054302      18.56776316      -0.33747424       0.09272656       0.17411156       0.18133413
O       -4.76182710      -6.56613906       6.54404962      -1.18035284      -1.00069810       0.34829719
H       -4.42904627      -7.48843296       6.41379141      -0.22118367       0.34307174       0.26428430
H       -5.53455149      -6.43032199       6.01555813      -0.44389665      -0.10143965      -0.25348772
O       -3.54109493       2.29104817       8.48777696      -0.39359204       0.68117181       0.38970280
H       -2.91839321       2.65263755       9.10757525       0.02815976      -0.03274379       0.18855007
H       -3.25306858       1.38222224       8.23880191       0.24784285      -0.06196299      -0.34488290
O       14.31620291      -6.90752502      -2.46171037       0.59137710      -0.86273098      -0.39798717
H       13.64395683      -7.16984262      -3.10794758       0.52136894      -0.06597810       0.17361246
H       14.99614358      -7.66075021      -2.50434956      -0.32379255      -0.05626797       0.20886419
O       11.48304995       3.47822783      23.58693650       0.35392299      -0.40101102       0.10081946
H       10.91551776       3.19599858      24.29884381       0.04931047       0.02717777       0.13905245
H       12.22500713       2.94357166      23.71907165      -0.42650636       0.07501671      -0.47263942
O        8.01964191      13.75567748      25.47567188      -0.45850984      -0.19040502       1.46445983
H        8.92156987      14.08520484      25.41664356      -0.41369662      -0.29726201      -0.19918851
H        8.03642194      12.71532899      25.34622720      -0.08057284       0.20254831       0.13903190
O       -9.12176757       5.79090206      11.49679071       1.59226766      -0.46059878       0.63758128
H       -8.16020020       5.49665849      11.64653225      -0.97252238       0.06874447      -0.13958734
H       -9.31516606       6.19472724      12.37437311       0.55002084      -0.21442018      -0.53803709
