192
Lattice="13.064150351776041 0.0 0.0 -5.290871652387961e-07 13.064150351776041 0.0 -5.290871652387961e-07 -5.290871652387961e-07 13.064150351776041" Properties=species:S:1:pos:R:3:momenta:R:3 step=100 time_fs=10.0 phase=production pbc="T T T"
O       12.71352072      -2.81560713     -15.45304287       1.22728835       0.20109662      -0.11101020
H       12.13526393      -2.42061582     -16.09800226       0.21397358       0.19970378      -0.11096951
H       13.39383548      -3.43228925     -15.74611413      -0.05340078      -0.07156600       0.24727365
O       25.27200826      24.44090793       0.40124053       0.39818618       1.29743926       0.80798163
H       25.50090083      25.36567319       0.75135486       0.09952803      -0.66718524      -0.31113313
H       25.55172956      24.69542357      -0.55935645       0.15262529      -0.15493904       0.46994201
O        5.37942411       1.49627327       8.03998677       0.24596762      -1.03639905      -1.29213449
H        5.86530290       1.91107894       8.74186950      -0.00751069      -0.10341552      -0.11868849
H        5.11331144       0.61741452       8.48660940       0.45996762       0.20484608      -0.31203632
O       -2.95841788      -5.68166953      -1.99785510      -0.07394882       0.82251813       0.91580528
H       -2.14310434      -5.63874336      -2.46168798      -0.42443298       0.42292942       0.06118048
H       -2.87809928      -4.66381008      -1.72843353       0.02751462      -0.33689018      -0.11040055
O        3.42071732      16.32199446      10.65519493       0.37064717       1.43105624      -1.11428602
H        3.85936731      17.09394735      10.99318158      -0.14096694      -0.07993466       0.47578929
H        3.14167968      16.36457441       9.72722629      -0.19118314      -0.28668829       0.15080019
O       -2.00535678       4.36751125       2.97983887      -1.07171727      -0.26970037       0.55613614
H       -2.53532828       4.44648070       3.71505270       0.04999608      -0.32403940      -0.45454540
H       -2.61546153       4.26193096       2.18575417       0.29152024       0.00181400       0.20289720
O       23.86910977      13.34958785       7.31734648       0.26894168       0.47651916       0.40732408
H       24.84081019      13.51420524       7.27736904      -0.14436755      -0.39439880      -0.05500721
H       23.60890237      13.12965811       6.42086233       0.06044917      -0.63007851      -0.30684632
O       -0.72128441     -14.98737759       3.89447302      -1.17411870      -0.32744944      -0.74509248
H       -0.64603331     -15.72978805       3.23832120      -0.10150861       0.14293503       0.19778646
H       -1.42418561     -14.35897719       3.88533032      -0.13913744      -0.15040532       0.55560045
O       18.44831913     -18.40702006       9.84610869      -0.04045774      -0.27858112      -0.44747703
H       19.33712963     -18.70551021       9.98472107       0.47844115      -0.29484345       0.18534347
H       17.83577342     -18.86759539      10.44355031       0.08614277       0.07246219       0.19260816
O        4.88092791     -14.19497996     -13.60843351       0.58254772      -0.30659890      -0.62519014
H        5.79488273     -14.00899225     -13.63240296      -0.11743237       0.27164087       0.10907789
H        4.51075594     -14.79721184     -13.00444659       0.27724331       0.25053096      -0.26063109
O       -4.81388037       2.24452977       4.35083922       0.37353391       1.08137775       0.15431887
H       -4.85781192       2.01562335       3.40919604       0.00252843      -0.09176682       0.14309219
H       -5.58739341       1.86573137       4.76636247      -0.46527896      -0.20423394       0.18965390
O       -5.85621711      15.27316161      27.70702326       0.18267036       0.00843370      -1.07264511
H       -6.90744467      15.30992500      27.61591561      -0.28050802       0.36378244      -0.37817567
H       -5.47057351      14.68814808      26.90473468      -0.17262691      -0.03980986       0.28235442
O        7.50173509     -15.52749858      -6.82496538       0.81596815       0.62871264       2.34054494
H        7.91366694     -16.38111786      -7.03865122      -0.01596964       0.10065845       0.15760736
H        7.15443458     -15.61309472      -5.96555677       0.22200421       0.37253207      -0.66552646
O       15.43497708       7.47523294      20.54705679       0.52715519      -0.06345042       0.15717300
H       14.70922068       6.95973693      20.16345597      -0.01570241      -0.07031697       0.09471331
H       16.42021004       7.16679490      20.61401535       0.08388709       0.32674817       0.15883970
O       -0.25749863       1.07118156       0.99277876      -0.20040122       0.89122163       0.67606193
H       -0.10433812       1.37590035       1.87885154      -0.14781331       0.35077560       0.00881356
H        0.27793330       1.32911398       0.26099251      -0.12531943      -0.10942685      -0.17157380
O      -16.13490636      12.57682778      17.75420080       0.14836623       0.25083504       0.71547888
H      -16.51819399      13.09750579      17.13094449       0.23820272      -0.25431066      -0.09850317
H      -16.71988867      11.96156861      18.11283659       0.23810293       0.13777667      -0.42274899
O      -17.76628019       6.29263249      12.96131385       1.84003923       0.63769563      -0.74853070
H      -18.54251979       5.66242236      12.54967757      -0.03123520      -0.14436500       0.05743513
H      -17.13155832       6.86433466      12.49387253      -0.21136008       0.48216504       0.18924201
O      -10.00011891      34.29146362     -11.50502070       0.03244649       0.56385494      -0.14218966
H       -9.46554529      33.65932863     -10.84985824       0.38252736       0.34005755       0.04000910
H      -10.05770692      33.26632081     -11.45222478      -0.30441592      -0.36624268      -0.14854456
O       36.55988093      10.89486785      21.75645435       0.96578158       0.24010990      -1.14371977
H       36.68609107      11.71059159      21.29111728      -0.23768556      -0.05285853       0.04166514
H       35.68328147      10.87848288      22.02264791       0.11436757       0.10091010       0.13668569
O       30.54620642     -10.99046847       2.36965825      -0.03240457       0.18454520      -0.51793627
H       30.55599486     -11.45778241       3.16381676      -0.15429027       0.24257005      -0.25824296
H       29.98301313     -11.32937011       1.59746552       0.41458707       0.26095330      -0.03901092
O       16.36738262       9.74033532      -6.89427270      -0.28894780      -0.82788204      -0.09506981
H       16.78009862       9.76994613      -7.78038475      -0.00521238      -0.02195880      -0.25622554
H       15.99212336       8.91778132      -6.54542202      -0.17156037      -0.07211495      -0.09999664
O       -9.26150580       3.48647429      33.46031720       0.76519405      -0.97723767       0.22580053
H       -8.94554436       4.40130220      33.55983945       0.11585306       0.29925548       0.06075509
H       -8.61894229       2.94833836      33.88668066      -0.07211447      -0.08251070       0.09600421
O        3.26508803       1.17365809       0.10313701       1.55932823       0.65201137       0.20376350
H        3.15933074       1.87526176      -0.50521924       0.19941819      -0.37808366       0.08782129
H        3.76785055       0.45335161      -0.30557061      -0.23124290       0.22323964      -0.03708087
O       23.46686564       1.95853539      12.99129334      -0.75594511       0.05783773      -0.11585521
H       23.26731880       2.76222042      13.55052257       0.07825352       0.32158042      -0.02184972
H       24.22213088       1.40241469      13.29942796       0.01199165      -0.36652795       0.02586362
O        0.07470595      32.51196563      15.68030499      -0.31467865       0.95426556       1.79344063
H       -0.58885166      31.80782853      15.49805657      -0.14272391      -0.49861021      -0.08379968
H       -0.08978799      33.37853591      15.32771586       0.11505825      -0.55609131      -0.21838453
O        6.02746961      20.24889332       5.06173303      -0.95211925      -0.71215342       0.97722341
H        5.24530675      19.96165652       4.43233011      -0.05438601      -0.07130104       0.12790515
H        6.53253325      20.94391524       4.64511076       0.52921873       0.31454028      -0.30867507
O       -9.64687189      10.93517662      10.42402397      -0.75131873       0.83072643       1.05914506
H      -10.20201161      10.14678122      10.37624405      -0.15384428       0.00658177      -0.02785605
H       -9.08246223      11.02673131      11.37091809      -0.05945063      -0.05929032      -0.10149445
O       17.18795896      17.97004180      28.11453274      -0.09921574      -0.82309062      -1.20873927
H       17.51136476      17.05672908      28.20393482      -0.04783967       0.59826930      -0.09302317
H       16.33134813      18.13905770      27.69833084      -0.11624083      -0.30459122       0.09424279
O        6.72941107      18.41681005      10.91186029       0.33036338      -0.74040748       0.63889504
H        7.21966764      18.77185532      10.22813507       0.08603774       0.07758921      -0.11946725
H        6.63879573      17.47862202      10.66782233      -0.26536527      -0.11223733      -0.17690623
O        1.02951159     -13.61715978      10.42861718      -0.13240381      -0.63161496      -0.14136205
H        0.28284657     -14.19230920      10.59589409       0.10673882       0.40697191       0.03650218
H        1.97009586     -14.02817644      10.34660384      -0.58030122      -0.19697928       0.31112311
O        0.01572933       9.18399213       1.89616931       0.12069443      -0.60608383       0.33201599
H        0.94180307       8.93829122       1.80196423      -0.01374961      -0.19041056       0.30699014
H       -0.15953186       9.74766110       1.15679612       0.04963438      -0.40472689       0.56153816
O        0.48775136       0.63507870       7.80120501       0.74149449      -0.46946952       1.11597944
H        0.96991037       0.32124687       7.10453486      -0.08166819      -0.01203089       0.05969969
H        0.69570140       0.14600951       8.62376892       0.24297406       0.11159773      -0.31357528
O      -18.83685593      28.91539020     -15.93343101      -0.05260733       1.50977996      -0.29706547
H      -17.91948700      28.76768423     -16.54066740       0.26494968      -0.01818895       0.04935496
H      -18.73211242      28.43277292     -15.09760682       0.41698396       0.07258590      -0.09573596
O        4.62616506      26.40144663      -8.26347512       0.81130522      -0.23931006       0.50488419
H        5.33995020      26.84125350      -7.83181861      -0.42504207       0.08462498      -0.32227976
H        3.68596436      26.56239361      -7.96223192      -0.42612820       0.13120710      -0.24024763
O      -18.22687372      21.54959334       1.47265886      -1.26621435      -0.78325756      -0.21959008
H      -18.22298225      20.65577617       1.08946819      -0.04511079      -0.07426469      -0.03766795
H      -19.14132948      21.73292523       1.18802858       0.25251560      -0.01349056      -0.15134416
O       11.42664198      20.28379721       6.90904340      -0.48479293       0.42547347      -0.18413177
H       11.67312208      21.21982882       6.71939297      -0.03917745      -0.59693025       0.12200498
H       10.50277454      20.10994837       6.76455828       0.69781238       0.17271774      -0.04128788
O       -9.48542437      -6.81106658       4.30506181      -0.23024464      -0.24044784      -0.21632238
H       -8.99229209      -7.49260158       3.67423351      -0.18206826       0.05598753       0.48899379
H      -10.22592526      -7.17805017       4.69943770       0.23220290      -0.35092866       0.13226075
O      -25.46287960       2.03100168      11.28162395       0.18439932      -0.40143927       0.35147859
H      -25.49045843       1.08077792      10.91560015      -0.09522250      -0.39070835      -0.69515318
H      -24.67547467       2.33443057      10.99102743      -0.49270065      -0.63820765       0.59946253
O      -12.46650105      -7.45811607      19.42571010      -0.38964166      -1.00435601      -0.21704170
H      -12.27881714      -8.20314427      18.84486009       0.21044643       0.11938817       0.07865606
H      -12.92115145      -6.95732299      18.75511714       0.17148289      -0.12458437      -0.04255310
O        8.10090337       8.62071037      17.41150023      -0.71845253       1.07935188      -0.25571217
H        8.79596547       7.95767521      17.64848565      -0.03624314      -0.29981233       0.28411290
H        8.24236078       8.61033761      16.43551641      -0.26682772       0.13454110      -0.12195729
O      -11.15752694      -0.73899205      18.51403654       0.37401126      -0.23816905       0.59905502
H      -10.69353381      -1.55104393      18.72505502      -0.05062367      -0.07322406       0.08478805
H      -11.85858095      -0.97926033      17.91099268       0.01182748       0.10204978       0.28074909
O       22.63081641       4.02039007      19.03715121      -1.19895988       0.53507753      -1.19311385
H       22.29936374       3.39972427      18.27596951       0.04467663       0.20688619       0.12390454
H       22.76048532       3.59325878      19.88144671       0.22834913       0.03513412       0.13695815
O       -4.97193267     -18.85517049      -3.81283167       0.43271624       0.05685545      -1.43322773
H       -4.15576483     -19.08398229      -3.34274141      -0.40973620       0.00983312      -0.05176412
H       -4.96859451     -19.30855157      -4.68143037      -0.24897990      -0.19889309      -0.10002981
O       27.57796081      -9.96741601      -7.17412593      -1.02972627       1.46022192       0.33739968
H       28.60840057      -9.95892925      -6.90912930      -0.09412389      -0.04621118      -0.01273652
H       26.90354101     -10.56245750      -6.86126340       0.04196310      -0.00471288      -0.12523332
O        7.01472087       0.37243138       5.94500316       0.68407647       0.73119145       0.63975571
H        6.86026199       0.59523200       6.82169517      -0.08634865      -0.23163592      -0.21926442
H        7.40074055      -0.47455916       5.72734936       0.24390598       0.01509602       0.16439828
O      -18.58690724      -2.02691220      24.52560523       0.45261358      -0.02221000      -0.79504785
H      -18.82343891      -2.26821307      23.62745073       0.13721933       0.19756272       0.29388527
H      -17.84460962      -2.51592082      24.94599631      -0.23771208       0.43056697      -0.12884880
O        4.94316303      -6.71691119      -5.55754045       0.89932741       1.03389154      -0.27612745
H        5.05216291      -6.11434283      -4.79307297      -0.23436124       0.01627837      -0.43624376
H        5.38159348      -6.35317642      -6.41946854       0.12581158       0.01283659       0.17133000
O       12.14920880       9.78265842       6.30492965       0.03228658      -0.31032403       0.13112742
H       11.83509755       9.94379414       7.27807439       0.08566902      -0.05872582      -0.67280727
H       12.10434142      10.18555544       5.47131808       0.16790928      -0.20640003       0.07842116
O        4.47119089      11.86127810      -5.12508929       0.80601803      -0.49928006      -0.56342700
H        4.00039519      11.63070503      -4.34095533      -0.23253302       0.24531217       0.00201861
H        4.23121257      11.24136624      -5.85928154      -0.06186171       0.20300829       0.38583428
O       13.18307073      28.99749590      15.89808839      -0.53810879      -0.53845492       0.18126812
H       13.61953174      28.89316165      16.75776734      -0.17696115      -0.16671695      -0.34624969
H       12.32337519      29.30324580      16.18862788       0.15062943      -0.11665602       0.20603646
O       -4.11479272       4.02455494       1.22510093       0.02682659       1.01702677       0.15578789
H       -4.53068249       5.03906156       1.25236232      -0.22917548      -0.26026873       0.07813740
H       -4.90393298       3.45034404       1.48050004      -0.06541689       0.08921870       0.06010518
O        6.58114532     -15.81505048       8.86070757       0.28180479       0.11063099      -0.64008913
H        5.77135071     -15.35073249       8.60618328       0.05836761      -0.48855099      -0.11103212
H        6.45774893     -16.76331024       8.91276997       0.14750816      -0.05024542      -0.10628219
O        1.56200162       8.70899542      22.75113902      -1.28711074      -0.37726981      -1.20296174
H        1.42381523       7.91638666      23.31534297      -0.12708877      -0.17341567      -0.11968416
H        1.98161956       8.60063219      21.93940516       0.14477466       0.29595399       0.21409291
O       22.86113118      22.88136113      -0.33247552      -0.86172294       0.21938472      -0.67017361
H       23.31875967      23.73060200      -0.14253927      -0.20844018      -0.02036616       0.29796648
H       22.14618400      22.69480252       0.24034339       0.05997113       0.04028289       0.26721606
O       12.00196031       6.00248945     -16.64297060       0.63478388       0.63588485       0.08524568
H       11.87442541       5.05592235     -16.63001374       0.10038834       0.18789602      -0.18427135
H       12.05230929       6.47789519     -17.53688054      -0.13862980      -0.26809433       0.48852275
O       -7.76943238      22.82505725       1.75084620      -0.44123001      -1.10196005      -0.26850917
H       -8.57550748      22.32923985       1.72167970       0.17425153       0.00383236      -0.00735174
H       -7.70321977      23.38910129       2.74869086      -0.03654694       0.22859213      -0.00947595
O        5.18901285     -15.66256552      17.48206873      -0.36682894       0.11431922      -0.13982302
H        5.81191828     -15.90932358      18.15516884      -0.04287391      -0.13550676      -0.42502885
H        5.08749319     -14.77022673      17.17973306       0.30418031      -0.25631596      -0.10071686
O        1.69307269      18.65071677       0.59896191      -1.13387178      -0.89967252       0.16960913
H        1.02655195      18.93823820       1.16175567      -0.24842327       0.01173878      -0.50812748
H        1.25551235      18.58547141      -0.30671479       0.21555818       0.19863239       0.42903506
O       -4.76876408      -6.57211464       6.54609499      -1.18954521      -0.97816906       0.38619275
H       -4.45080209      -7.45447743       6.43859422      -0.21147733       0.30078565       0.24343866
H       -5.57973256      -6.44111045       5.99038669      -0.45605019      -0.12992773      -0.23711742
O       -3.54348405       2.29467206       8.48969259      -0.41018762       0.52320307       0.34883052
H       -2.91312271       2.65108606       9.12750764       0.06531630      -0.00619118       0.21353621
H       -3.23049034       1.38395558       8.20635952       0.20834906       0.11442559      -0.30757524
O       14.31991760      -6.91302697      -2.46402162       0.81219009      -0.98436202      -0.35327695
H       13.68978408      -7.17579420      -3.09337168       0.38664268      -0.07059239       0.08668283
H       14.95719562      -7.65662021      -2.48381565      -0.43539258       0.11043433       0.21153883
O       11.48390121       3.47639061      23.58626448       0.04164182      -0.14507810      -0.00278022
H       10.91392881       3.19913223      24.31624950      -0.06211823       0.04606472       0.22360254
H       12.20480785       2.93824588      23.67284574       0.03974973      -0.19557853      -0.45772916
O        8.01617980      13.75303850      25.48358270      -0.61278677      -0.50181386       1.44393287
H        8.88680220      14.05782368      25.39688191      -0.24158716      -0.22945219      -0.19037432
H        8.02755236      12.74777642      25.35979107      -0.09845306       0.45919798       0.16070755
O       -9.11127401       5.78775550      11.50029432       1.62112843      -0.49134584       0.55810055
H       -8.25543384       5.50365488      11.63044251      -0.88370414       0.04689024      -0.16620918
H       -9.26296078       6.17398164      12.32229440       0.49475152      -0.17051267      -0.44140576
192
Lattice="13.063619424258292 0.0 0.0 -5.290656631182794e-07 13.063619424258292 0.0 -5.290656631182794e-07 -5.290656631182794e-07 13.063619424258292" Properties=species:S:1:pos:R:3:momenta:R:3 step=110 time_fs=11.0 phase=production pbc="T T T"
O       12.72067457      -2.81413357     -15.45289583       1.25469444       0.25543979      -0.05068793
H       12.15364133      -2.40342355     -16.11257785       0.18095469       0.14426826      -0.19178862
H       13.38541576      -3.43969825     -15.72407158      -0.10026686      -0.09154693       0.18714293
O       25.27379948      24.44853015       0.40559839       0.48907988       1.42066532       0.61656849
H       25.50848551      25.29558858       0.72271508       0.09893838      -0.67164577      -0.25022808
H       25.56229029      24.67257447      -0.50460599       0.09241549      -0.28186532       0.62863971
O        5.38047968       1.48909063       8.03183812       0.18310510      -1.24600895      -1.27548186
H        5.86879957       1.90503318       8.73472864       0.08563120      -0.01830568      -0.01992847
H        5.15746227       0.64342227       8.44978677       0.43684197       0.28863230      -0.41514821
O       -2.95944116      -5.67538881      -1.99164498      -0.31653112       1.13345276       1.08826390
H       -2.17168177      -5.60097052      -2.46345249      -0.15371022       0.36219757      -0.10299259
H       -2.87910190      -4.70978850      -1.73980091      -0.04225649      -0.60817560      -0.12869168
O        3.42253702      16.32986916      10.64780539       0.27374372       1.34826292      -1.12756086
H        3.84609000      17.08766011      11.03781981      -0.13079189      -0.03892785       0.44414840
H        3.12676046      16.33766362       9.74300468      -0.11653671      -0.24776510       0.16062313
O       -2.01115424       4.36555772       2.98149401      -0.80783013      -0.30418541       0.03505574
H       -2.54439092       4.41620388       3.69301115      -0.25145376      -0.29486595       0.02663445
H       -2.58428629       4.26278825       2.20779554       0.32403779       0.01546759       0.21596252
O       23.87005786      13.35182319       7.31942691       0.32614711       0.41022830       0.32929308
H       24.82547055      13.47532891       7.27420748      -0.12995308      -0.38639536      -0.00448223
H       23.61208970      13.06679651       6.38978300       0.03482821      -0.63490399      -0.28821966
O       -0.72785392     -14.98931707       3.88979357      -0.97862586      -0.47713223      -0.70859681
H       -0.65752511     -15.71129742       3.25830776      -0.13667130       0.20495079       0.19958477
H       -1.44442147     -14.37203313       3.93761206      -0.27440568      -0.13269871       0.51929870
O       18.44721073     -18.40809475       9.84299560      -0.02345026      -0.33901760      -0.42597073
H       19.38359577     -18.73269561      10.00251369       0.43207259      -0.26095323       0.17828574
H       17.84564308     -18.85780777      10.46132114       0.13814940       0.11516670       0.17615376
O        4.88399302     -14.19533331     -13.61254208       0.48830527       0.01822945      -0.91088312
H        5.79277981     -13.98393890     -13.62092697       0.08089130       0.23449095       0.11475471
H        4.53404844     -14.78636276     -13.01531377       0.19174686      -0.05891985       0.04403360
O       -4.81153307       2.25097768       4.35162842       0.28228384       1.02768241       0.19032524
H       -4.85672822       2.00642425       3.42284757       0.01479563      -0.09619171       0.13771589
H       -5.63078353       1.84535696       4.78462399      -0.38221940      -0.19028551       0.16328928
O       -5.85565691      15.27180918      27.69848861      -0.06549664      -0.24534477      -1.34211305
H       -6.91786086      15.34355341      27.58045294       0.04814096       0.33741691      -0.32556443
H       -5.49446878      14.69218495      26.94289761      -0.32097189       0.13632945       0.52222935
O        7.50695862     -15.52298855      -6.81131580       1.00527271       0.64686428       1.96191773
H        7.91152197     -16.37017865      -7.02547089      -0.01487410       0.09856976       0.10109231
H        7.16679317     -15.57687266      -6.00977144       0.01028355       0.35765204      -0.18704454
O       15.43783270       7.47463052      20.54714046       0.60109377      -0.02756896       0.14271473
H       14.71486182       6.95377256      20.17322340       0.14263760      -0.04765381       0.12043261
H       16.40992507       7.19843761      20.62516313      -0.28109655       0.32631940       0.08650865
O       -0.25938643       1.07604016       0.99699003      -0.40557903       0.71410825       0.69755506
H       -0.11539581       1.41367536       1.87933394      -0.08065410       0.42058435      -0.00641009
H        0.27197387       1.32360037       0.24162191      -0.00902459      -0.00847495      -0.20871370
O      -16.13168661      12.57781898      17.75864648       0.69048549       0.26218351       0.95189417
H      -16.50491990      13.09037968      17.10049541       0.02932939       0.10872871      -0.50277184
H      -16.71101520      11.95649968      18.08052068      -0.08287407      -0.24533708      -0.21899658
O      -17.75460611       6.29606732      12.95633515       1.72038691       0.55821447      -0.69589828
H      -18.53481452       5.65770665      12.55371534       0.17293957       0.05325045       0.03514466
H      -17.15613169       6.90514033      12.51045381      -0.30008126       0.36633470       0.15717190
O       -9.99908369      34.29247938     -11.50494991       0.17533726       0.21929693       0.01495885
H       -9.43559021      33.69709038     -10.85181753       0.18340778       0.43871796      -0.12931904
H      -10.08371989      33.24359995     -11.46859047      -0.19922350      -0.04507809      -0.15868342
O       36.56522816      10.89534110      21.74849370       1.23210948       0.06008707      -1.15413741
H       36.66526377      11.71826404      21.28860175      -0.15926039       0.21730556      -0.07457087
H       35.67468097      10.88488313      22.04146502      -0.23210696       0.03938934       0.26013523
O       30.54471614     -10.98811844       2.36494405      -0.02983717       0.45090450      -0.97378901
H       30.53718017     -11.44480354       3.15164777      -0.20694931       0.00844867       0.02238955
H       30.02784963     -11.30277004       1.60358900       0.51136807       0.26437107       0.14045386
O       16.36500873       9.73494351      -6.89482526      -0.26456733      -0.80313495      -0.18793572
H       16.77726754       9.76421520      -7.79685795      -0.04447299      -0.08768605      -0.07558725
H       15.97678351       8.91024175      -6.55720754      -0.12794341      -0.07363205      -0.14803935
O       -9.25674884       3.48096889      33.46009033       0.67697087      -0.74654823       0.15112130
H       -8.93680975       4.42663029      33.56363085       0.04668836       0.19057271       0.04341216
H       -8.62074544       2.93460898      33.89739227       0.01931646      -0.18234446       0.14407920
O        3.27451007       1.17699332       0.10488702       1.54040424       0.45513119       0.39845651
H        3.17551881       1.85232846      -0.50634303       0.13009449      -0.06383656      -0.12918286
H        3.74745494       0.47028896      -0.30871304      -0.16516681       0.09368668      -0.03936860
O       23.46144425       1.95884019      12.99043039      -0.69007055       0.06358802       0.01383412
H       23.27692036       2.78493214      13.54256113       0.13863685       0.14092817      -0.13285813
H       24.21521355       1.37500473      13.30113253      -0.14227669      -0.18585776       0.01638609
O        0.07259607      32.51536578      15.69071152      -0.38348054       0.51692780       1.81753112
H       -0.59645367      31.76894672      15.49100545       0.00568176      -0.25167164      -0.04087388
H       -0.08182228      33.32595583      15.30314896       0.04085008      -0.44970596      -0.29604450
O        6.02092447      20.24369433       5.06704469      -1.07082213      -0.67292355       0.79189116
H        5.24835449      19.95749680       4.45252985       0.12527345       0.00586333       0.29160084
H        6.57995364      20.96865513       4.61746953       0.41141085       0.16550980      -0.22821256
O       -9.65090508      10.94000688      10.43058938      -0.69043950       0.88241005       1.22149539
H      -10.21150110      10.15083844      10.37573034      -0.04444464       0.09095428       0.02696929
H       -9.09613397      11.01769228      11.34943975      -0.23054139      -0.11567782      -0.33113905
O       17.18670616      17.96456232      28.10609804      -0.10450338      -0.66016848      -1.17417127
H       17.50427171      17.11148318      28.19297771      -0.05514880       0.47209078      -0.09999532
H       16.31943672      18.10573207      27.70705667      -0.11987372      -0.35973568       0.10584805
O        6.73065189      18.41086268      10.91605796       0.18276652      -0.95044425       0.83581534
H        7.23671342      18.78687897      10.20453118       0.24483603       0.22461261      -0.32251290
H        6.61365910      17.46675242      10.65223076      -0.24009875      -0.09630937      -0.13142737
O        1.02961598     -13.62035923      10.42708661       0.16649257      -0.55581633      -0.22295655
H        0.29047045     -14.15745523      10.60049148       0.01968086       0.27429539       0.07372590
H        1.90339398     -14.04487434      10.37897259      -0.74462482      -0.17114082       0.35769003
O        0.01626304       9.17957167       1.89895555       0.06941728      -0.75103534       0.64541470
H        0.94327352       8.92054090       1.83366957       0.04394563      -0.16644195       0.34459554
H       -0.15890443       9.72011231       1.19816785      -0.04822289      -0.11844510       0.24228244
O        0.49141344       0.63254551       7.80879651       0.46343410      -0.33459680       1.40603480
H        0.97357106       0.31262659       7.09056297       0.14453067      -0.15500154      -0.32622852
H        0.71924871       0.15742438       8.59436530       0.24929064       0.10121398      -0.24356603
O      -18.83568392      28.92336890     -15.93472795       0.18565215       1.47539366      -0.34490625
H      -17.90260831      28.76556592     -16.52901155       0.06498466      -0.00036882       0.17537950
H      -18.69159279      28.44067191     -15.11041461       0.39904721       0.10812888      -0.17024089
O        4.62966207      26.39867771      -8.26012206       0.34089335      -0.33463196       0.46037846
H        5.30374100      26.85201835      -7.85814385      -0.27902739       0.18254682      -0.20408990
H        3.66075522      26.57227377      -7.98842039      -0.07455663       0.08993895      -0.30615419
O      -18.23428857      21.54347605       1.47114641      -1.35641740      -0.93248142      -0.24677221
H      -18.21970524      20.64681025       1.08461275       0.09721377      -0.08892689      -0.05932500
H      -19.11782871      21.73729334       1.17634953       0.18262147       0.12783714      -0.09784318
O       11.42404533      20.28561242       6.90777316      -0.14858816       0.38839329      -0.11521629
H       11.66937743      21.16319945       6.73193686       0.00017100      -0.47274398       0.12822489
H       10.55769759      20.12422521       6.75839008       0.34835864       0.11400575      -0.09323990
O       -9.48498421      -6.81247976       4.30246759       0.20964064      -0.30659775      -0.54423569
H       -9.02052047      -7.47616552       3.73018276      -0.38691132       0.26066498       0.64424962
H      -10.21520193      -7.21856540       4.72011279       0.00110951      -0.47392214       0.28670679
O      -25.46273324       2.02681055      11.28348363      -0.54193557      -0.96959487       0.41076065
H      -25.50097222       1.05416237      10.85412180      -0.14603709      -0.14691588      -0.54757708
H      -24.69019236       2.28859650      11.03957762       0.24076399      -0.27356826       0.39090410
O      -12.46815966      -7.46402350      19.42370560      -0.31598313      -1.00990417      -0.16790301
H      -12.25284938      -8.19680955      18.85383146       0.31454478      -0.00637283       0.11361344
H      -12.90877318      -6.96170547      18.74853596       0.06976265       0.03112442      -0.07951395
O        8.09676572       8.62660278      17.40893223      -0.50954351       0.94426198      -0.35015611
H        8.78568314       7.93474519      17.67504313      -0.17975143      -0.14963642       0.26533101
H        8.21376524       8.62439324      16.42598603      -0.30976475       0.15812961      -0.04998979
O      -11.15461824      -0.74019498      18.51714589       0.43999537      -0.16788478       0.66843964
H      -10.69569088      -1.56193240      18.73404072      -0.00641030      -0.14414613       0.11312481
H      -11.86218706      -0.96964547      17.93400505      -0.10499685       0.09125351       0.19862620
O       22.62232926       4.02352172      19.02863061      -1.25722813       0.53716201      -1.29669102
H       22.30515405       3.42442544      18.29810539       0.08742397       0.29226392       0.33440388
H       22.78062608       3.59384741      19.89193195       0.19934420      -0.00993878       0.07183183
O       -4.96921775     -18.85419700      -3.82176054       0.35307358       0.01560700      -1.54757634
H       -4.19397829     -19.08153867      -3.34585742      -0.34702619       0.01489263       0.00284753
H       -4.99142336     -19.32511492      -4.68819580      -0.22235876      -0.15411110      -0.03794352
O       27.57114125      -9.95760397      -7.17196139      -0.81845157       1.60755891       0.27255358
H       28.58610908      -9.96540139      -6.90836830      -0.33970861      -0.09292817       0.02234243
H       26.91024421     -10.56585744      -6.86845858       0.11082084      -0.07863665      -0.02663630
O        7.01866122       0.37689853       5.94752663       0.70027834       0.71850403       0.24747005
H        6.84883741       0.57438849       6.81449027      -0.14688080      -0.19287009       0.09075185
H        7.42467557      -0.47481982       5.74610005       0.24971608      -0.01288266       0.22466981
O      -18.58324642      -2.02680385      24.52010745       0.46416545       0.06548131      -0.65448208
H      -18.80938280      -2.25097184      23.64886846       0.12650150       0.14562895       0.12597530
H      -17.87050501      -2.47059849      24.92842521      -0.25227868       0.45275607      -0.17119746
O        4.94883984      -6.70985686      -5.55963301       1.00791039       1.14256329      -0.50316493
H        5.03311799      -6.11487526      -4.83682619      -0.14245395      -0.00350438      -0.42346042
H        5.38795212      -6.35569453      -6.39177687       0.01307758      -0.06659508       0.37906222
O       12.14889600       9.77971726       6.30690132       0.04249830      -0.53298169       0.53818631
H       11.84591968       9.94045753       7.19683083       0.12868361       0.00637879      -0.92801729
H       12.11769540      10.17326903       5.47065007       0.11727276      -0.03781536      -0.08933707
O        4.47618369      11.85761430      -5.12865549       0.88306945      -0.51507072      -0.61949369
H        3.97429185      11.65323603      -4.33726763      -0.29147848       0.23128849       0.06093066
H        4.22461112      11.26246939      -5.81919371      -0.07982274       0.21111274       0.39404837
O       13.17945582      28.99293117      15.89839000      -0.47777879      -0.55811532       0.09116496
H       13.60685284      28.87231248      16.72580682      -0.05247528      -0.24280006      -0.25959252
H       12.32868514      29.29462602      16.20666401      -0.03761724      -0.03401393       0.17944576
O       -4.11529052       4.03094232       1.22623836      -0.23872145       1.13252445       0.22915556
H       -4.54817999       5.00157788       1.25688069      -0.12649539      -0.50599786       0.01438637
H       -4.89701731       3.47004435       1.48244813       0.19127541       0.30256402      -0.01477199
O        6.58281102     -15.81363389       8.85631163       0.36794958       0.12465352      -0.67034826
H        5.77615018     -15.39668919       8.59417842       0.01923725      -0.45056577      -0.13731233
H        6.47208232     -16.76816314       8.90276847       0.15446949      -0.06275384      -0.09174867
O        1.55356028       8.70597978      22.74409834      -1.44441499      -0.49316135      -0.78964932
H        1.41221709       7.90281869      23.29667003      -0.11011686      -0.09693193      -0.24544245
H        2.00093837       8.62403398      21.94317447       0.25323929       0.19175342      -0.11731772
O       22.85543613      22.88211497      -0.33703744      -0.72187358       0.32492922      -0.80803128
H       23.29471772      23.72190032      -0.11308868      -0.26027227      -0.13043273       0.30496677
H       22.14719396      22.69578592       0.27482377      -0.01031601       0.00912142       0.41445643
O       12.00554229       6.00668618     -16.64197369       0.69169661       0.80025071       0.06640520
H       11.88350386       5.07181070     -16.64856902       0.09322826       0.12223244      -0.20720977
H       12.03652872       6.44583495     -17.48373454      -0.17002909      -0.35587353       0.53987340
O       -7.77119173      22.81823804       1.75008442      -0.22505362      -0.81090525       0.04028238
H       -8.56690580      22.32418781       1.72128140      -0.01699654      -0.09686196       0.00017755
H       -7.70785868      23.39775081       2.72995477      -0.06529464      -0.03092307      -0.36889030
O        5.18609462     -15.66164862      17.48031029      -0.52951196      -0.03728532      -0.21031940
H        5.81378422     -15.92073945      18.11605035       0.10239347      -0.12087584      -0.34511513
H        5.11723054     -14.78640990      17.17263665       0.30803639      -0.06537609      -0.03967767
O        1.68660676      18.64396969       0.59893758      -0.93128956      -1.04431907      -0.11127875
H        0.98815751      18.94450646       1.12762070      -0.53477734       0.13216898      -0.19236246
H        1.28053956      18.60381967      -0.26112566       0.27650532       0.18798892       0.45014468
O       -4.77649953      -6.57707690       6.54814258      -1.41604416      -0.69423222       0.36137108
H       -4.46681382      -7.43739134       6.45982362      -0.10968570       0.01392979       0.19519864
H       -5.61878724      -6.45566997       5.97170843      -0.33701632      -0.17571496      -0.13224070
O       -3.54564926       2.29732068       8.49148088      -0.33057788       0.37853014       0.35475020
H       -2.90769782       2.64963752       9.14586220       0.03407297      -0.02751836       0.16002193
H       -3.21274075       1.40574988       8.17909432       0.15224280       0.33315795      -0.24284190
O       14.32491383      -6.91853623      -2.46556694       0.97846309      -0.85664681      -0.17275275
H       13.71276884      -7.18436530      -3.09557595       0.08575682      -0.11473098      -0.14490978
H       14.91669226      -7.64548103      -2.46293176      -0.34783547       0.07045885       0.21479469
O       11.48258328       3.47601044      23.58528908      -0.29694541       0.03418128       0.02059636
H       10.90573057       3.20602544      24.33674059      -0.07612392       0.10319023       0.19579571
H       12.22971457       2.90650302      23.62741054       0.43958778      -0.42544910      -0.45687501
O        8.01114387      13.74862096      25.49145403      -0.92585369      -0.70547357       1.46658068
H        8.87998272      14.04244607      25.37668397       0.11720812      -0.06824460      -0.20580145
H        8.01610641      12.79767658      25.37548838      -0.13117590       0.52199596       0.17990500
O       -9.10221170       5.78448920      11.50180903       1.14859649      -0.48809319       0.03901334
H       -8.31429818       5.50059487      11.61723535      -0.28044858      -0.11507134      -0.07348949
H       -9.21862031       6.16500860      12.29814469       0.41805212      -0.00370374      -0.01594058
192
Lattice="13.063125219141053 0.0 0.0 -5.290456482242768e-07 13.063125219141053 0.0 -5.290456482242768e-07 -5.290456482242768e-07 13.063125219141053" Properties=species:S:1:pos:R:3:momenta:R:3 step=120 time_fs=12.0 phase=production pbc="T T T"
O       12.72772941      -2.81208316     -15.45253315       1.18621718       0.38941986      -0.02869206
H       12.17113712      -2.39367880     -16.13204465       0.19479457       0.04738821      -0.20986123
H       13.37472485      -3.45120517     -15.70918002      -0.10257905      -0.15228266       0.10374725
O       25.27556547      24.45535144       0.40914393       0.35990765       1.03770007       0.59655573
H       25.52233162      25.24573925       0.70538403       0.22129007      -0.29417941      -0.10583587
H       25.57086303      24.64269286      -0.44520416       0.12561928      -0.28646193       0.53870740
O        5.38149854       1.48151439       8.02346654       0.23695056      -1.14687102      -1.36349623
H        5.88082502       1.90657980       8.73625942       0.15737577       0.04311414       0.04627464
H        5.19514662       0.66325512       8.41021759       0.32857613       0.06632218      -0.36554679
O       -2.96208377      -5.66797549      -1.98451142      -0.57023834       1.12530617       1.17984798
H       -2.17513114      -5.56515157      -2.47975719       0.05523717       0.37821202      -0.21570104
H       -2.88356944      -4.77374793      -1.75259148      -0.03547771      -0.63156867      -0.12299248
O        3.42390226      16.33727508      10.64079236       0.22062071       1.26719240      -1.00621637
H        3.83280595      17.08397821      11.07767377      -0.14325122      -0.02864753       0.37559682
H        3.11775008      16.31557387       9.75415688      -0.07040139      -0.19051760       0.06052981
O       -2.01489815       4.36352941       2.98057806      -0.44317413      -0.29436725      -0.22953186
H       -2.58282141       4.38802129       3.71818465      -0.51201453      -0.28426850       0.45435077
H       -2.55684417       4.26380502       2.22061045       0.21674883       0.00536604       0.01986101
O       23.87093694      13.35340064       7.32051934       0.23586447       0.25829769       0.10564571
H       24.81726288      13.43880602       7.27584566      -0.00317699      -0.34916471       0.04343771
H       23.61509248      13.00718111       6.36882704       0.04880218      -0.56965402      -0.12519801
O       -0.73336548     -14.99164735       3.88571995      -0.84110331      -0.42878885      -0.54925702
H       -0.67281441     -15.69287685       3.27340642      -0.17766177       0.13782035       0.09355188
H       -1.47589563     -14.38523514       3.98603994      -0.35965902      -0.16044187       0.47665169
O       18.44697753     -18.40990935       9.84017229       0.18882117      -0.48276738      -0.37305571
H       19.41300596     -18.75267098      10.01717128       0.17334447      -0.15821729       0.12499996
H       17.86164844     -18.84356957      10.47646445       0.20066236       0.16030413       0.14229630
O        4.88665741     -14.19367984     -13.61853085       0.44818457       0.32460279      -1.18704298
H        5.80729596     -13.96251228     -13.60885794       0.19414235       0.18841094       0.12339324
H        4.54812514     -14.80675964     -12.99593312       0.11599329      -0.34516523       0.31613581
O       -4.81031762       2.25684957       4.35305809       0.04856409       0.91179917       0.33811416
H       -4.85472402       1.99654743       3.43505775       0.02164863      -0.10591848       0.11059520
H       -5.65661089       1.83069410       4.79530696      -0.14506635      -0.10618091       0.05666694
O       -5.85660071      15.26921703      27.68866356      -0.33802390      -0.36321413      -1.46320384
H       -6.89921689      15.37432930      27.55042118       0.32572016       0.30654364      -0.26774833
H       -5.52993345      14.70997802      26.99921720      -0.37969468       0.19572645       0.59618136
O        7.51359443     -15.51825539      -6.80062145       1.24375098       0.70671240       1.45028394
H        7.91088342     -16.36220856      -7.01894816       0.00862323       0.04835566       0.02878509
H        7.15333408     -15.54192085      -5.99657729      -0.27622813       0.34821002       0.43895998
O       15.44114471       7.47441415      20.54725158       0.66138383       0.06282418       0.15346834
H       14.73333704       6.94849931      20.18426953       0.22630640      -0.06666677       0.11458958
H       16.36774584       7.22918250      20.62978389      -0.52704614       0.30213573       0.03024643
O       -0.26228577       1.07998423       1.00110889      -0.52773031       0.59408533       0.64426812
H       -0.12032123       1.45667677       1.87570609      -0.02196785       0.45694032      -0.07497881
H        0.27343698       1.32611348       0.22412592       0.02552064       0.05487368      -0.13090833
O      -16.12563816      12.57928260      17.76409205       1.00551344       0.37883014       0.99158441
H      -16.50635421      13.10972783      17.04068071      -0.03472814       0.23368456      -0.63304863
H      -16.73188955      11.91700426      18.06578211      -0.31855867      -0.50239686      -0.10113038
O      -17.74388325       6.29886914      12.95182211       1.54176022       0.41863984      -0.60986497
H      -18.50735334       5.67265713      12.55568425       0.37795720       0.26039821       0.01750427
H      -17.18697183       6.93678871      12.52245901      -0.33656625       0.29902170       0.09281784
O       -9.99713426      34.29140214     -11.50388306       0.33491244      -0.15245417       0.19024174
H       -9.43283417      33.74060325     -10.87754042      -0.13232124       0.47885199      -0.40080290
H      -10.09283163      33.25738621     -11.47964132       0.00038600       0.35533532      -0.08238331
O       36.57160132      10.89499466      21.74063124       1.24244364      -0.00549552      -1.13735949
H       36.65142710      11.74758429      21.27728620      -0.10340289       0.35520711      -0.12053737
H       35.64466833      10.88566546      22.06861564      -0.29652611      -0.01062771       0.29316338
O       30.54375433     -10.98396155       2.35807679       0.12020266       0.76925531      -1.16292851
H       30.51324096     -11.45417396       3.16646190      -0.26020907      -0.19429434       0.25939311
H       30.07502865     -11.28012609       1.61685618       0.44976287       0.17233989       0.08434654
O       16.36285376       9.72969098      -6.89608649      -0.23796488      -0.78740002      -0.30405903
H       16.76984436       9.75226679      -7.79384460      -0.09217437      -0.14804612       0.12569414
H       15.96622007       8.90308561      -6.57383717      -0.07580325      -0.06437657      -0.19822530
O       -9.25228481       3.47712479      33.45967415       0.67602334      -0.46676361       0.13716021
H       -8.93671952       4.43424094      33.56575997      -0.05335507      -0.03954978       0.02837244
H       -8.61695354       2.91612682      33.90985977       0.03891812      -0.17615632       0.12541572
O        3.28364735       1.17937323       0.10811814       1.47448824       0.36181800       0.63745575
H        3.18431614       1.86279400      -0.53007101       0.05698221       0.25442233      -0.33661794
H        3.73740223       0.46818280      -0.31460923      -0.03802103      -0.13747030      -0.08252740
O       23.45657439       1.95913468      12.99044383      -0.61221319       0.05561337       0.14400068
H       23.29242020       2.78923114      13.52368079       0.19624840      -0.04729302      -0.24052237
H       24.19234995       1.36653571      13.30155997      -0.30180274       0.00924204       0.00592803
O        0.06993248      32.51531742      15.70153105      -0.48511077      -0.13710657       1.90512639
H       -0.58607086      31.75808265      15.48964984       0.20748250       0.05340045       0.02690310
H       -0.08258605      33.29375849      15.26561575      -0.05615783      -0.17889239      -0.46863061
O        6.01402785      20.23923393       5.07096066      -1.08579123      -0.52598994       0.55907614
H        5.26898536      19.96125639       4.48821397       0.28706219       0.08066043       0.43059733
H        6.60901450      20.97120695       4.60232990       0.18761936      -0.09713864      -0.07828349
O       -9.65451936      10.94517845      10.43826185      -0.59958176       0.94565903       1.40266784
H      -10.21021640      10.16297709      10.38057170       0.05447504       0.15327225       0.07839774
H       -9.12680889      11.00364796      11.30541929      -0.40056636      -0.16123347      -0.55425308
O       17.18509265      17.96108875      28.09783298      -0.22207060      -0.22515778      -1.17583674
H       17.50362068      17.13775752      28.18354550       0.06984509       0.05340922      -0.06728728
H       16.30589712      18.06834960      27.71651408      -0.14794398      -0.38981529       0.10936060
O        6.73142980      18.40381810      10.92073774       0.17741428      -1.10424187       0.78244800
H        7.26096988      18.80902849      10.17236756       0.23029017       0.21932038      -0.29132139
H        6.59255786      17.46196202      10.64165828      -0.18281972       0.02538830      -0.07660912
O        1.03098844     -13.62247669      10.42504482       0.24153273      -0.27088873      -0.31378820
H        0.28247043     -14.13998971      10.61026725      -0.19573869       0.07142131       0.13729161
H        1.83645236     -14.06499134      10.41468176      -0.56565545      -0.27977051       0.38061352
O        0.01672989       9.17383772       1.90412916       0.08873562      -0.99942499       1.05100210
H        0.94906443       8.90551596       1.86877077       0.06506502      -0.13086834       0.37456480
H       -0.16966415       9.72605304       1.20087728      -0.16751402       0.23702777      -0.17218013
O        0.49363992       0.63091396       7.81703339       0.30005460      -0.20446647       1.30202800
H        0.99273286       0.29438407       7.04801523       0.21151590      -0.19604944      -0.48121259
H        0.74585483       0.16251796       8.58090369       0.30375515      -0.00487768      -0.01561225
O      -18.83311475      28.93130303     -15.93655060       0.41753261       1.47140291      -0.45665669
H      -17.90525078      28.76555426     -16.50567078      -0.13076415       0.02405742       0.28611250
H      -18.65272382      28.45020234     -15.12695277       0.38446283       0.10157221      -0.16512336
O        4.62973906      26.39509302      -8.25731818      -0.24814128      -0.51266628       0.34632343
H        5.28867144      26.87747686      -7.86894673      -0.02585760       0.36325793      -0.02417604
H        3.67164272      26.57754142      -8.02101314       0.29084052       0.04000574      -0.36422472
O      -18.24179256      21.53636462       1.46954773      -1.29991438      -1.12329643      -0.25845243
H      -18.20267619      20.63749730       1.07830316       0.23703814      -0.08280736      -0.06624084
H      -19.10856048      21.75715179       1.16733739      -0.01640253       0.29923815      -0.09011724
O       11.42426969      20.28644192       6.90729567       0.35815223       0.10643336       0.05097706
H       11.67652181      21.13775359       6.74178599       0.16494749      -0.00594595       0.07374377
H       10.55992143      20.12798688       6.74420595      -0.30026683      -0.02269122      -0.19418149
O       -9.48293783      -6.81398766       4.29875096       0.25262696      -0.22634105      -0.53406620
H       -9.05929522      -7.44972373       3.79107884      -0.36145253       0.20947150       0.54667770
H      -10.21909828      -7.26595130       4.75201230      -0.05460838      -0.47889379       0.35253376
O      -25.46748394       2.01907096      11.28567805      -1.24790189      -1.48567952       0.42123706
H      -25.51671095       1.05150660      10.80823691      -0.18973034       0.08851129      -0.38938193
H      -24.62736622       2.27957573      11.06790711       0.95381287       0.05375100       0.22402093
O      -12.46946001      -7.46983185      19.42209124      -0.26940405      -0.96806642      -0.13461308
H      -12.21635561      -8.20479715      18.86511509       0.42373368      -0.16260938       0.13613158
H      -12.90602750      -6.95125777      18.73915482      -0.01615452       0.16940236      -0.08621482
O        8.09405496       8.63159226      17.40586484      -0.27711056       0.79005280      -0.42857205
H        8.75924167       7.92929750      17.69723429      -0.35559700       0.04481910       0.19822265
H        8.18217404       8.63979634      16.42573502      -0.32745731       0.16115059       0.05866779
O      -11.15115995      -0.74111974      18.52084269       0.54808129      -0.15665380       0.76282231
H      -10.69526780      -1.57682977      18.74486879      -0.00213003      -0.14938718       0.11831251
H      -11.87810207      -0.96169173      17.94823366      -0.22123411       0.07144731       0.11431594
O       22.61375283       4.02679378      19.02017740      -1.24080386       0.60200201      -1.17951276
H       22.31269089       3.45283441      18.33535934       0.06805440       0.26397819       0.40663695
H       22.79697289       3.59236935      19.89125057       0.15275689      -0.01294249      -0.07560489
O       -4.96752446     -18.85344217      -3.83171818       0.12245220       0.00129205      -1.74879982
H       -4.21847285     -19.08108231      -3.33915296      -0.14684451      -0.02511575       0.13967258
H       -5.01128754     -19.33679276      -4.68813903      -0.18767120      -0.10107029       0.03393332
O       27.56578880      -9.94689921      -7.17019563      -0.59061628       1.75241288       0.21680365
H       28.54009751      -9.97580293      -6.90435785      -0.57731796      -0.12593854       0.05415844
H       26.92230124     -10.57716679      -6.86598998       0.15758637      -0.15872281       0.06968375
O        7.02282961       0.38115497       5.94761850       0.74502911       0.67190790      -0.12279382
H        6.83090314       0.55721548       6.83806447      -0.21312080      -0.16499921       0.37634591
H        7.44794185      -0.47553795       5.77074803       0.22859275       0.00497142       0.28679588
O      -18.58021375      -2.02557037      24.51563874       0.26685290       0.32756514      -0.50834896
H      -18.79874278      -2.24066477      23.64488381       0.07399988       0.06309850      -0.19949981
H      -17.88204170      -2.43447312      24.91755221       0.03502572       0.26686234      -0.01075336
O        4.95495665      -6.70276410      -5.56338104       1.02072211       1.05474851      -0.76986591
H        5.02387292      -6.10922390      -4.86792159      -0.05422340       0.13625954      -0.18979655
H        5.38582212      -6.36424309      -6.35007790      -0.03263950      -0.10102557       0.42917341
O       12.14911541       9.77519584       6.30986349       0.20747464      -0.82466577       0.40109813
H       11.85342976       9.94688636       7.11452447       0.00301490       0.14888086      -0.66690373
H       12.12665377      10.17615510       5.45469723       0.07885309       0.09348990      -0.21755316
O        4.48170795      11.85428698      -5.13172370       0.97060942      -0.40510062      -0.40097902
H        3.94532084      11.67573354      -4.33099413      -0.28732846       0.24365888       0.05010558
H        4.21330024      11.27631833      -5.78892605      -0.15856938       0.05925530       0.19431236
O       13.17594786      28.98848050      15.89773387      -0.52329331      -0.52349503      -0.10723194
H       13.61066720      28.84273867      16.71024267       0.14576124      -0.34422500      -0.04040697
H       12.31625476      29.29387056      16.22186715      -0.19120890       0.03542868       0.13872095
O       -4.11719881       4.03842363       1.22774501      -0.39955082       1.37083584       0.26597780
H       -4.55347612       4.94098041       1.25477524       0.01584638      -0.71266154      -0.05742163
H       -4.87130500       3.50325283       1.47923118       0.29385877       0.34085230      -0.03683225
O        6.58531961     -15.81244895       8.85182866       0.53528736       0.05689423      -0.67868331
H        5.77087701     -15.43489819       8.57738511      -0.13277585      -0.33924206      -0.20391883
H        6.48784057     -16.77381837       8.89427955       0.17617095      -0.06235413      -0.07507731
O        1.54427896       8.70227241      22.73937046      -1.53581564      -0.60151623      -0.51491772
H        1.40220323       7.89619665      23.26621393      -0.09452879      -0.04101575      -0.35524069
H        2.02865306       8.63785148      21.91929772       0.29540797       0.10269555      -0.31307861
O       22.85009492      22.88342067      -0.34215797      -0.76685660       0.36661691      -0.84517324
H       23.26771828      23.70561182      -0.08303125      -0.26571526      -0.16997427       0.31340406
H       22.14554298      22.69592296       0.31651260       0.01094206       0.01372771       0.41986634
O       12.00950142       6.01157581     -16.64013344       0.74413937       0.83907978       0.38330853
H       11.89121631       5.07596612     -16.66822045       0.07314971      -0.04321622      -0.20420246
H       12.01901561       6.41541542     -17.44247848      -0.17840638      -0.22672327       0.23185696
O       -7.77166973      22.81319355       1.75104764      -0.04811104      -0.57158196       0.27917257
H       -8.57709419      22.30921890       1.72155026      -0.17638614      -0.17767576       0.00654267
H       -7.71539162      23.38280750       2.67986654      -0.09583764      -0.24610008      -0.63396395
O        5.18200882     -15.66184478      17.47805500      -0.73647201      -0.21328724      -0.30901695
H        5.83300913     -15.93263940      18.08804544       0.29427522      -0.13599490      -0.21881381
H        5.14706045     -14.78028438      17.16945987       0.30952479       0.17093183      -0.01439029
O        1.68151491      18.63659908       0.59846939      -0.73011923      -1.10710342       0.04270323
H        0.92703174      18.96051385       1.12045826      -0.67440648       0.19185573       0.01326340
H        1.30449992      18.62001259      -0.22984085       0.19694830       0.15788652       0.14765444
O       -4.78587100      -6.58001702       6.54997776      -1.69109395      -0.35933447       0.31525717
H       -4.47132414      -7.45274645       6.47606242       0.00733009      -0.31984848       0.14439812
H       -5.64370139      -6.47500907       5.96500209      -0.17630039      -0.22669367       0.00067154
O       -3.54721852       2.29930110       8.49347429      -0.22893824       0.31401707       0.40671343
H       -2.90726647       2.64495931       9.15687064      -0.02859358      -0.06592438       0.07227060
H       -3.20025648       1.44699397       8.15819513       0.10662539       0.49535839      -0.18515538
O       14.33043131      -6.92263873      -2.46602126       0.96312644      -0.55520974      -0.02758507
H       13.70665347      -7.19718976      -3.12042597      -0.17860040      -0.14583447      -0.34746165
H       14.89312051      -7.64841737      -2.44165597      -0.11145745      -0.15442102       0.22140175
O       11.47988325       3.47599237      23.58485928      -0.39105344      -0.04196921       0.13712548
H       10.90223703       3.21933410      24.34893809       0.02968517       0.17193856       0.05970854
H       12.27690616       2.86350545      23.58235957       0.46983213      -0.40866969      -0.44351219
O        8.00442797      13.74411126      25.49967389      -1.11941622      -0.52696780       1.52742642
H        8.90555609      14.04272001      25.35490453       0.37236626       0.07217960      -0.21629497
H        8.00115858      12.83683180      25.39192073      -0.17025748       0.23976168       0.17198627
O       -9.09679697       5.78141919      11.49973265       0.51215128      -0.43229798      -0.54744866
H       -8.30584668       5.48032278      11.61735332       0.43757529      -0.29517361       0.07956590
H       -9.17888680       6.17191878      12.31831375       0.39217588       0.14182140       0.41783665
192
Lattice="13.062674755100776 0.0 0.0 -5.290274048073155e-07 13.062674755100776 0.0 -5.290274048073155e-07 -5.290274048073155e-07 13.062674755100776" Properties=species:S:1:pos:R:3:momenta:R:3 step=130 time_fs=13.0 phase=production pbc="T T T"
O       12.73422174      -2.80907627     -15.45220284       1.07037540       0.55787624      -0.04182320
H       12.19160201      -2.39483387     -16.15085150       0.23526486      -0.07435367      -0.18338391
H       13.36501266      -3.46943325     -15.70282344      -0.08763282      -0.22202815       0.01666026
O       25.27605430      24.45909241       0.41341960       0.06662771       0.44867788       0.83014655
H       25.55172290      25.23918292       0.70063482       0.40423119       0.17443544       0.00044419
H       25.58846643      24.61853544      -0.40650507       0.26683469      -0.18226389       0.23420628
O        5.38321912       1.47538940       8.01455328       0.39720266      -0.81357906      -1.43482315
H        5.89685513       1.91111528       8.73990057       0.16342112       0.03865288       0.01598846
H        5.22015096       0.64998984       8.38064307       0.18992231      -0.34722214      -0.23351322
O       -2.96599680      -5.66199496      -1.97740392      -0.71041439       0.71778751       1.08254068
H       -2.16707398      -5.52584508      -2.50103806       0.06917917       0.42644862      -0.19582910
H       -2.88301859      -4.82035389      -1.76187685       0.05742481      -0.28899126      -0.06551629
O        3.42505177      16.34425618      10.63482773       0.19186357       1.18919041      -0.81344717
H        3.81728140      17.08028744      11.10910322      -0.17448661      -0.03536436       0.27304163
H        3.11247592      16.29979573       9.75249109      -0.03499416      -0.11971851      -0.08732127
O       -2.01690298       4.36168839       2.97935995      -0.28938507      -0.25586911      -0.06554219
H       -2.63519005       4.35982913       3.76884720      -0.51061682      -0.29317785       0.51076649
H       -2.54354089       4.26333598       2.20984047       0.05630342      -0.01072666      -0.22822731
O       23.87114131      13.35397166       7.32017170       0.10434253       0.07659965      -0.13386318
H       24.82424714      13.40659792       7.28208230       0.15821323      -0.30247204       0.08952346
H       23.62027716      12.95596847       6.36560895       0.07545531      -0.46812300       0.06320651
O       -0.73832474     -14.99312483       3.88296579      -0.79733675      -0.20191547      -0.29560548
H       -0.69198799     -15.68651604       3.27363976      -0.21532962      -0.02565572      -0.09208639
H       -1.51163314     -14.40435315       4.02985842      -0.36082356      -0.25130590       0.42262421
O       18.44828258     -18.41265972       9.83764448       0.45056555      -0.61408805      -0.34675774
H       19.41553706     -18.76173343      10.02548301      -0.10564463      -0.03965599       0.05012467
H       17.88202481     -18.82598517      10.48893473       0.21958299       0.18204013       0.12821801
O        4.88912175     -14.19077929     -13.62567670       0.40109398       0.41179961      -1.24483265
H        5.82518924     -13.94741335     -13.59578411       0.15555423       0.10639661       0.13502081
H        4.56099592     -14.84433478     -12.96124449       0.17881389      -0.38444668       0.33286781
O       -4.81058649       2.26203339       4.35551339      -0.18969144       0.80359718       0.51105281
H       -4.85222839       1.98551296       3.44339590       0.02667420      -0.11921455       0.06121556
H       -5.65853428       1.82455625       4.79550730       0.10080214      -0.01877284      -0.04684462
O       -5.85973887      15.26688872      27.67922216      -0.76619816      -0.18180823      -1.25716114
H       -6.85431873      15.40259163      27.52681315       0.58167027       0.28860418      -0.19538856
H       -5.56097091      14.71926497      27.04479378      -0.23005738      -0.03817133       0.30877072
O        7.52148852     -15.51318978      -6.79253743       1.38545008       0.76591781       1.16904519
H        7.91191259     -16.35898975      -7.01808897       0.01018561       0.01602279      -0.00581468
H        7.11654977     -15.50842135      -5.93289851      -0.43771455       0.32233767       0.78812298
O       15.44435437       7.47511806      20.54756879       0.49862702       0.27372676       0.17844662
H       14.75430663       6.93819180      20.19282693       0.20170347      -0.14868817       0.06984872
H       16.32037376       7.25360289      20.63114426      -0.35377052       0.18579969       0.02022678
O       -0.26570726       1.08335748       1.00471865      -0.58174140       0.52289426       0.53702757
H       -0.11996513       1.50149928       1.86337547       0.02747247       0.45884940      -0.18042812
H        0.27490367       1.33322198       0.21877355      -0.00227012       0.08816659       0.02928506
O      -16.11915822      12.58140399      17.76905951       0.85544229       0.42261522       0.80457891
H      -16.50463704      13.12466035      16.98917031       0.07671166       0.05263004      -0.36966557
H      -16.76197512      11.87019311      18.05341461      -0.26057717      -0.39066279      -0.16217406
O      -17.73452085       6.30059584      12.94794370       1.30536932       0.20729121      -0.50524382
H      -18.45937446       5.70846512      12.55691863       0.59185570       0.47663076       0.01913966
H      -17.21895979       6.96481199      12.52663080      -0.32657062       0.28905406      -0.00230432
O       -9.99448980      34.28829356     -11.50202047       0.37369732      -0.42917640       0.24565031
H       -9.45488460      33.78541833     -10.92112681      -0.26320992       0.43827672      -0.41389736
H      -10.08734108      33.30682343     -11.48795874       0.05285969       0.62204783      -0.14153401
O       36.57733218      10.89489247      21.73294469       1.00823778       0.12322857      -1.12511505
H       36.64096854      11.77906357      21.26762669      -0.09188392       0.26541417      -0.04478479
H       35.62385688      10.88304352      22.09332696      -0.07197066      -0.03047585       0.21540550
O       30.54418048     -10.97801804       2.35139403       0.36511569       1.02072412      -0.91942961
H       30.48451129     -11.47728712       3.19425206      -0.30536264      -0.25919168       0.26302714
H       30.10935022     -11.27116443       1.61310208       0.26678373      -0.00454326      -0.17779626
O       16.36084510       9.72459609      -6.89791641      -0.24034713      -0.75984457      -0.34921223
H       16.75940457       9.73513351      -7.77454614      -0.09916298      -0.19352139       0.24239754
H       15.96076261       8.89706133      -6.59511559      -0.02676845      -0.05584702      -0.24001320
O       -9.24769199       3.47486563      33.45946558       0.71596904      -0.24610171       0.17599333
H       -8.94635168       4.41870387      33.56713168      -0.14687030      -0.26589162       0.02538883
H       -8.61412539       2.90260088      33.91746628       0.01011975      -0.09246890       0.04843867
O        3.29242114       1.18169951       0.11222066       1.42877414       0.43335926       0.64607894
H        3.18796232       1.89314665      -0.56484674       0.03075009       0.31558661      -0.33377064
H        3.73794425       0.44653266      -0.32355833       0.03482036      -0.27680507      -0.08919886
O       23.45209281       1.95937383      12.99109513      -0.60163600       0.04191233       0.19242340
H       23.31302599       2.77733131      13.49608545       0.23922568      -0.17634763      -0.30435420
H       24.15732461       1.37466748      13.30244787      -0.37776585       0.14045039       0.03000165
O        0.06665410      32.51163940      15.71290570      -0.57292428      -0.63929461       1.96206048
H       -0.55732848      31.77526263      15.49504153       0.36480139       0.30001083       0.09098477
H       -0.09181020      33.28573027      15.21208264      -0.12368129       0.00366432      -0.59863070
O        6.00754550      20.23588170       5.07387983      -0.91229144      -0.32408609       0.48436200
H        5.29744910      19.96908675       4.53101278       0.25397489       0.07432494       0.41662618
H        6.61622224      20.94869542       4.60178082      -0.03288942      -0.34766763       0.07111474
O       -9.65766258      10.95096529      10.44669239      -0.55869217       1.07417190       1.40182099
H      -10.20284593      10.17644493      10.38944992       0.07069951       0.10821092       0.10380006
H       -9.16905235      10.98658835      11.24773184      -0.42824653      -0.17153325      -0.55285330
O       17.18268068      17.96053760      28.08961149      -0.36717043       0.22925170      -1.18600166
H       17.51725886      17.12023295      28.17809567       0.21359358      -0.37783309      -0.02664193
H       16.28946135      18.02908520      27.72654254      -0.17458840      -0.39872842       0.11807509
O        6.73251359      18.39611671      10.92457945       0.25611384      -1.18470160       0.58346979
H        7.27788731      18.82530080      10.15141074       0.11635549       0.12182523      -0.12315363
H        6.57814471      17.47144185      10.63648083      -0.10742616       0.17585313      -0.02421420
O        1.03198355     -13.62257140      10.42250548       0.05733838       0.07526054      -0.39052615
H        0.25352833     -14.14057755      10.62613440      -0.37001108      -0.07126250       0.18893805
H        1.79998575     -14.10181919      10.45237623      -0.17207334      -0.49302276       0.40185762
O        0.01731194       9.16695555       1.91126364       0.08936378      -1.09498704       1.23537922
H        0.95334562       8.89553584       1.90552413       0.00915149      -0.06131832       0.37383384
H       -0.18844114       9.75914871       1.17258723      -0.19256186       0.39692053      -0.34240660
O        0.49545600       0.62970932       7.82360315       0.32245409      -0.20600768       0.90724097
H        1.00824237       0.27822348       7.00738175       0.08632212      -0.12353145      -0.30674296
H        0.77874025       0.15671323       8.58933317       0.36807206      -0.10386040       0.17243358
O      -18.82916255      28.93937251     -15.93928741       0.66785634       1.47951906      -0.61885280
H      -17.92667941      28.76873212     -16.47314323      -0.32490961       0.06614376       0.36454580
H      -18.61567710      28.45733847     -15.13898900       0.35827364       0.06313085      -0.08452021
O        4.62682821      26.39052674      -8.25526318      -0.56957346      -0.66635664       0.23530153
H        5.29530132      26.91891473      -7.86423977       0.13729005       0.48450475       0.09735761
H        3.71171175      26.57916144      -8.05720825       0.48499137       0.02190457      -0.37267114
O      -18.24895382      21.52813213       1.46777026      -1.25337798      -1.31000925      -0.31623582
H      -18.17268220      20.62988951       1.07225084       0.36087674      -0.05352605      -0.05363064
H      -19.11807047      21.79359822       1.15899896      -0.16680758       0.45576421      -0.07316223
O       11.42712129      20.28544062       6.90780257       0.62485431      -0.18766656       0.17151383
H       11.69965873      21.15824784       6.74599028       0.29928678       0.39854298       0.02297853
H       10.50724723      20.12044886       6.72151187      -0.68019200      -0.09495905      -0.25077400
O       -9.48207628      -6.81441881       4.29639060      -0.12432773       0.01757753      -0.14639932
H       -9.08239508      -7.44499014       3.82720399      -0.09802285      -0.14625600       0.17039971
H      -10.21893808      -7.30654597       4.78469424       0.07462157      -0.33841501       0.30461672
O      -25.47487337       2.00901745      11.28748829      -1.31645417      -1.72244281       0.26119553
H      -25.53430818       1.07092773      10.77702821      -0.18001188       0.31537811      -0.24033112
H      -24.52540899       2.28963226      11.08807239       0.98433485       0.10469023       0.22534159
O      -12.47066208      -7.47533899      19.42035631      -0.26764792      -0.91082430      -0.23956739
H      -12.17034145      -8.22575000      18.88048192       0.50235904      -0.25121875       0.20278244
H      -12.90891551      -6.93085097      18.73339913      -0.03888137       0.22568238      -0.00207002
O        8.09265274       8.63578544      17.40252117      -0.10761011       0.68987712      -0.45389170
H        8.71704239       7.94162993      17.71207998      -0.48965919       0.19792633       0.12250307
H        8.15020752       8.65467114      16.43506597      -0.31910950       0.14877462       0.13092141
O      -11.14719122      -0.74223279      18.52510411       0.60453013      -0.22593711       0.82453581
H      -10.69695225      -1.58864869      18.75468893      -0.04672254      -0.08520147       0.09147835
H      -11.90126643      -0.95533603      17.95724849      -0.24197667       0.06094215       0.09768971
O       22.60568823       4.03099042      19.01330150      -1.11687970       0.83741027      -0.81450361
H       22.31305497       3.46896726      18.36735631      -0.06145869       0.04042287       0.22385480
H       22.80878958       3.59165169      19.87589344       0.10725992       0.00188185      -0.21937546
O       -4.96735400     -18.85280301      -3.84287081      -0.10872024      -0.00557959      -1.90782582
H       -4.22286499     -19.08514478      -3.31890004       0.03690848      -0.06798838       0.26088500
H       -5.02727868     -19.34393396      -4.68210873      -0.14194343      -0.06398970       0.07938570
O       27.56161554      -9.93546610      -7.16878654      -0.50747524       1.84908103       0.15488255
H       28.47550853      -9.98890983      -6.89675823      -0.68173013      -0.14947748       0.10648667
H       26.93949429     -10.59481988      -6.85510185       0.21703213      -0.20240497       0.14397628
O        7.02725404       0.38515932       5.94603842       0.76738660       0.64197092      -0.27726948
H        6.80797402       0.54072575       6.88025159      -0.24460539      -0.18062822       0.44823165
H        7.46782115      -0.47275307       5.80187490       0.18104484       0.05555462       0.35749609
O      -18.57876434      -2.02265634      24.51187519       0.00110881       0.58143191      -0.46763644
H      -18.79261533      -2.23785989      23.61127548       0.05116769       0.00027571      -0.43405736
H      -17.86102101      -2.41919865      24.92514688       0.36649990       0.05430153       0.17032130
O        4.96070697      -6.69666117      -5.56827212       0.88941792       0.85258740      -0.84404842
H        5.01982318      -6.08613815      -4.87102069      -0.03317686       0.32754101       0.11745575
H        5.38559638      -6.37208441      -6.31660775       0.05137370      -0.05135492       0.21542098
O       12.15080645       9.76893494       6.31038539       0.49280673      -1.09648502      -0.21681188
H       11.84134846       9.97120606       7.07696176      -0.25642768       0.36684875      -0.07145941
H       12.13270074      10.18778983       5.43307244       0.05560661       0.13698222      -0.19288251
O        4.48770696      11.85186662      -5.13289376       1.02300647      -0.25622122      -0.03222002
H        3.92032289      11.70044332      -4.32982517      -0.21302058       0.27318953      -0.04066023
H        4.19250227      11.27125710      -5.78331122      -0.26343459      -0.15025300      -0.07765963
O       13.17188756      28.98451734      15.89618385      -0.65767763      -0.43671562      -0.18056503
H       13.63310919      28.80332515      16.71446195       0.30649222      -0.43862275       0.10938273
H       12.29479484      29.29793972      16.23100549      -0.21570266       0.06013701       0.05324495
O       -4.11923289       4.04723543       1.22925016      -0.24039588       1.48784033       0.22406007
H       -4.54848208       4.87256418       1.24589038       0.04345334      -0.60803646      -0.12097373
H       -4.84696969       3.52939751       1.47771985       0.16904952       0.17400875       0.01802529
O        6.58881823     -15.81183096       8.84732296       0.65906201      -0.03039000      -0.69405982
H        5.75061978     -15.46191954       8.55414082      -0.26131411      -0.23390389      -0.26098881
H        6.50618747     -16.77814317       8.88755633       0.20541816      -0.03312368      -0.05627042
O        1.53492543       8.69809157      22.73553031      -1.46949272      -0.64671310      -0.52449595
H        1.39347916       7.89194331      23.22754196      -0.08573872      -0.05666530      -0.40987901
H        2.05378121       8.64423555      21.88920094       0.20206977       0.03844859      -0.25282629
O       22.84405527      22.88477183      -0.34720212      -0.96344075       0.31758759      -0.79016576
H       23.24327793      23.69015972      -0.05162975      -0.20957640      -0.11589627       0.33268952
H       22.15020887      22.69679002       0.35328947       0.10810456       0.01788342       0.32249320
O       12.01378001       6.01625137     -16.63571592       0.78124148       0.73081509       0.86765166
H       11.89700283       5.06380800     -16.68638123       0.05583874      -0.18412125      -0.17760627
H       12.00066540       6.40500637     -17.44383794      -0.19246091       0.01915674      -0.27514877
O       -7.77154408      22.80935035       1.75328526      -0.02052410      -0.43650412       0.46506886
H       -8.59431436      22.29325822       1.72206951      -0.14589171      -0.09470310      -0.00081498
H       -7.72605459      23.34949227       2.60919220      -0.12778699      -0.41682226      -0.80789409
O        5.17681680     -15.66295477      17.47531725      -0.87523710      -0.30279409      -0.37550112
H        5.86818741     -15.94513495      18.06959157       0.41034815      -0.12269501      -0.16663255
H        5.17756283     -14.75644713      17.16904920       0.32169757       0.27521901       0.02502820
O        1.67709160      18.62926863       0.60008975      -0.72446411      -1.05621919       0.51646455
H        0.86595222      18.97658094       1.12387157      -0.53928645       0.13587559       0.03400054
H        1.31719013      18.63340079      -0.23678873       0.06730897       0.13221872      -0.29081311
O       -4.79676221      -6.58144819       6.55151716      -1.89284843      -0.23212096       0.25716471
H       -4.46780779      -7.49221558       6.48793697       0.04170844      -0.44374070       0.10664136
H       -5.65260017      -6.49942921       5.97145624      -0.00969303      -0.27907384       0.13622507
O       -3.54835515       2.30129646       8.49595818      -0.20017759       0.38787169       0.50635699
H       -2.91263813       2.63725947       9.15997094      -0.07866024      -0.08453257       0.00518742
H       -3.19003777       1.49693710       8.14044206       0.11262850       0.49804449      -0.18782709
O       14.33536760      -6.92499717      -2.46611782       0.78911960      -0.32229640      -0.06626107
H       13.68307734      -7.20990861      -3.15713392      -0.26008427      -0.10748920      -0.37287840
H       14.89368146      -7.67504853      -2.41928409       0.11773559      -0.37921440       0.23658789
O       11.47733034       3.47496813      23.58523721      -0.29708998      -0.25238481       0.23786623
H       10.91197629       3.23894924      24.34578948       0.17225839       0.22820118      -0.09863584
H       12.31317287       2.83151593      23.54056021       0.27549476      -0.24135043      -0.39205433
O        7.99745643      13.74172377      25.50832533      -1.01578260      -0.07649684       1.57054212
H        8.94178996      14.05213970      25.33437703       0.32911387       0.11261487      -0.17749450
H        7.98237326      12.83826018      25.40657593      -0.20754221      -0.20157771       0.14593667
O       -9.09476480       5.77885474      11.49498649       0.11789831      -0.33241375      -0.78209028
H       -8.23524367       5.44394957      11.62845803       0.94209904      -0.43094852       0.13346643
H       -9.14249802       6.18950465      12.37061283       0.34094932       0.20078907       0.60368240
192
Lattice="13.062222360240725 0.0 0.0 -5.290090831937678e-07 13.062222360240725 0.0 -5.290090831937678e-07 -5.290090831937678e-07 13.062222360240725" Properties=species:S:1:pos:R:3:momenta:R:3 step=140 time_fs=14.0 phase=production pbc="T T T"
O       12.74005741      -2.80512748     -15.45200796       0.98548771       0.68348978      -0.06898312
H       12.21574667      -2.40771522     -16.16662339       0.26350882      -0.18729406      -0.15548194
H       13.35613830      -3.49309154     -15.70437758      -0.09039950      -0.25701679      -0.05563257
O       25.27460539      24.45935985       0.41947737      -0.23998179      -0.04784251       1.14927880
H       25.59881897      25.27480293       0.70422221       0.56911379       0.54250657       0.06809612
H       25.62220704      24.60554067      -0.40095001       0.44186520      -0.07479401      -0.11467841
O        5.38607051       1.47128281       8.00555689       0.59010493      -0.54962075      -1.37914477
H        5.91042124       1.91185558       8.73598092       0.11273047      -0.03144420      -0.09943478
H        5.23322324       0.59923614       8.36220615       0.09440817      -0.64564924      -0.15935660
O       -2.97029623      -5.65897879      -1.97136729      -0.70656966       0.20485958       0.84925951
H       -2.16815906      -5.48180637      -2.51306449      -0.11446062       0.47029727      -0.03722392
H       -2.87035870      -4.82632535      -1.76545593       0.20462128       0.16207383      -0.01307560
O        3.42595770      16.35070596      10.63001129       0.13333621       1.09087104      -0.64783810
H        3.79851634      17.07634286      11.12966842      -0.20644779      -0.02884781       0.15633797
H        3.11122133      16.29152324       9.73815988       0.01574856      -0.03601936      -0.18479675
O       -2.01885409       4.36004478       2.97990168      -0.39625197      -0.23584395       0.26007978
H       -2.67573415       4.33054727       3.80778726      -0.31423583      -0.30400972       0.27362430
H       -2.54373473       4.26198527       2.18082923      -0.04509773      -0.00986744      -0.33046592
O       23.87076756      13.35341685       7.31840227       0.06760768      -0.10749245      -0.35900501
H       24.84312256      13.37880546       7.29283142       0.22175259      -0.25893767       0.13677293
H       23.62831277      12.91572965       6.38062780       0.10674248      -0.34489271       0.25036980
O       -0.74323126     -14.99305972       3.88179528      -0.81622334       0.04061588      -0.05520553
H       -0.71458427     -15.69583302       3.25620607      -0.24931281      -0.15953355      -0.24817519
H       -1.54406302     -14.43429838       4.06751049      -0.29878066      -0.37583250       0.34988809
O       18.45132007     -18.41610187       9.83516057       0.74935283      -0.70849090      -0.35578805
H       19.39178814     -18.75891276      10.02584787      -0.35927685       0.08346358      -0.03652093
H       17.90091356     -18.80770722      10.50237960       0.16899437       0.17658657       0.16299096
O        4.89121644     -14.18809926     -13.63241142       0.34032081       0.28120726      -1.08266381
H        5.83395440     -13.94146056     -13.58189483       0.01769055       0.00498570       0.13787097
H        4.58588038     -14.87344285     -12.93785531       0.33958719      -0.20443077       0.11709769
O       -4.81233436       2.26654684       4.35899836      -0.43575484       0.68936914       0.66682357
H       -4.84888941       1.97332732       3.44694051       0.04088288      -0.12781709       0.01723117
H       -5.63662549       1.82700188       4.78629153       0.34305965       0.07074253      -0.13566525
O       -5.86536408      15.26613996      27.67159516      -1.07232435       0.10210754      -0.90815734
H       -6.79147605      15.43093852      27.50983295       0.64332213       0.31602614      -0.14346499
H       -5.57124573      14.69706236      27.05318657       0.01756018      -0.41034167      -0.11590393
O        7.52972747     -15.50782764      -6.78499997       1.36069952       0.80486139       1.25605249
H        7.91084068     -16.35588687      -7.01792069      -0.02995413       0.04176779       0.00810691
H        7.07500524     -15.47919160      -5.85793467      -0.38108592       0.26320628       0.68861259
O       15.44573958       7.47742133      20.54798922       0.11113179       0.56317119       0.18731018
H       14.77013708       6.91802786      20.19583915       0.13212794      -0.26052733       0.00602723
H       16.30689973       7.26295739      20.63322518       0.10611058       0.00869492       0.03913113
O       -0.26936292       1.08636724       1.00759942      -0.61235128       0.46961501       0.41334498
H       -0.11524865       1.54527883       1.84033146       0.06796494       0.43864503      -0.28790434
H        0.27246732       1.34283583       0.23016567      -0.04564112       0.11014502       0.19951230
O      -16.11451048      12.58329101      17.77260731       0.46054737       0.32136912       0.54376133
H      -16.48866714      13.11708140      16.97112544       0.24178219      -0.20047627       0.01858066
H      -16.77551298      11.84691506      18.03126076      -0.01668794      -0.06427419      -0.27921321
O      -17.72640634       6.30111437      12.94484120       1.18476366       0.06856594      -0.33839595
H      -18.39462992       5.76178821      12.55721870       0.67700739       0.58244378      -0.02536778
H      -17.24884992       6.99355642      12.52077494      -0.29791110       0.30756027      -0.10829004
O       -9.99185907      34.28444363     -11.50016025       0.35956811      -0.34343032       0.20793077
H       -9.47770731      33.82977351     -10.95375094      -0.18233906       0.50199766      -0.26212532
H      -10.08682175      33.36347482     -11.51000683      -0.03641985       0.51547685      -0.30183146
O       36.58129689      10.89596948      21.72529032       0.69269587       0.35718186      -1.12264431
H       36.63032674      11.79452667      21.26906841      -0.10087852       0.05345540       0.09180933
H       35.63128981      10.87957169      22.10753418       0.25272997      -0.03207662       0.08895587
O       30.54603489     -10.97094870       2.34711900       0.56538755       1.13672376      -0.44082649
H       30.45224773     -11.49950669       3.20992376      -0.33153601      -0.19106962       0.03782082
H       30.12525735     -11.28034785       1.58234810       0.09421651      -0.18347337      -0.43008356
O       16.35865979       9.71973526      -6.89960100      -0.29601600      -0.70983621      -0.25277167
H       16.75201373       9.71453922      -7.75168430      -0.02529874      -0.21962844       0.18828813
H       15.95926840       8.89067947      -6.61924158       0.00296521      -0.07502304      -0.25417883
O       -9.24296002       3.47356828      33.45951842       0.70496949      -0.17179640       0.21295594
H       -8.96334182       4.38654748      33.56884056      -0.19719832      -0.35371295       0.03690022
H       -8.61404109       2.89807518      33.91660546      -0.00951183      -0.00229846      -0.03981928
O        3.30108655       1.18471782       0.11546483       1.44079997       0.55737605       0.37675357
H        3.19172345       1.91602675      -0.58865269       0.05396075       0.12952205      -0.13578582
H        3.74042077       0.42052483      -0.32922928       0.00260488      -0.22687689      -0.01384536
O       23.44732248       1.95943149      12.99157207      -0.70806712      -0.01195578       0.07881362
H       23.33627813       2.76028483      13.46658850       0.24671061      -0.13408434      -0.27224994
H       24.12232964       1.38919799      13.30832916      -0.29408342       0.13130799       0.11017311
O        0.06311801      32.50615334      15.72433581      -0.55044622      -0.69398879       1.92552557
H       -0.52085427      31.80714449      15.50478571       0.34012519       0.32405982       0.10828142
H       -0.10480837      33.28487367      15.15313702      -0.13657755      -0.03068949      -0.57221375
O        6.00287861      20.23398936       5.07691313      -0.52365579      -0.06456801       0.58010085
H        5.31091371      19.97123425       4.56443599       0.00071571      -0.02551002       0.25742683
H        6.60316721      20.90303119       4.61594856      -0.21922987      -0.56142133       0.21768625
O       -9.66107325      10.95770702      10.45403539      -0.68564593       1.24638913       1.06731269
H      -10.19899232      10.17983118      10.39856324      -0.00836480      -0.03960223       0.08478187
H       -9.20066513      10.97133607      11.21032995      -0.19306484      -0.12652393      -0.15755649
O       17.17955886      17.96211205      28.08134835      -0.43433909       0.41848852      -1.18441106
H       17.54035991      17.07110384      28.17531283       0.24463018      -0.55601657      -0.01846047
H       16.27162416      17.98870258      27.73747891      -0.17190749      -0.42541710       0.12652184
O        6.73412011      18.38823321      10.92717541       0.34380406      -1.14914129       0.39380130
H        7.28306652      18.83121651      10.14793413      -0.00340914       0.01350153       0.05815252
H        6.57080073      17.49170180      10.63527262      -0.04328497       0.22499410      -0.00061292
O        1.03133222     -13.62096072      10.41963023      -0.25836476       0.25336898      -0.41864747
H        0.21782400     -14.14787057      10.64439160      -0.32341613      -0.06475109       0.18237612
H        1.80009204     -14.15906070      10.49248163       0.13846075      -0.67109304       0.42779482
O        0.01771285       9.16019655       1.91860034       0.03687935      -0.98548683       1.15932737
H        0.94957155       8.89391236       1.94018424      -0.08793163       0.03804547       0.33393774
H       -0.20303615       9.79478000       1.14407158      -0.09819534       0.32530715      -0.22067871
O        0.49776149       0.62806651       7.82776836       0.44621676      -0.34314159       0.56500793
H        1.00801595       0.27104050       6.99151114      -0.09083791      -0.02337680      -0.00675989
H        0.81587843       0.14540058       8.60808793       0.38276266      -0.10903718       0.18564567
O      -18.82349943      28.94738435     -15.94301161       0.95810864       1.44967647      -0.75645146
H      -17.96773931      28.77736931     -16.43461508      -0.51777753       0.13325734       0.40130617
H      -18.58269794      28.46099834     -15.14226215       0.29968383       0.03795373       0.00027352
O        4.62353708      26.38526867      -8.25377297      -0.35713245      -0.73298058       0.16555159
H        5.30889202      26.96479229      -7.85324305       0.11304766       0.44657399       0.10336790
H        3.75452107      26.58238279      -8.09086648       0.33546708       0.07688223      -0.31394131
O      -18.25620912      21.51892738       1.46541568      -1.34205204      -1.43147020      -0.44353920
H      -18.13281053      20.62718076       1.06844935       0.43106972       0.02235003      -0.02091651
H      -19.13354110      21.84140860       1.15491998      -0.13196466       0.51765674       0.00019629
O       11.43026311      20.28310603       6.90863725       0.47810668      -0.30290288       0.15770184
H       11.72910715      21.20257882       6.74740114       0.28840469       0.46251676       0.02050970
H       10.44557032      20.11274506       6.69825281      -0.50498720      -0.03205757      -0.20784540
O       -9.48396853      -6.81339755       4.29682817      -0.58158332       0.21283098       0.32486952
H       -9.07710546      -7.47908254       3.82416584       0.18629702      -0.53748225      -0.20667346
H      -10.20198188      -7.32954189       4.80988391       0.26662841      -0.13688012       0.21503075
O      -25.48114385       1.99785643      11.28782870      -1.02520754      -1.91276812      -0.03261247
H      -25.54889638       1.11606341      10.76271167      -0.13412952       0.63098950      -0.03270342
H      -24.44624938       2.29546583      11.11285183       0.63413130       0.01930974       0.28468061
O      -12.47189844      -7.48053925      19.41755868      -0.27305679      -0.87187138      -0.46284788
H      -12.12020301      -8.24784186      18.90494206       0.50279215      -0.17995425       0.31719927
H      -12.91025237      -6.91073470      18.73982214       0.01265307       0.16324227       0.15313312
O        8.09185947       8.63977051      17.39921772      -0.09008523       0.73688966      -0.41723365
H        8.66746082       7.96247018      17.72168881      -0.49435240       0.20292177       0.10157732
H        8.11986252       8.66805258      16.44646552      -0.29706041       0.13135923       0.09255702
O      -11.14315763      -0.74392245      18.52957425       0.56935578      -0.33339755       0.83215546
H      -10.70428526      -1.59244649      18.76075133      -0.11115505       0.00557729       0.04501633
H      -11.92087123      -0.94923116      17.96842821      -0.15485564       0.06607749       0.15363170
O       22.59854370       4.03697763      19.00894861      -0.96002048       1.16117585      -0.40702682
H       22.29769518       3.45799788      18.37404841      -0.23627437      -0.25935914      -0.07146805
H       22.81682568       3.59212109      19.84932515       0.07796678       0.00489856      -0.29576323
O       -4.96824243     -18.85222827      -3.85455150      -0.21004264      -0.02168449      -1.91002843
H       -4.21568077     -19.09172862      -3.29177099       0.08040172      -0.07248169       0.27129729
H       -5.03823691     -19.34907462      -4.67398035      -0.08513315      -0.06191186       0.07477349
O       27.55688435      -9.92365153      -7.16795503      -0.78113476       1.87537389       0.02168449
H       28.41793583     -10.00428571      -6.88005897      -0.41450350      -0.17331509       0.24827820
H       26.96260514     -10.61421770      -6.83847660       0.27207021      -0.19535792       0.18675966
O        7.03166368       0.38906393       5.94432873       0.74022420       0.63801409      -0.17967567
H        6.78403004       0.52113436       6.91732464      -0.23799393      -0.22148042       0.29009341
H        7.48238957      -0.46439415       5.83995970       0.12418405       0.11384662       0.42576683
O      -18.57865197      -2.01862557      24.50794304      -0.13643131       0.67505665      -0.54891208
H      -18.78489234      -2.23877924      23.56754226       0.10485025      -0.01241997      -0.40329368
H      -17.81629288      -2.41998492      24.94421548       0.48873860      -0.04483522       0.20648189
O        4.96543801      -6.69167233      -5.57287103       0.70867769       0.72657515      -0.67967419
H        5.01630106      -6.04892850      -4.84946027      -0.03738123       0.39911132       0.27987684
H        5.39743691      -6.37234269      -6.31097784       0.19673315       0.04412403      -0.10224686
O       12.15429499       9.76122633       6.30672084       0.76418815      -1.28542203      -0.86438653
H       11.80328223      10.01746164       7.09726051      -0.49768746       0.57754681       0.44491895
H       12.13678995      10.20017559       5.42030397       0.03679639       0.11994632      -0.05891175
O        4.49378237      11.85010668      -5.13193922       0.98986432      -0.20916175       0.25577977
H        3.90475582      11.72811783      -4.34006875      -0.10090784       0.30120972      -0.17585853
H        4.16334981      11.24984918      -5.79951691      -0.31774395      -0.25253231      -0.22612928
O       13.16701790      28.98111251      15.89495037      -0.76837832      -0.34959891      -0.00091916
H       13.66430045      28.75725216      16.72303601       0.31272427      -0.47310880       0.03966853
H       12.27776586      29.30194998      16.23046752      -0.10533076       0.03521030      -0.05262498
O       -4.11923146       4.05578031       1.23029972       0.21866900       1.30928767       0.12934920
H       -4.55179946       4.83399253       1.23153633      -0.13786751      -0.15052756      -0.17216075
H       -4.84163221       3.53515079       1.48390488      -0.06577116      -0.04965772       0.11124148
O        6.59264925     -15.81164830       8.84263853       0.63668943      -0.07971638      -0.73515672
H        5.72420761     -15.48140510       8.52765520      -0.25161539      -0.18775894      -0.26582301
H        6.52740462     -16.77840556       8.88275996       0.23422222       0.01723309      -0.03546524
O        1.52631804       8.69394668      22.73100468      -1.30860821      -0.58998064      -0.70997194
H        1.38491195       7.88139614      23.18707578      -0.09137727      -0.16825022      -0.39405397
H        2.06578812       8.64536091      21.87249197       0.04148442      -0.00700011      -0.06578429
O       22.83656028      22.88566726      -0.35173510      -1.22108572       0.23464166      -0.68348873
H       23.22656610      23.68292877      -0.01814319      -0.11378467      -0.01599863       0.35284659
H       22.16558072      22.69724162       0.37787888       0.22235310       0.00404586       0.17920023
O       12.01821922       6.02000878     -16.62872057       0.79632829       0.56311319       1.16211313
H       11.90169842       5.04479421     -16.70147065       0.05135634      -0.17312119      -0.14383621
H       11.98019736       6.41563326     -17.48926150      -0.22064396       0.17235861      -0.61006946
O       -7.77150339      22.80594192       1.75622272      -0.05473786      -0.46418980       0.44264521
H       -8.60558741      22.28802039       1.72130038      -0.11309135      -0.02933716      -0.00869200
H       -7.73973590      23.30423689       2.52860036      -0.15525833      -0.44537549      -0.76793987
O        5.17120345     -15.66422635      17.47236703      -0.86970563      -0.27061756      -0.38059052
H        5.90786142     -15.95365225      18.05044314       0.38297470      -0.05544930      -0.23207051
H        5.20916148     -14.73204166      17.17456057       0.32653728       0.18521530       0.10546853
O        1.67220003      18.62241782       0.60457217      -0.87407381      -0.96686679       0.89800545
H        0.82538675      18.98409571       1.12415687      -0.28929483       0.02619089      -0.03873513
H        1.31986437      18.64491041      -0.28151120       0.00810034       0.11799867      -0.57333318
O       -4.80858997      -6.58298484       6.55264942      -2.00115238      -0.37666751       0.18488446
H       -4.46628896      -7.52957858       6.49680596      -0.02538133      -0.29492139       0.08125910
H       -5.64507379      -6.52883234       5.99123090       0.15814874      -0.32756576       0.27288925
O       -3.54967898       2.30415339       8.49917748      -0.28978028       0.57960081       0.63953765
H       -2.92102202       2.62953607       9.15910437      -0.08674315      -0.06567602      -0.00556233
H       -3.17591290       1.53850023       8.11831639       0.18346353       0.33717171      -0.27134384
O       14.33916505      -6.92663265      -2.46694535       0.62872194      -0.33591181      -0.24123932
H       13.66052724      -7.21619223      -3.18754175      -0.17234569      -0.02483883      -0.23457142
H       14.90953396      -7.71517671      -2.39597448       0.18088646      -0.40486164       0.23308365
O       11.47561033       3.47279571      23.58584309      -0.11250347      -0.40099220       0.18920314
H       10.93163485       3.26192044      24.33241072       0.21197398       0.23414319      -0.12404630
H       12.33055064       2.81552371      23.50498172       0.09550568      -0.08918582      -0.31924009
O        7.99169562      13.74206407      25.51710858      -0.76404115       0.29872855       1.57094699
H        8.96341716      14.06087573      25.31981995       0.10749491       0.06600146      -0.09956248
H        7.96100874      12.80194501      25.41885421      -0.21914321      -0.48147805       0.12727352
O       -9.09351747       5.77684499      11.49041098       0.27333268      -0.27186234      -0.51295614
H       -8.13981308       5.40213649      11.63795778       0.92780277      -0.39166878       0.05059318
H       -9.11271994       6.20588488      12.42274613       0.26179021       0.11990695       0.42379254
192
Lattice="13.061717343038985 0.0 0.0 -5.289886304193837e-07 13.061717343038985 0.0 -5.289886304193837e-07 -5.289886304193837e-07 13.061717343038985" Properties=species:S:1:pos:R:3:momenta:R:3 step=150 time_fs=15.0 phase=production pbc="T T T"
O       12.74555747      -2.80067542     -15.45188813       0.98150943       0.71407487      -0.08262315
H       12.24054807      -2.42991310     -16.18131328       0.24563496      -0.26218308      -0.16821553
H       13.34522378      -3.51748142     -15.71156145      -0.12900801      -0.23794000      -0.09903567
O       25.27165773      24.45749645       0.42740371      -0.34738063      -0.16290604       1.41354141
H       25.65616466      25.33291325       0.71209380       0.59301846       0.60199875       0.08199766
H       25.67067682      24.59958755      -0.42517804       0.55136660      -0.04601952      -0.34562100
O        5.38998814       1.46786817       7.99731617       0.74562395      -0.59310620      -1.19057700
H        5.91765363       1.90342936       8.71908341       0.03906883      -0.14478007      -0.23991869
H        5.24068024       0.53567038       8.34469047       0.07336889      -0.60560742      -0.21075009
O       -2.97439070      -5.65882113      -1.96681558      -0.66958165      -0.19358902       0.62184979
H       -2.18969039      -5.43468399      -2.50774147      -0.31563797       0.48791226       0.13475682
H       -2.84348455      -4.79141411      -1.76508832       0.33608523       0.52358098       0.01531926
O        3.42632768      16.35637237      10.62590473       0.02155857       0.95353501      -0.57240701
H        3.77730339      17.07451453      11.13896770      -0.22211726       0.01161037       0.04619078
H        3.11621358      16.29203598       9.71895997       0.09347144       0.06124274      -0.18562396
O       -2.02184336       4.35840697       2.98193524      -0.61805595      -0.24769776       0.40644508
H       -2.69642902       4.30042998       3.82163833      -0.11435247      -0.30936958       0.01615371
H       -2.54855551       4.26186110       2.15207017      -0.03865603       0.01395895      -0.22728906
O       23.87051158      13.35163890       7.31521029       0.16883547      -0.30801525      -0.59106527
H       24.86093446      13.35519134       7.30826978       0.14440804      -0.21413679       0.18588237
H       23.63938686      12.88857938       6.41433565       0.13897674      -0.19794232       0.44869187
O       -0.74835022     -14.99181068       3.88175741      -0.86414304       0.14904398       0.06819563
H       -0.74075331     -15.71197369       3.22912535      -0.28881918      -0.15954286      -0.28070155
H       -1.56899966     -14.47651851       4.09732591      -0.21266011      -0.50014717       0.26419788
O       18.45593439     -18.41989557       9.83251095       0.94264050      -0.74444880      -0.38818576
H       19.34881484     -18.74537850      10.01813657      -0.45927859       0.16400992      -0.10589622
H       17.91194178     -18.79030311      10.52077758       0.06636967       0.16747215       0.22337644
O        4.89296930     -14.18638047     -13.63789203       0.28818970       0.09670039      -0.87466174
H        5.82804296     -13.94513270     -13.56829189      -0.12393142      -0.08713886       0.12890257
H        4.62634445     -14.88180452     -12.93876381       0.48831831       0.01949243      -0.14469489
O       -4.81549859       2.27033308       4.36322224      -0.63129225       0.58029732       0.74048771
H       -4.84337510       1.96085623       3.44727034       0.07111322      -0.12450068      -0.00367608
H       -5.59358775       1.83740306       4.77033912       0.50488241       0.13016138      -0.16976229
O       -5.87156815      15.26665375      27.66592651      -0.95356292       0.20653310      -0.62134950
H       -6.74097950      15.46573186      27.49437554       0.33988926       0.42218095      -0.16378700
H       -5.55895095      14.64137465      27.02442765       0.20776040      -0.68212613      -0.40897773
O        7.53751772     -15.50212739      -6.77641393       1.26861981       0.86305580       1.45514151
H        7.90563109     -16.34987122      -7.01604604      -0.06863448       0.06328076       0.02297782
H        7.04443977     -15.45603113      -5.80319666      -0.23460416       0.20102722       0.42195009
O       15.44462592       7.48137874      20.54832046      -0.25276399       0.80005334       0.17657661
H       14.78021035       6.88808208      20.19318252       0.09870551      -0.33705812      -0.03822145
H       16.33790386       7.25533955      20.63714137       0.50312410      -0.14973170       0.05412415
O       -0.27326479       1.08899637       1.00977809      -0.67159474       0.39254410       0.31784130
H       -0.10694255       1.58684545       1.80855427       0.10107223       0.41770012      -0.35116165
H        0.26725612       1.35495624       0.25512340      -0.04975450       0.14310622       0.29168875
O      -16.11229213      12.58438389      17.77442494       0.08287287       0.19075956       0.28965832
H      -16.45681540      13.08541362      16.99099697       0.38736738      -0.42128231       0.37822650
H      -16.76411561      11.85672918      17.99843049       0.22476986       0.25978280      -0.37268522
O      -17.71796340       6.30155727      12.94315074       1.39356486       0.19967940      -0.02875696
H      -18.33724169       5.81230131      12.54540389       0.43635263       0.41796095      -0.23433251
H      -17.27574000       7.02400493      12.50526809      -0.26869834       0.31843853      -0.19411048
O       -9.98972353      34.28251214     -11.49908188       0.19753918       0.17855475      -0.01619936
H       -9.48274429      33.87385488     -10.96496179       0.07375688       0.40346046       0.02971682
H      -10.09298297      33.39746904     -11.54466309      -0.08761186       0.19589583      -0.40798402
O       36.58322485      10.89842798      21.71759615       0.41457606       0.56575486      -1.10856230
H       36.61906494      11.78989515      21.28294013      -0.09633117      -0.11956142       0.19733324
H       35.66877257      10.87575070      22.10951553       0.52133447      -0.04123924      -0.02115738
O       30.54856740     -10.96351937       2.34548996       0.61498977       1.12275418      -0.10449175
H       30.41831352     -11.51237719       3.19960726      -0.33754292      -0.07895488      -0.24875630
H       30.12994535     -11.30273149       1.53718509       0.05387256      -0.26198793      -0.44298282
O       16.35594025       9.71521258      -6.90030108      -0.38533080      -0.63848097      -0.05495071
H       16.75552711       9.69206054      -7.74190945       0.11691018      -0.23205419      -0.00524315
H       15.95925963       8.88064409      -6.64303340       0.00531169      -0.12811470      -0.23408055
O       -9.23858519       3.47203570      33.45951578       0.58559826      -0.31908308       0.19611832
H       -8.98168453       4.35789185      33.57263862      -0.17407841      -0.18811907       0.07184367
H       -8.61420856       2.90059193      33.90823174       0.00573060       0.04648295      -0.09712803
O        3.30992664       1.18833360       0.11658956       1.47917641       0.62652757      -0.01656368
H        3.19871819       1.91606939      -0.58979743       0.09272449      -0.12768487       0.11106466
H        3.73639337       0.40588089      -0.32459786      -0.08433454      -0.06660852       0.11093175
O       23.44150115       1.95895208      12.99082086      -0.89939010      -0.12821456      -0.17248552
H       23.35807589       2.75728618      13.44502087       0.21518226       0.09516297      -0.15104721
H       24.10245363       1.39590530      13.32439225      -0.08442264      -0.00436347       0.23328165
O        0.06025515      32.50166737      15.73528904      -0.35859188      -0.30213097       1.83333313
H       -0.49904752      31.82603378      15.51269371       0.07634039       0.04963761       0.05717584
H       -0.11744202      33.27373794      15.10383396      -0.11844655      -0.17551216      -0.41068469
O        6.00051812      20.23335099       5.08083873      -0.21084983       0.06892992       0.78371156
H        5.29476645      19.96176327       4.57964283      -0.32786821      -0.15305706       0.06118605
H        6.57805713      20.84338676       4.64070887      -0.24650128      -0.59837114       0.26487810
O       -9.66558351      10.96536175      10.45881350      -0.91514678       1.36868128       0.62374307
H      -10.20334231      10.16921226      10.40481331      -0.07702470      -0.15196114       0.05311608
H       -9.20302318      10.96168667      11.22032619       0.13577181      -0.06382207       0.36743920
O       17.17629517      17.96361030      28.07306568      -0.40446409       0.25217283      -1.15742200
H       17.55841220      17.02234267      28.17109556       0.12170719      -0.38965452      -0.05005301
H       16.25672008      17.94468828      27.74971064      -0.11156196      -0.46103522       0.14888550
O        6.73626772      18.38100141      10.92872515       0.44390468      -0.95012044       0.25679546
H        7.27689863      18.82667085      10.16196106      -0.11676747      -0.09109294       0.23802709
H        6.56804384      17.50830058      10.63399778      -0.01454586       0.10261091      -0.02442824
O        1.02905727     -13.61905379      10.41672976      -0.43055894       0.14683706      -0.38298337
H        0.19590031     -14.14916287      10.65930292      -0.10781444       0.03669099       0.12613578
H        1.81674305     -14.22476276      10.53406194       0.14909959      -0.64611453       0.42552891
O        0.01771016       9.15423378       1.92537771      -0.04929052      -0.83825073       1.06956696
H        0.93711061       8.90181599       1.96998959      -0.15043921       0.12268014       0.27960203
H       -0.20777370       9.82167773       1.12978004      -0.00149878       0.23095410      -0.06828193
O        0.50102025       0.62524542       7.83026261       0.62728778      -0.57773337       0.36493308
H        0.99056093       0.27375119       7.00622219      -0.26456428       0.07934421       0.31294720
H        0.85118412       0.13842022       8.62005602       0.33451976      -0.02480342       0.05313381
O      -18.81653139      28.95505523     -15.94693627       1.00574033       1.42042812      -0.66814592
H      -18.01721070      28.79129560     -16.39957165      -0.43839117       0.16138355       0.26180207
H      -18.55682797      28.46388745     -15.13967233       0.21221354       0.05089781       0.02864403
O        4.62293631      26.37975613      -8.25251454       0.25387835      -0.72021937       0.14939050
H        5.31206336      26.99922677      -7.84638087      -0.05926401       0.26507005       0.02211107
H        3.76849365      26.59428660      -8.11675567      -0.06420510       0.19449275      -0.22351339
O      -18.26430543      21.50916681       1.46218417      -1.53209691      -1.45994246      -0.58661047
H      -18.08973444      20.63382523       1.06822276       0.42979521       0.12902522       0.01497743
H      -19.13771207      21.88879572       1.16012407       0.04312878       0.45748323       0.10947681
O       11.43193998      20.28067574       6.90909721       0.21261681      -0.20689642       0.07588485
H       11.75165287      21.23741762       6.75097900       0.17257906       0.23639057       0.06329911
H       10.41466480      20.11402488       6.68183196      -0.11032470       0.07547420      -0.12174818
O       -9.48802493      -6.81192256       4.29957384      -0.80279187       0.11026083       0.56469741
H       -9.05214333      -7.53875814       3.79453518       0.26824257      -0.61669565      -0.34208723
H      -10.16684282      -7.33310046       4.82599286       0.44114746       0.05256009       0.11960243
O      -25.48584462       1.98552628      11.28642749      -0.82485654      -2.00309053      -0.23323622
H      -25.55855954       1.19028693      10.76804381      -0.09023897       0.81598987       0.10328009
H      -24.39560105       2.29442366      11.14124204       0.39155870      -0.03774424       0.30245961
O      -12.47303347      -7.48555138      19.41329143      -0.24571052      -0.86067350      -0.66517926
H      -12.07372431      -8.25661986      18.94076532       0.43477031       0.00101805       0.42714437
H      -12.90464714      -6.90050495      18.76127402       0.08965762       0.04206396       0.28921756
O        8.09061594       8.64455391      17.39616897      -0.23453891       0.95249177      -0.35836087
H        8.62478280       7.97465342      17.73333365      -0.35769696       0.02990184       0.16234923
H        8.09165879       8.67948153      16.44844683      -0.27597508       0.10877923      -0.04759316
O      -11.13950630      -0.74619701      18.53388991       0.47413773      -0.40423345       0.80364873
H      -10.71708629      -1.58868054      18.76235289      -0.15269090       0.05795180       0.00680292
H      -11.92932735      -0.94210905      17.98662828      -0.02955979       0.07957996       0.23267263
O       22.59206966       4.04479961      19.00643683      -0.88719733       1.40840345      -0.22609946
H       22.26763379       3.42245025      18.35666493      -0.34193099      -0.42667155      -0.22756890
H       22.82317066       3.59090296      19.81997465       0.07459296      -0.03505797      -0.27597523
O       -4.96928999     -18.85169503      -3.86571986      -0.17639943      -0.04137903      -1.75638766
H       -4.21114539     -19.09648018      -3.26942090      -0.00637541      -0.03470374       0.17080153
H       -5.04338110     -19.35576085      -4.66884767      -0.02441072      -0.09579181       0.01973603
O       27.54966428      -9.91185642      -7.16805236      -1.22009736       1.82975704      -0.13787107
H       28.39939992     -10.02166439      -6.84618086       0.05802981      -0.18765639       0.44011671
H       26.98953190     -10.63080453      -6.81932101       0.29755923      -0.14742686       0.19496745
O        7.03573906       0.39301818       5.94363184       0.66884299       0.66095778       0.03755075
H        6.76138386       0.49803159       6.93365442      -0.22140837      -0.24773185       0.04636173
H        7.49219097      -0.45171032       5.88363325       0.08914007       0.13618624       0.46997798
O      -18.57866717      -2.01455097      24.50325116      -0.08098476       0.60974460      -0.67732949
H      -18.76943590      -2.23891834      23.53744514       0.20132075       0.01212291      -0.17131238
H      -17.77290716      -2.42302723      24.95819037       0.35854757      -0.00270076       0.08127706
O        4.96913663      -6.68684518      -5.57593900       0.57264294       0.79271940      -0.38917593
H        5.01218425      -6.01402382      -4.82417153      -0.04097303       0.28838443       0.20279543
H        5.42217947      -6.36348626      -6.33268202       0.29990237       0.12447710      -0.31673181
O       12.15889822       9.75279519       6.30025718       0.84199193      -1.29571155      -1.06381000
H       11.75025695      10.07807240       7.14775943      -0.53381288       0.63703008       0.49541435
H       12.13896402      10.21005555       5.42134206       0.01792719       0.08777977       0.08721905
O        4.49935295      11.84812550      -5.12978326       0.87147323      -0.30807870       0.34738389
H        3.90020781      11.75779862      -4.36348648       0.00573766       0.31487947      -0.30095002
H        4.13319418      11.22672938      -5.82063799      -0.28352271      -0.18849214      -0.18405831
O       13.16163648      28.97803896      15.89532520      -0.80610348      -0.29195586       0.33310672
H       13.68841950      28.71129818      16.71585747       0.17802257      -0.43847561      -0.18644069
H       12.27575845      29.30162160      16.22003275       0.07675729      -0.02057832      -0.14398410
O       -4.11633145       4.06282008       1.23081140       0.63788687       1.03137925       0.06435115
H       -4.57626665       4.84400044       1.21201498      -0.35902205       0.34750853      -0.23016496
H       -4.85673962       3.52175106       1.49846325      -0.21901510      -0.20446744       0.17939839
O        6.59589395     -15.81154613       8.83764871       0.48773326      -0.07761214      -0.77648474
H        5.70478818     -15.49896204       8.50364319      -0.13044565      -0.19011539      -0.21151509
H        6.55125388     -16.77387937       8.88010164       0.25987429       0.05745792      -0.01133318
O        1.51879241       8.69028148      22.72506656      -1.12374980      -0.49976789      -0.93574001
H        1.37533007       7.85747980      23.14992440      -0.10417454      -0.31203519      -0.35138980
H        2.06147182       8.64245270      21.87517572      -0.12764539      -0.04558109       0.13518294
O       22.82748953      22.88609578      -0.35549280      -1.43060379       0.20969098      -0.54053380
H       23.21920657      23.68365827       0.01634086      -0.02365699       0.03490802       0.34812352
H       22.19124753      22.69523684       0.38843047       0.31520478      -0.03083742       0.04334729
O       12.02262275       6.02283094     -16.62107698       0.78474322       0.43969818       1.05374052
H       11.90655558       5.03466546     -16.71315218       0.05945145      -0.00992097      -0.10783922
H       11.95685943       6.43153381     -17.54827905      -0.24680689       0.13106853      -0.55403945
O       -7.77169940      22.80123738       1.75757154      -0.11698194      -0.83087804      -0.04585732
H       -8.61532820      22.28503247       1.71988497      -0.08406368      -0.00964660      -0.02356611
H       -7.75443587      23.27299618       2.47660667      -0.14606754      -0.12986607      -0.22873994
O        5.16602618     -15.66498331      17.46944202      -0.73471317      -0.16801669      -0.34828552
H        5.93868236     -15.95379118      18.02081563       0.24189177       0.04137285      -0.36670325
H        5.23996529     -14.72285763      17.18900051       0.30570150      -0.01630746       0.20487620
O        1.66595590      18.61602404       0.61030672      -1.16011864      -0.87912158       0.92208520
H        0.81008850      18.97952883       1.11434993      -0.01895410      -0.10773528      -0.16986592
H        1.32290897      18.65510272      -0.33554847       0.07352516       0.10592875      -0.47481487
O       -4.82077981      -6.58579789       6.55338868      -2.00256767      -0.62870595       0.15597426
H       -4.47318178      -7.54627648       6.50345963      -0.11733913      -0.05222062       0.06176888
H       -5.62376609      -6.56225724       6.02267716       0.24590923      -0.35913874       0.35859715
O       -3.55179359       2.30821957       8.50312986      -0.44652789       0.76002552       0.74457147
H       -2.92776487       2.62521607       9.15997413      -0.04784268      -0.01813902       0.03650513
H       -3.15359208       1.56184383       8.08627700       0.26749230       0.15530202      -0.37505569
O       14.34228782      -6.92908505      -2.46892367       0.58411462      -0.57687216      -0.43305863
H       13.65102923      -7.21442524      -3.20041722      -0.00353777       0.05391592      -0.02547016
H       14.92153470      -7.74575843      -2.37512182       0.05428983      -0.20078720       0.18742487
O       11.47539326       3.46992786      23.58539463       0.20509059      -0.48313879      -0.06580927
H       10.94750444       3.28235888      24.32639361       0.10389822       0.18074386       0.04517272
H       12.33131746       2.81367484      23.47701519      -0.07037660       0.05392860      -0.23395197
O        7.98748775      13.74368124      25.52564629      -0.50646932       0.34494845       1.52300431
H        8.96082939      14.06259209      25.31359768      -0.15831912      -0.02462574      -0.00568520
H        7.94018439      12.75568505      25.43025887      -0.19736385      -0.39893808       0.13028651
O       -9.09053157       5.77511299      11.48821937       0.56446589      -0.20705823      -0.04354627
H       -8.05717054       5.36903836      11.63693399       0.77607366      -0.28444050      -0.05409187
H       -9.09044900       6.20966741      12.44656300       0.19425086      -0.05061124       0.05410278
192
Lattice="13.061133693166004 0.0 0.0 -5.289649930875655e-07 13.061133693166004 0.0 -5.289649930875655e-07 -5.289649930875655e-07 13.061133693166004" Properties=species:S:1:pos:R:3:momenta:R:3 step=160 time_fs=16.0 phase=production pbc="T T T"
O       12.75119332      -2.79630334     -15.45169664       1.04778730       0.65879135      -0.07941726
H       12.26092735      -2.45709517     -16.19964679       0.17749010      -0.29106139      -0.22775269
H       13.32903226      -3.53795002     -15.72137559      -0.19344729      -0.18104806      -0.11142372
O       25.26888824      24.45606765       0.43619996      -0.14797106       0.07203910       1.39648018
H       25.70738341      25.38232496       0.71954073       0.47376631       0.43375144       0.07825699
H       25.72154783      24.59085425      -0.45808539       0.48332313      -0.12627985      -0.27471378
O        5.39466060       1.46354971       7.99023290       0.84093111      -0.80519934      -1.01995069
H        5.91826054       1.88368926       8.68999232      -0.01011803      -0.24983002      -0.33157849
H        5.24807950       0.48633139       8.31910516       0.08428981      -0.40014200      -0.30604973
O       -2.97838516      -5.66039070      -1.96331478      -0.68369276      -0.34370499       0.51682424
H       -2.22563069      -5.38648899      -2.48933466      -0.40298569       0.49982769       0.22664590
H       -2.80666228      -4.73158258      -1.76353585       0.40489859       0.63987385       0.00308768
O        3.42585131      16.36096824      10.62193744      -0.13164251       0.77612999      -0.57409870
H        3.75568517      17.07852835      11.13854555      -0.21401769       0.09304469      -0.03960521
H        3.12971131      16.30217776       9.70344324       0.18736599       0.16084622      -0.11699423
O       -2.02641128       4.35659207       2.98439970      -0.90657845      -0.28335132       0.43479497
H       -2.69750278       4.27024543       3.81055319       0.09376476      -0.30401766      -0.24355946
H       -2.54891451       4.26470151       2.14012325       0.03319713       0.04861639      -0.00794020
O       23.87099305      13.34849515       7.31058154       0.34311337      -0.51652711      -0.79119339
H       24.86754025      13.33622633       7.32842130       0.01544546      -0.16119853       0.23451939
H       23.65295022      12.87613735       6.46669591       0.15414453      -0.05464946       0.61243737
O       -0.75379831     -14.99029335       3.88205505      -0.91986772       0.10486887       0.06806192
H       -0.77051127     -15.72174786       3.20520996      -0.31948650      -0.04095000      -0.19174428
H       -1.58552614     -14.52984563       4.11867548      -0.13218790      -0.60176487       0.17913068
O       18.46060873     -18.42350312       9.82952592       0.78448037      -0.68519265      -0.44054697
H       19.31248695     -18.72931664      10.00651432      -0.20966527       0.12889420      -0.11230571
H       17.91225737     -18.77276551      10.54422227      -0.03865680       0.18095961       0.25806253
O        4.89422086     -14.18571920     -13.64208309       0.17875704      -0.07593327      -0.70542323
H        5.81346668     -13.95572698     -13.55601572      -0.13902460      -0.13093653       0.10791256
H        4.67875218     -14.87012270     -12.96323030       0.57480892       0.18415830      -0.34700401
O       -4.81917948       2.27369599       4.36733936      -0.58948563       0.57127279       0.62861779
H       -4.83420818       1.94927013       3.44669801       0.11416682      -0.10916523      -0.00035499
H       -5.54695749       1.84749380       4.75799744       0.39389552       0.04934525      -0.04980250
O       -5.87596824      15.26666166      27.66108757      -0.54055370      -0.03221922      -0.59501322
H       -6.72835254      15.51296583      27.47391056      -0.08073404       0.56009743      -0.23611166
H       -5.53675179      14.57374874      26.98243113       0.20998196      -0.63897765      -0.37662683
O        7.54463555     -15.49585109      -6.76656336       1.15566085       0.96295279       1.65866875
H        7.89716625     -16.34346557      -7.01321056      -0.09625412       0.04693681       0.02714694
H        7.02979872     -15.43857805      -5.77659050      -0.05340433       0.14307777       0.11105406
O       15.44194608       7.48627568      20.54843030      -0.34341551       0.87276170       0.15630454
H       14.79077625       6.85437636      20.18799712       0.14628004      -0.33364418      -0.04328706
H       16.39072458       7.23626342      20.64079410       0.52106557      -0.21724023       0.03196973
O       -0.27772880       1.09097598       1.01154317      -0.79770770       0.25904139       0.28162639
H       -0.09585971       1.62730354       1.77446896       0.12421605       0.41885679      -0.33211706
H        0.26534152       1.37133389       0.28216359       0.02364567       0.19730188       0.23871191
O      -16.11152548      12.58450772      17.77526381       0.00904742       0.02849317       0.31300869
H      -16.41635390      13.04266842      17.03100280       0.39654710      -0.37326615       0.35897796
H      -16.73577796      11.88908430      17.96037505       0.29477247       0.34952818      -0.36345532
O      -17.70745486       6.30339391      12.94351475       1.78120518       0.50371045       0.33341855
H      -18.31348275       5.83844491      12.50733054       0.02736407       0.11957525      -0.54086426
H      -17.30009982       7.05370532      12.48328761      -0.24940344       0.28897560      -0.23782894
O       -9.98865460      34.28385428     -11.49943137       0.00653569       0.74742255      -0.25815084
H       -9.46604366      33.90091454     -10.94936360       0.23673903       0.16589376       0.26015950
H      -10.09975653      33.39996747     -11.58539985      -0.04579058      -0.10221128      -0.42345954
O       36.58376838      10.90171642      21.70982747       0.34630678       0.63341667      -1.11552525
H       36.60965833      11.77587997      21.30246263      -0.05735203      -0.12140349       0.20309784
H       35.72214624      10.86963808      22.10512015       0.55156672      -0.08015419      -0.02215658
O       30.55077041     -10.95646942       2.34518039       0.53418327       1.00367036       0.00850283
H       30.38450137     -11.51353154       3.16151372      -0.32629127       0.04409938      -0.52242165
H       30.13739376     -11.32673384       1.50390472       0.13950414      -0.22739921      -0.21350522
O       16.35260981       9.71107917      -6.89977426      -0.45291696      -0.57142215       0.10690783
H       16.77306472       9.66873324      -7.75109104       0.24854611      -0.23737338      -0.16932238
H       15.95858601       8.86485103      -6.66377960      -0.00381032      -0.18471003      -0.19795474
O       -9.23516037       3.46912693      33.45900429       0.38813065      -0.57775852       0.11519681
H       -8.99499404       4.35476791      33.58059964      -0.10493518       0.13511771       0.12327670
H       -8.61085512       2.90476572      33.89665757       0.06240886       0.03134076      -0.09986484
O        3.31890342       1.19222376       0.11534687       1.48493494       0.64802732      -0.35937883
H        3.20929786       1.89311235      -0.56886583       0.12357511      -0.31516802       0.29503557
H        3.72453543       0.40651627      -0.30833413      -0.14549630       0.06354980       0.21337809
O       23.43438633       1.95763601      12.98840979      -1.06038694      -0.27225450      -0.40473401
H       23.37625315       2.77884125      13.43593879       0.18228979       0.33171492      -0.03212723
H       24.10283238       1.38887629      13.35202157       0.09381932      -0.12047039       0.33550469
O        0.05877517      32.49998598      15.74543373      -0.13709747       0.21325859       1.68879329
H       -0.50757009      31.81173784      15.51415874      -0.23650883      -0.29757739      -0.00779687
H       -0.12723747      33.24808863      15.07379006      -0.08065690      -0.31902402      -0.18752308
O        5.99912072      20.23255612       5.08630991      -0.21463275      -0.07376069       1.07142119
H        5.24907054      19.94089231       4.57804954      -0.57508397      -0.24303604      -0.06922388
H        6.56342613      20.79396405       4.66101095      -0.01770655      -0.36581445       0.13237539
O       -9.67145988      10.97336612      10.46114438      -1.11797368       1.37856566       0.34300766
H      -10.20999977      10.15369728      10.40877483      -0.05122692      -0.13410035       0.04332037
H       -9.17721710      10.95729173      11.27489196       0.34528146      -0.02159761       0.69912559
O       17.17316811      17.96346954      28.06481939      -0.36511096      -0.04188556      -1.11785823
H       17.56131915      16.99719194      28.16293142      -0.04565800      -0.10685098      -0.09127546
H       16.24963909      17.89826275      27.76439339      -0.01801412      -0.46960954       0.17767725
O        6.73902133      18.37518521      10.92951010       0.54575827      -0.68142090       0.16884052
H        7.26015373      18.81237517      10.19295201      -0.21298837      -0.17833392       0.39718057
H        6.56657264      17.50706097      10.62882908      -0.01125132      -0.11636211      -0.07228051
O        1.02623909     -13.61841971      10.41419043      -0.46818197      -0.15070342      -0.28550316
H        0.19899808     -14.13825623      10.66715498       0.17582281       0.17749420       0.04116771
H        1.82250285     -14.27811580      10.57297649      -0.03880234      -0.44950099       0.37713704
O        0.01685969       9.14923093       1.93147226      -0.25030314      -0.64986381       0.93697535
H        0.92456714       8.91519514       1.99487107      -0.08283671       0.15147328       0.23542718
H       -0.20346901       9.83782996       1.13194273       0.08879245       0.10575629       0.11806264
O        0.50532927       0.62096848       7.83188784       0.75739916      -0.78590281       0.32164852
H        0.95848370       0.28531312       7.04811867      -0.36666072       0.14116704       0.50300387
H        0.88027673       0.14096355       8.61769225       0.26291077       0.07404006      -0.08234890
O      -18.81025906      28.96246703     -15.94931389       0.73298663       1.41676458      -0.30944340
H      -18.04023741      28.80397950     -16.38860631      -0.01795568       0.11734457      -0.06921663
H      -18.54039746      28.46997215     -15.13813479       0.10650703       0.10583756      -0.02268853
O        4.62620918      26.37432085      -8.25115856       0.83666857      -0.65843633       0.17888492
H        5.29585753      27.01287085      -7.84897061      -0.26618958       0.04075404      -0.08195743
H        3.74376544      26.61785372      -8.13451588      -0.39878052       0.30414358      -0.15599172
O      -18.27347537      21.49941392       1.45819391      -1.71190656      -1.38818204      -0.68057523
H      -18.04847756      20.64906360       1.07034536       0.39846855       0.18981716       0.02237626
H      -19.12333954      21.92713191       1.17575713       0.22716790       0.34570952       0.20657176
O       11.43193497      20.27902888       6.90899262      -0.04936922      -0.03298825      -0.00868103
H       11.76074114      21.24371097       6.75962912       0.02442430      -0.08969267       0.12045737
H       10.42408238      20.12572844       6.67420404       0.31520054       0.18194267      -0.02744561
O       -9.49245202      -6.81203613       4.30281605      -0.73987470      -0.24449925       0.52014646
H       -9.03129571      -7.58794350       3.76459024       0.13751563      -0.38032560      -0.25909934
H      -10.11747310      -7.32055681       4.83403714       0.53618349       0.17865168       0.06944163
O      -25.48886752       1.97433090      11.28480065      -0.50055145      -1.52751313      -0.07489657
H      -25.56613506       1.25582735      10.76936603      -0.09704879       0.44651788      -0.12574822
H      -24.37020896       2.28726586      11.17061762       0.08708923      -0.11266157       0.31050070
O      -12.47376259      -7.49056477      19.40812088      -0.16414951      -0.88809156      -0.69950790
H      -12.03466282      -8.24734644      18.98473678       0.36030820       0.17149337       0.47979244
H      -12.89335533      -6.89980887      18.79073525       0.11731633      -0.01523114       0.30757181
O        8.08818969       8.65084765      17.39330140      -0.43513468       1.21717560      -0.32981067
H        8.59784217       7.96603527      17.75232512      -0.19584856      -0.19138865       0.23670916
H        8.06551258       8.68804339      16.43674765      -0.25093363       0.07114682      -0.15977342
O      -11.13641112      -0.74862291      18.53789541       0.37719736      -0.37846980       0.77422780
H      -10.73132331      -1.58416335      18.76161996      -0.13893439       0.01526314       0.00186554
H      -11.92733322      -0.93383689      18.01104313       0.04426921       0.08731838       0.27450824
O       22.58551787       4.05356884      19.00404044      -0.93229220       1.48455435      -0.30614657
H       22.23293138       3.38214058      18.33565058      -0.33590919      -0.36902813      -0.16179438
H       22.83011211       3.58382413      19.79596845       0.09139552      -0.10957103      -0.19253632
O       -4.96986926     -18.85115184      -3.87565595      -0.08047727      -0.05521678      -1.53380332
H       -4.21822571     -19.09630701      -3.25984988      -0.14545149       0.02163531       0.01859310
H       -5.04257722     -19.36668181      -4.67047638       0.03650488      -0.14625646      -0.05730732
O       27.54003477      -9.90051577      -7.16883870      -1.45335700       1.70584634      -0.19448417
H       28.42055988     -10.03872232      -6.79631617       0.34085062      -0.16112881       0.55222866
H       27.01781013     -10.64112905      -6.80094469       0.30579849      -0.07064829       0.17158976
O        7.03921291       0.39722291       5.94435758       0.56023632       0.71927333       0.28719512
H        6.74021470       0.47380073       6.92582325      -0.20782600      -0.24374671      -0.19766957
H        7.50053714      -0.43995011       5.92996704       0.09625449       0.09406958       0.48041948
O      -18.57793869      -2.01107897      24.49755792       0.05675101       0.48910339      -0.81570145
H      -18.74406593      -2.23573926      23.53448573       0.29886675       0.05167894       0.13054946
H      -17.74794708      -2.41857312      24.95616121       0.13120477       0.09510552      -0.10187398
O        4.97228849      -6.68108487      -5.57742393       0.54897481       1.00484698      -0.20722711
H        5.00886556      -5.99482194      -4.81293906      -0.01422017       0.09400618       0.01706273
H        5.45134875      -6.34995331      -6.36465832       0.28033846       0.13304436      -0.30532209
O       12.16325599       9.74490150       6.29381397       0.74839545      -1.12329902      -0.93224514
H       11.70389356      10.13573310       7.18184985      -0.40331560       0.54791001       0.20579404
H       12.13950789      10.21560285       5.43733708       0.00582758       0.03479019       0.24008760
O        4.50411959      11.84518786      -5.12764274       0.76011405      -0.48106287       0.24203794
H        3.90337493      11.78814283      -4.39525262       0.04355193       0.31718114      -0.32852284
H        4.10972209      11.21504614      -5.83170460      -0.18816176      -0.03477020      -0.04193987
O       13.15621744      28.97503909      15.89765254      -0.74622739      -0.27064159       0.63788861
H       13.69667288      28.67029024      16.68515249       0.00529511      -0.37623631      -0.41948873
H       12.28982966      29.29606201      16.20250691       0.20014683      -0.05858210      -0.18987647
O       -4.11177372       4.06829953       1.23115068       0.71126642       0.85460655       0.07613014
H       -4.61653041       4.89441054       1.18619704      -0.42976384       0.62698842      -0.29779275
H       -4.87703065       3.49918940       1.51642910      -0.16632366      -0.23142192       0.17820013
O        6.59797814     -15.81118417       8.83239872       0.28399556      -0.02694033      -0.80330136
H        5.69931560     -15.51759717       8.48692194       0.02304131      -0.20647392      -0.12024225
H        6.57742270     -16.76716537       8.87993877       0.28296281       0.05676396       0.01666521
O        1.51232972       8.68691326      22.71776062      -0.97237338      -0.49024196      -1.09034950
H        1.36472337       7.82243169      23.11563644      -0.11036771      -0.38130409      -0.33803235
H        2.04161038       8.63576242      21.89520643      -0.26639349      -0.08355059       0.27608699
O       22.81732795      22.88656787      -0.35834994      -1.52465159       0.29701326      -0.40269213
H       23.21874605      23.68465130       0.04815642       0.02836631      -0.00786330       0.29657451
H       22.22311761      22.68862732       0.38824585       0.34468303      -0.08810483      -0.03160627
O       12.02681601       6.02489954     -16.61482210       0.75554120       0.32014477       0.73545663
H       11.91242585       5.04483470     -16.72068627       0.07128569       0.22424044      -0.06096606
H       11.93145416       6.43845662     -17.58996837      -0.26232196       0.01811695      -0.31454186
O       -7.77233071      22.79361287       1.75523150      -0.19544252      -1.30431823      -0.66812564
H       -8.61973541      22.28551289       1.71585492      -0.00969048       0.04572647      -0.05749638
H       -7.76706393      23.28053927       2.48855406      -0.12294558       0.29126316       0.45141844
O        5.16185459     -15.66500966      17.46665458      -0.55016315      -0.07830937      -0.30519923
H        5.95376300     -15.94483788      17.97781646       0.07834029       0.11950285      -0.49082213
H        5.26757844     -14.73312701      17.21236427       0.26208293      -0.18964475       0.28274588
O        1.65766232      18.61011535       0.61550369      -1.51830020      -0.77311615       0.77314879
H        0.82269690      18.96117218       1.09024763       0.27844240      -0.25052779      -0.31995724
H        1.33565439      18.66391462      -0.36787287       0.18953922       0.09129275      -0.18356183
O       -4.83232102      -6.59016225       6.55432322      -1.78839150      -0.88355427       0.27032725
H       -4.48756993      -7.54012765       6.50875512      -0.17266547       0.16081843       0.05559936
H       -5.60471943      -6.59726007       6.05550645       0.09388223      -0.36057480       0.29240808
O       -3.55478084       2.31303767       8.50745192      -0.56338257       0.81949672       0.77423801
H       -2.92963106       2.62578480       9.16565897       0.00565808       0.02991060       0.08547104
H       -3.12566692       1.57317772       8.04695785       0.28694426       0.10819965      -0.40611493
O       14.34520798      -6.93328314      -2.47203850       0.57407536      -0.88974176      -0.61509560
H       13.65947334      -7.20518994      -3.19160075       0.18830234       0.12877261       0.20252476
H       14.91696131      -7.75127677      -2.35966912      -0.13258732       0.07837943       0.12857026
O       11.47723876       3.46657783      23.58296977       0.55491314      -0.56332620      -0.36844277
H       10.95025521       3.29651197      24.34032127      -0.02572829       0.11580064       0.24804246
H       12.31541698       2.82595161      23.45785896      -0.24831862       0.20184033      -0.13507915
O        7.98483338      13.74473611      25.53358726      -0.24250947       0.18414285       1.42972116
H        8.93093457      14.05422793      25.31699152      -0.44696561      -0.13544108       0.09889040
H        7.92246641      12.72992889      25.44240569      -0.15705225      -0.10534916       0.14218382
O       -9.08587103       5.77388513      11.48903711       0.83553643      -0.11405645       0.47779092
H       -7.98888009       5.34727085      11.62781019       0.59523347      -0.14772279      -0.11831398
H       -9.07288943       6.19331229      12.42920427       0.16240838      -0.28446290      -0.40295507
192
Lattice="13.060478677642553 0.0 0.0 -5.28938465506578e-07 13.060478677642553 0.0 -5.28938465506578e-07 -5.28938465506578e-07 13.060478677642553" Properties=species:S:1:pos:R:3:momenta:R:3 step=170 time_fs=17.0 phase=production pbc="T T T"
O       12.75723502      -2.79237928     -15.45144892       1.12434047       0.57473741      -0.10189954
H       12.27353656      -2.48549702     -16.22395540       0.09572765      -0.29172200      -0.28051942
H       13.30635713      -3.55209010     -15.73083292      -0.25483005      -0.11387811      -0.09453292
O       25.26766483      24.45598322       0.44399006       0.16612162       0.28544935       1.12828959
H       25.74648458      25.41780359       0.72877391       0.36045227       0.33574936       0.11679516
H       25.75821827      24.57115042      -0.47186264       0.28557391      -0.25398773       0.00672289
O        5.39956646       1.45768918       7.98369263       0.82241887      -1.09580361      -1.01174455
H        5.91855505       1.85744132       8.65857957       0.04430666      -0.26871619      -0.27416755
H        5.25651469       0.45765837       8.28474642       0.09344445      -0.18818965      -0.38810841
O       -2.98257757      -5.66180326      -1.95996169      -0.73897145      -0.17420757       0.56424105
H       -2.26472664      -5.33498952      -2.46516504      -0.38968189       0.56832496       0.26397696
H       -2.76638406      -4.67911743      -1.76734938       0.41517279       0.38106111      -0.09982692
O        3.42437280      16.36431792      10.61781495      -0.29092628       0.58341954      -0.59196775
H        3.73589976      17.09186167      11.13104575      -0.18591600       0.19917864      -0.09976834
H        3.15223511      16.32148281       9.69547026       0.27544695       0.24994567      -0.04103398
O       -2.03279587       4.35448586       2.98709494      -1.19658744      -0.33229199       0.50719669
H       -2.67705203       4.24127213       3.77298658       0.32363204      -0.28366025      -0.52216103
H       -2.54238367       4.27075864       2.14950999       0.08879748       0.07804072       0.18589102
O       23.87256303      13.34425144       7.30529251       0.56767379      -0.61822452      -0.75630710
H       24.86306781      13.32286733       7.35344640      -0.07056289      -0.09739534       0.28820125
H       23.66466292      12.87223599       6.52526246       0.09279753      -0.04692550       0.53961471
O       -0.75949257     -14.98930942       3.88207319      -0.93550026      -0.04206684      -0.00762014
H       -0.80225914     -15.71695761       3.19322625      -0.32923274       0.12504376      -0.04705948
H       -1.59641642     -14.59087305       4.13248285      -0.10806449      -0.65545526       0.11425676
O       18.46328104     -18.42650505       9.82626717       0.36877667      -0.59791437      -0.44632849
H       19.31277691     -18.72065519       9.99657248       0.24178841       0.02736323      -0.07998056
H       17.90450577     -18.75205928      10.56749801      -0.08937124       0.23036403       0.21505336
O        4.89463623     -14.18561212     -13.64563938       0.03922273      -0.07863345      -0.71722797
H        5.80618875     -13.96681980     -13.54657616       0.01804786      -0.10030853       0.06937680
H        4.73359431     -14.85228828     -12.99785926       0.53275327       0.11455019      -0.33010522
O       -4.82188182       2.27732602       4.37018597      -0.35719993       0.65373863       0.35351827
H       -4.82057151       1.93988220       3.44787331       0.16000171      -0.07940493       0.03313472
H       -5.52324638       1.84274506       4.76396655       0.07269080      -0.15466930       0.18470113
O       -5.87784475      15.26464568      27.65575492      -0.22145108      -0.35701868      -0.69769407
H       -6.75010373      15.57169623      27.44618863      -0.31620649       0.64334185      -0.29375348
H       -5.52067212      14.52013901      26.95278381       0.11116797      -0.44463220      -0.20222889
O        7.55096904     -15.48877643      -6.75537811       1.03189796       1.08995524       1.87369859
H        7.88631528     -16.33989741      -7.01031941      -0.11814154       0.00877488       0.02431733
H        7.03396219     -15.42674894      -5.78168266       0.14520935       0.08323866      -0.21930716
O       15.43928075       7.49108586      20.54824352      -0.25875928       0.79750967       0.11522000
H       14.80973574       6.82502223      20.18393155       0.26583522      -0.25096632      -0.01467197
H       16.42884633       7.21453628      20.64046329       0.25370192      -0.21370330      -0.02010380
O       -0.28309142       1.09203217       1.01320653      -0.94964392       0.10731577       0.27677713
H       -0.08319655       1.66880863       1.74558226       0.13263935       0.43340684      -0.25538637
H        0.27317146       1.39326681       0.29860920       0.13609431       0.25002373       0.09557724
O      -16.10978142      12.58366528      17.77723845       0.34399614      -0.07719043       0.64565315
H      -16.38242807      13.02263206      17.04350813       0.27294956       0.00464057      -0.12750062
H      -16.71482801      11.91068068      17.93114703       0.07837566       0.05697737      -0.20109961
O      -17.69457543       6.30708598      12.94582097       2.08699926       0.77865614       0.59442767
H      -18.32698085       5.83791227      12.44076235      -0.28099129      -0.09008666      -0.78281120
H      -17.32328398       7.07788753      12.45910287      -0.24801011       0.20477989      -0.23892354
O       -9.98863995      34.28821261     -11.50105235      -0.16203049       1.20605259      -0.45365690
H       -9.43829546      33.90260592     -10.91628496       0.32531889      -0.08544969       0.40690501
H      -10.09968597      33.37694714     -11.62433621       0.03229132      -0.32006017      -0.38924212
O       36.58461935      10.90482890      21.70169356       0.56689391       0.53844552      -1.19102595
H       36.60507058      11.77127179      21.31729006       0.00186822       0.06136943       0.11214497
H       35.76280968      10.85820518      22.10817947       0.28155159      -0.14616257       0.12838241
O       30.55218708     -10.95012089       2.34501421       0.43168053       0.90373933      -0.06337060
H       30.35169619     -11.50448982       3.10162483      -0.32115275       0.10749512      -0.66291252
H       30.15528706     -11.34448159       1.49720767       0.25915015      -0.14426445       0.07517170
O       16.34896764       9.70716806      -6.89866756      -0.45365393      -0.55595278       0.10950831
H       16.79941220       9.64499962      -7.76830117       0.29086432      -0.23832257      -0.15686810
H       15.95752751       8.84514405      -6.68142497       0.00233106      -0.20037772      -0.17443500
O       -9.23294171       3.46484838      33.45770831       0.19189076      -0.72307999       0.01141120
H       -9.00193745       4.38070137      33.59316286      -0.05505726       0.36315841       0.16493024
H       -8.60035780       2.90539236      33.88673686       0.14450132      -0.01423699      -0.06700531
O        3.32774652       1.19598701       0.11270738       1.44269392       0.57820657      -0.44275968
H        3.22121027       1.86240404      -0.53920121       0.11546118      -0.26299652       0.26857901
H        3.71024977       0.41350589      -0.28526051      -0.12889620       0.05074649       0.24688655
O       23.42655100       1.95549611      12.98498780      -1.08169489      -0.38027061      -0.46071419
H       23.39209856       2.81549954      13.43460107       0.16983138       0.38295524      -0.00005479
H       24.11294939       1.37734008      13.38558240       0.10753534      -0.08633172       0.34933108
O        0.05816069      32.50068262      15.75434161      -0.10786161       0.48231170       1.45281564
H       -0.53831344      31.77311618      15.51213033      -0.34738194      -0.40378268       0.00030781
H       -0.13307715      33.20846425      15.06602876      -0.03995575      -0.45935172       0.04128748
O        5.99667698      20.23021594       5.09325828      -0.52427356      -0.37269165       1.24804394
H        5.19129661      19.91653968       4.57117100      -0.55504390      -0.21429991      -0.04019340
H        6.57532308      20.77165144       4.66409158       0.26145206      -0.07579350      -0.06605791
O       -9.67803018      10.98102774      10.46283052      -1.15824403       1.28090824       0.42807233
H      -10.20945358      10.14585090      10.41335502       0.06290299      -0.00164814       0.06567501
H       -9.14391066      10.95551443      11.34119091       0.29260524      -0.00688574       0.61565814
O       17.17022956      17.96136694      28.05671266      -0.30280005      -0.35122302      -1.06157446
H       17.54840661      16.99997463      28.15086040      -0.19624461       0.18030373      -0.12581113
H       16.25062875      17.85230797      27.78129349       0.04303135      -0.45178736       0.19357016
O        6.74213056      18.37060426      10.92999485       0.54991251      -0.55164087       0.19586483
H        7.23778923      18.79288788      10.23399869      -0.21355884      -0.17976968       0.42017117
H        6.56543450      17.48543665      10.61959190      -0.00242470      -0.29151231      -0.09933034
O        1.02329777     -13.61953043      10.41223349      -0.44547852      -0.41045959      -0.19080158
H        0.22773473     -14.11451439      10.66656017       0.37626605       0.27352686      -0.03317190
H        1.80971520     -14.31074306      10.60602166      -0.21299169      -0.23754193       0.31067868
O        0.01445897       9.14546667       1.93664212      -0.53362056      -0.42260244       0.77499598
H        0.92365028       8.92960356       2.01607563       0.06776992       0.15282461       0.20270271
H       -0.19063358       9.84090228       1.15313997       0.17363086      -0.03479306       0.31989247
O        0.50981619       0.61590312       7.83417259       0.67395937      -0.82197051       0.60663497
H        0.92590654       0.29647536       7.08975082      -0.26588143       0.06272803       0.28491139
H        0.90260032       0.15187211       8.60643939       0.19934563       0.14360613      -0.12055866
O      -18.80577526      28.96970274     -15.94919545       0.44556710       1.41201081       0.06278777
H      -18.01845609      28.81122134     -16.41196537       0.41998800       0.06668866      -0.41452079
H      -18.53424523      28.48178628     -15.14277743       0.00285324       0.15962589      -0.07733488
O        4.63193759      26.36926032      -8.24948656       1.02429778      -0.55691933       0.22974026
H        5.26125789      27.00614990      -7.86084042      -0.42296303      -0.13472814      -0.16125154
H        3.70208983      26.64791769      -8.14801390      -0.38799276       0.32098890      -0.13685186
O      -18.28340288      21.49021646       1.45383924      -1.79704949      -1.25245834      -0.70079055
H      -18.01037622      20.66622336       1.07094520       0.36602921       0.17090174      -0.01694486
H      -19.09448056      21.95438793       1.19862817       0.32252665       0.24425758       0.25292517
O       11.43029482      20.27828084       6.90836313      -0.27514458       0.11035861      -0.07588312
H       11.75599719      21.21969005       6.77340578      -0.10234335      -0.36251310       0.16522209
H       10.47368385      20.14697642       6.67573427       0.68316923       0.26836579       0.05982146
O       -9.49578212      -6.81388809       4.30517730      -0.46782647      -0.43246329       0.28825789
H       -9.02440066      -7.61231100       3.74295455      -0.00123516      -0.13334595      -0.18637239
H      -10.06879446      -7.30324785       4.84529927       0.41293635       0.13718916       0.20301666
O      -25.48934800       1.96707082      11.28482064      -0.07434996      -0.81571197       0.26886150
H      -25.57593008       1.26986428      10.73643279      -0.13127998      -0.14895918      -0.53947657
H      -24.37878363       2.27151885      11.20059731      -0.28457804      -0.20751529       0.31522457
O      -12.47380800      -7.49577753      19.40330867      -0.05621678      -0.92865835      -0.51823119
H      -12.00059593      -8.22554477      19.02969896       0.33961246       0.24658716       0.44713679
H      -12.88305394      -6.89904039      18.81496375       0.07025180       0.04045892       0.19060959
O        8.08466391       8.65845238      17.39041143      -0.56159370       1.37443175      -0.32843979
H        8.58241334       7.94072958      17.77498527      -0.13471710      -0.28941967       0.22753428
H        8.04262944       8.69176843      16.42036586      -0.20701555       0.01106931      -0.13417537
O      -11.13369980      -0.75059181      18.54171111       0.33732480      -0.26637486       0.77943895
H      -10.74155964      -1.58827034      18.76192829      -0.07755949      -0.10865698       0.02667839
H      -11.92296601      -0.92546253      18.03618873       0.01575367       0.08117404       0.24906102
O       22.57838341       4.06244029      19.00072313      -1.02564866       1.45777775      -0.46303074
H       22.20202163       3.35383482      18.32629749      -0.26863121      -0.19670662      -0.00266362
H       22.83897989       3.56960330      19.78040394       0.11264002      -0.17221992      -0.11458336
O       -4.96982642     -18.85058047      -3.88425353       0.00561984      -0.06643520      -1.34395900
H       -4.23861477     -19.09068647      -3.26542679      -0.26957948       0.07072607      -0.13108960
H       -5.03569375     -19.38192937      -4.67880326       0.10015899      -0.18172228      -0.11114028
O       27.52996939      -9.89011645      -7.16942120      -1.32993990       1.51453433      -0.09286099
H       28.45142405     -10.04994014      -6.74287858       0.28100605      -0.07046907       0.51874617
H       27.04607191     -10.64330261      -6.78574249       0.29709061       0.01320937       0.13256906
O        7.04193482       0.40181404       5.94656017       0.44561001       0.77711381       0.51729809
H        6.71985672       0.45146819       6.89580680      -0.20703015      -0.20911428      -0.39744919
H        7.51117507      -0.43465633       5.97567521       0.13150107       0.01269286       0.45927177
O      -18.57613457      -2.00832163      24.49110653       0.23136394       0.38452261      -0.85545373
H      -18.71054934      -2.22910914      23.55722959       0.36166325       0.07573090       0.32472775
H      -17.74552596      -2.40446407      24.93666333      -0.09391944       0.18807323      -0.26532247
O        4.97561594      -6.67372733      -5.57827409       0.62578682       1.28800712      -0.17763402
H        5.01021952      -5.99561458      -4.82061003       0.05028965      -0.11591587      -0.17745913
H        5.47291879      -6.33912463      -6.38593290       0.15802567       0.07592217      -0.12059808
O       12.16696066       9.73798935       6.28832407       0.65663227      -0.98359228      -0.72708079
H       11.66957792      10.18391832       7.18944325      -0.29091463       0.45019328      -0.03652252
H       12.13910184      10.21739434       5.46372572      -0.00155070       0.02750138       0.27606547
O        4.50849407      11.84107735      -5.12670138       0.75718123      -0.66472163      -0.04285751
H        3.90395743      11.81836329      -4.42134915      -0.04797809       0.31570050      -0.18585064
H        4.09685935      11.21920963      -5.82805419      -0.06953045       0.13093605       0.10898796
O       13.15149307      28.97189808      15.90129671      -0.56064037      -0.28070350       0.77011107
H       13.68987604      28.63444877      16.63598203      -0.11319128      -0.33983920      -0.54460749
H       12.30750169      29.28964383      16.18390670       0.13997537      -0.02991941      -0.16266965
O       -4.10798086       4.07348543       1.23171288       0.41867321       0.92737981       0.13061677
H       -4.65187778       4.95298542       1.15461293      -0.27669951       0.53556759      -0.34405499
H       -4.88376618       3.48041959       1.53119300       0.03988506      -0.13087341       0.11886349
O        6.59878406     -15.81031134       8.82696050       0.09452880       0.05515040      -0.82292967
H        5.70784529     -15.53739873       8.47949786       0.14903626      -0.21265090      -0.02636444
H        6.60573467     -16.76258985       8.88256095       0.30464528       0.01492464       0.04630026
O        1.50644190       8.68323386      22.70995330      -0.94969201      -0.57932779      -1.03779546
H        1.35401408       7.78590119      23.08089616      -0.10685478      -0.34490729      -0.35365312
H        2.01351898       8.62542674      21.92045330      -0.27873682      -0.11937324       0.22057011
O       22.80687014      22.88777096      -0.36056049      -1.49043204       0.48097331      -0.33916258
H       23.22139151      23.67778949       0.07283226       0.04534888      -0.11509713       0.20511027
H       22.25321850      22.67504832       0.38572650       0.28034474      -0.17197099      -0.00077214
O       12.03077348       6.02633498     -16.61040465       0.73269662       0.27540170       0.44102921
H       11.91885386       5.07490098     -16.72371008       0.06886284       0.36496883      -0.02198751
H       11.90489203       6.43519493     -17.60886415      -0.26846608      -0.07474107      -0.09654269
O       -7.77323984      22.78358804       1.74989699      -0.22146403      -1.52798388      -0.95899201
H       -8.61650136      22.29203492       1.70921498       0.06538312       0.11086924      -0.07253424
H       -7.77860637      23.31954429       2.55252754      -0.12652065       0.47100157       0.77599462
O        5.15863995     -15.66464911      17.46400459      -0.43387985      -0.07873843      -0.27936086
H        5.95638735     -15.93171917      17.92626657       0.00756790       0.11388050      -0.52871729
H        5.28982909     -14.75262773      17.24035017       0.19665082      -0.18755049       0.29668738
O        1.64742064      18.60466811       0.61963178      -1.73841007      -0.71830387       0.55601724
H        0.85980851      18.93091746       1.05553311       0.42833253      -0.32678072      -0.35310344
H        1.35938355      18.67093305      -0.37272523       0.29851492       0.07073940       0.07251102
O       -4.84200083      -6.59584458       6.55630053      -1.44139162      -1.04893937       0.48789838
H       -4.50432350      -7.51755008       6.51395527      -0.16337755       0.26851064       0.05759590
H       -5.61124116      -6.63144442       6.07535684      -0.24764494      -0.34775979       0.11367328
O       -3.55817006       2.31785048       8.51173356      -0.58250084       0.77622146       0.75704622
H       -2.92713826       2.63015036       9.17471334       0.03654129       0.05850263       0.10303019
H       -3.10021055       1.58748578       8.00968455       0.22087179       0.20397475      -0.33754288
O       14.34792774      -6.93915181      -2.47615669       0.54385514      -1.10209735      -0.75149548
H       13.68451083      -7.18899030      -3.16245931       0.31708580       0.19155610       0.37036226
H       14.89676545      -7.73272568      -2.34902494      -0.24245308       0.26526122       0.09521036
O       11.48090162       3.46258148      23.57895045       0.79862142      -0.68646976      -0.52308463
H       10.94564300       3.30563425      24.36685162      -0.03173832       0.08016476       0.28681443
H       12.28085786       2.85301215      23.44893564      -0.44938977       0.35463353      -0.02301254
O        7.98353002      13.74454608      25.54077846      -0.09860894      -0.03204437       1.33733762
H        8.87660533      14.03594361      25.32950485      -0.60937818      -0.20858559       0.17132369
H        7.90899828      12.73368434      25.45547151      -0.11188064       0.18613721       0.15222605
O       -9.07922247       5.77293201      11.49259382       1.19258982      -0.13974760       0.78607123
H       -7.94478800       5.34104761      11.61324811       0.28591727       0.02721528      -0.16777747
H       -9.05746390       6.15599594      12.37271685       0.14463135      -0.43841039      -0.66218435
192
Lattice="13.05978749201872 0.0 0.0 -5.289104730667697e-07 13.05978749201872 0.0 -5.289104730667697e-07 -5.289104730667697e-07 13.05978749201872" Properties=species:S:1:pos:R:3:momenta:R:3 step=180 time_fs=18.0 phase=production pbc="T T T"
O       12.76357376      -2.78889000     -15.45151874       1.14782791       0.52319170      -0.20312662
H       12.27919838      -2.51346785     -16.25035724       0.03990477      -0.28451593      -0.26406266
H       13.27913084      -3.56056025     -15.73756356      -0.28111626      -0.07093815      -0.05874672
O       25.26834860      24.45694384       0.44990527       0.49592873       0.44671491       0.80287293
H       25.77547141      25.44627632       0.74224528       0.26202470       0.27359032       0.15694776
H       25.77357769      24.53922216      -0.45520493       0.05454323      -0.37073764       0.34053112
O        5.40397876       1.44977866       7.97668988       0.69823755      -1.46315933      -1.14471865
H        5.92975236       1.83390991       8.64017816       0.20158449      -0.20473605      -0.08254061
H        5.26565839       0.44979084       8.24296732       0.09975896       0.02843440      -0.45868214
O       -2.98728211      -5.66193757      -1.95605521      -0.85441774       0.01650001       0.67765444
H       -2.30036486      -5.27106494      -2.43664440      -0.33558103       0.74679997       0.31604431
H       -2.72438077      -4.66110759      -1.78569868       0.44461362      -0.01009294      -0.27891475
O        3.42200666      16.36650896      10.61367739      -0.41176500       0.42137694      -0.55992937
H        3.71913889      17.11491956      11.11811732      -0.15542991       0.28500392      -0.15477411
H        3.18236823      16.34879897       9.69275588       0.34211065       0.32634688      -0.01632606
O       -2.04047758       4.35211753       2.99029798      -1.27636302      -0.35204960       0.55661235
H       -2.63798514       4.21431738       3.71406069       0.42681883      -0.27301339      -0.61428689
H       -2.53397140       4.27897205       2.17065540       0.06516876       0.09258859       0.21200249
O       23.87556176      13.33987734       7.30112728       0.81819959      -0.55535418      -0.44453714
H       24.85341424      13.31607840       7.38406944      -0.08936048      -0.02741079       0.34859559
H       23.66565862      12.85952237       6.56177069      -0.05617481      -0.22181750       0.18621960
O       -0.76503887     -14.98934441       3.88150468      -0.87137079      -0.22592846      -0.10949201
H       -0.83391765     -15.69653008       3.19533022      -0.31766160       0.26570327       0.08438803
H       -1.60982791     -14.65396128       4.14199976      -0.18650902      -0.64409879       0.09471044
O       18.46337011     -18.42908309       9.82321960       0.01861266      -0.57686413      -0.36220241
H       19.35283373     -18.72078222       9.98934991       0.54676429      -0.03578849      -0.06347601
H       17.89578970     -18.72524901      10.58241711      -0.05398719       0.30067364       0.09150844
O        4.89431149     -14.18479021     -13.64985047      -0.04367718       0.12297607      -0.90118190
H        5.81752482     -13.97289474     -13.54134006       0.20929632      -0.04019289       0.02205338
H        4.77953259     -14.85378755     -13.01947934       0.41179790      -0.17955018      -0.11176069
O       -4.82317473       2.28141206       4.37122082      -0.17641158       0.69833529       0.07467873
H       -4.80291158       1.93376418       3.45349621       0.19405932      -0.04425093       0.08847016
H       -5.53061259       1.81794808       4.79234248      -0.19915173      -0.33365668       0.38244448
O       -5.87891800      15.26106298      27.64954901      -0.29433430      -0.51620856      -0.86092954
H       -6.77625025      15.63196360      27.41690271      -0.16322256       0.58286850      -0.26059321
H       -5.51441393      14.48507707      26.93995468       0.01181024      -0.25989196      -0.03161341
O        7.55655261     -15.48089842      -6.74287705       0.91866263       1.20421948       2.08211280
H        7.87315458     -16.33958972      -7.00770520      -0.14540951      -0.01500080       0.02304854
H        7.05676888     -15.42095931      -5.81778066       0.32674543       0.01704295      -0.52239374
O       15.43730514       7.49515104      20.54771636      -0.10913200       0.65163134       0.06886198
H       14.84109502       6.80574441      20.18342117       0.38638711      -0.13869184       0.02468665
H       16.43627350       7.19503824      20.63457393      -0.08433675      -0.17370375      -0.07738618
O       -0.28919721       1.09234085       1.01477344      -1.02312771       0.03303748       0.24177142
H       -0.07067554       1.71052110       1.72394472       0.12004864       0.41530442      -0.19472283
H        0.28996592       1.41830528       0.30238479       0.19217609       0.25349359      -0.00027730
O      -16.10556249      12.58244628      17.78127836       0.71676811      -0.09098678       0.93228736
H      -16.36061678      13.04143374      17.00528916       0.17553652       0.35609636      -0.58159101
H      -16.72084636      11.89677570      17.91962495      -0.20123413      -0.30305577      -0.02815282
O      -17.68067121       6.31189205      12.94885017       2.08330802       0.86454560       0.56003440
H      -18.35492381       5.82905427      12.36234137      -0.25468381      -0.04344824      -0.76480813
H      -17.34739919       7.09096428      12.43671529      -0.26856596       0.06240185      -0.20067875
O       -9.98949385      34.29454043     -11.50369192      -0.26120389       1.36690883      -0.57786117
H       -9.40311158      33.88387822     -10.87061506       0.35647855      -0.23709182       0.48693804
H      -10.09277140      33.34057787     -11.66020709       0.10223534      -0.33586692      -0.35533205
O       36.58712577      10.90714013      21.69288361       0.86828249       0.41248631      -1.30519614
H       36.60617057      11.78778999      21.32159927       0.05876445       0.27880384       0.00526354
H       35.77092921      10.83987365      22.12947179      -0.06145325      -0.21642032       0.32678145
O       30.55306657     -10.94390647       2.34364758       0.39828470       0.96185169      -0.37185946
H       30.31696929     -11.49728052       3.04219625      -0.36923259      -0.00242042      -0.49993019
H       30.18423852     -11.35326929       1.51593618       0.36073441      -0.04961990       0.28489771
O       16.34547875       9.70310464      -6.89803227      -0.39435153      -0.61120368      -0.03893327
H       16.82483934       9.62169869      -7.77531768       0.23696313      -0.22686235       0.02325590
H       15.95807645       8.82689644      -6.69762209       0.02890103      -0.15543928      -0.16682669
O       -9.23168813       3.46038993      33.45578482       0.07356228      -0.63283950      -0.05073443
H       -9.00660345       4.41584669      33.60822166      -0.05853214       0.31627402       0.17504290
H       -8.58259869       2.90297609      33.87973449       0.20297560      -0.02216876      -0.04448419
O        3.33620604       1.19903072       0.11048353       1.36696683       0.42799343      -0.24718532
H        3.23005715       1.84948399      -0.52368210       0.06542693       0.02310407       0.02575340
H        3.70142521       0.41147576      -0.26230907      -0.04041235      -0.10810329       0.21605043
O       23.41896873       1.95294902      12.98181531      -0.96780571      -0.40092583      -0.32347376
H       23.40702824       2.84618535      13.43136720       0.16017034       0.22194176      -0.06414587
H       24.11660642       1.37609179      13.41568726      -0.02223087       0.07541357       0.27036510
O        0.05699895      32.50182885      15.76156725      -0.28832561       0.39691491       1.18571868
H       -0.56766856      31.73906221      15.51573765      -0.23201719      -0.23266480       0.10151333
H       -0.13536430      33.15670045      15.07837164      -0.01170677      -0.54431020       0.20475596
O        5.99192985      20.22591526       5.10084717      -0.89693777      -0.65731853       1.29023288
H        5.14603219      19.89955207       4.57232186      -0.35856791      -0.10885592       0.07041603
H        6.61053695      20.77443422       4.64902865       0.43821811       0.12899009      -0.21781881
O       -9.68461050      10.98787485      10.46553396      -1.15235428       1.14424117       0.62870909
H      -10.19595295      10.15348306      10.42088759       0.19837407       0.16326930       0.10048015
H       -9.12191644      10.95438714      11.38949410       0.14904776      -0.00663137       0.38894146
O       17.16778450      17.95734398      28.04892130      -0.19497303      -0.63380223      -0.99212428
H       17.52302687      17.02936390      28.13598426      -0.28942035       0.42216178      -0.14499277
H       16.25329372      17.80905084      27.79831567       0.01229887      -0.41254562       0.18115628
O        6.74472221      18.36594691      10.93112679       0.38436114      -0.69598726       0.38270004
H        7.22274465      18.77992743      10.26672010      -0.06610282      -0.04637149       0.23202112
H        6.56610462      17.45317601      10.61004285       0.02710390      -0.32180767      -0.07561546
O        1.02125988     -13.62170063      10.41060310      -0.14512244      -0.50576089      -0.17457255
H        0.26131180     -14.08968253      10.66262825       0.25237381       0.18801841      -0.01863975
H        1.78224165     -14.32299600      10.63210064      -0.34352008      -0.02672063       0.23329873
O        0.01043860       9.14311747       1.94075975      -0.75449427      -0.18733852       0.60053455
H        0.93589343       8.94456415       2.03410055       0.16591552       0.16879279       0.16825849
H       -0.16979160       9.82960166       1.19441278       0.25221326      -0.18698086       0.52732505
O        0.51323824       0.61109698       7.83887773       0.43887416      -0.72037847       1.05775975
H        0.91049950       0.29444141       7.09401451      -0.04582461      -0.10810981      -0.20232512
H        0.92005795       0.16746965       8.59665961       0.16709057       0.16812414      -0.05611237
O      -18.80223873      28.97676245     -15.94744563       0.45024750       1.37938041       0.17518384
H      -17.96690251      28.81610674     -16.46185398       0.54469416       0.07856508      -0.58100964
H      -18.53720328      28.49652322     -15.14896606      -0.07874043       0.16599753      -0.05440868
O        4.63742461      26.36463449      -8.24760527       0.77920216      -0.52038002       0.22282455
H        5.21789233      26.98889711      -7.87675857      -0.42428172      -0.15310114      -0.15270467
H        3.67661889      26.67456461      -8.16132958      -0.10523331       0.24286214      -0.14876400
O      -18.29330762      21.48176309       1.44959564      -1.71300900      -1.14400103      -0.64498259
H      -17.97524343      20.67867152       1.06573715       0.33397739       0.10435367      -0.09285053
H      -19.06365009      21.97481523       1.22242648       0.26123748       0.21333471       0.22291324
O       11.42806434      20.27811803       6.90756009      -0.17242169       0.16227806      -0.04008139
H       11.74210704      21.17656572       6.79018757      -0.14721239      -0.45361092       0.18111990
H       10.54274139      20.17355658       6.68217649       0.64087699       0.28002225       0.05521413
O       -9.49701349      -6.81637852       4.30566047      -0.09957574      -0.49289811      -0.06123124
H       -9.03023847      -7.61381584       3.72752406      -0.12847844       0.09219196      -0.12522486
H      -10.04030116      -7.29684900       4.87743163       0.15977762      -0.01709384       0.46428902
O      -25.48740113       1.96343558      11.28658532       0.24302045      -0.42503479       0.43880674
H      -25.58827399       1.23633387      10.66962761      -0.13919435      -0.45138122      -0.75292291
H      -24.42000876       2.24733001      11.23064704      -0.57322573      -0.28366782       0.31261382
O      -12.47327000      -7.50106699      19.40002367       0.00293447      -0.90785087      -0.20802231
H      -11.96466463      -8.20225148      19.06730563       0.39576800       0.20736060       0.33501127
H      -12.87926713      -6.88968893      18.82411530      -0.00483029       0.14160628       0.01764450
O        8.08069381       8.66652019      17.38750219      -0.57595199       1.38237447      -0.31518344
H        8.56686230       7.91429306      17.79158219      -0.18983871      -0.22176061       0.11994688
H        8.02479845       8.68898229      16.41259895      -0.14885004      -0.05909205       0.00410358
O      -11.13096294      -0.75182408      18.54564332       0.37344399      -0.15819810       0.82685822
H      -10.74541329      -1.60483500      18.76485547      -0.01857099      -0.22226755       0.05069175
H      -11.92535301      -0.91829117      18.05629349      -0.08277935       0.06368417       0.18029148
O       22.57061195       4.07089922      18.99651919      -1.11317024       1.35532496      -0.56438922
H       22.17898798       3.34466877      18.33402460      -0.17860466       0.01539424       0.18215574
H       22.84904785       3.55171059      19.76913867       0.11416556      -0.17956349      -0.11016816
O       -4.96945748     -18.85001505      -3.89200370       0.00812902      -0.07241209      -1.27421718
H       -4.26770014     -19.08157542      -3.28286119      -0.31154589       0.08825136      -0.21194945
H       -5.02251040     -19.39897591      -4.69002543       0.16431504      -0.18301739      -0.11570869
O       27.52108993      -9.88084909      -7.16918571      -1.08780704       1.34609731       0.03891262
H       28.47027774     -10.05070924      -6.69572768       0.14557467       0.04338263       0.44423737
H       27.07147762     -10.63866275      -6.77411545       0.24440777       0.05998090       0.10256196
O        7.04409638       0.40658752       5.94984724       0.39873173       0.76918186       0.62527742
H        6.69772705       0.43388368       6.85231102      -0.25189135      -0.14728647      -0.45298994
H        7.52504338      -0.43650674       6.01816099       0.15641261      -0.04085140       0.41614218
O      -18.57319213      -2.00599495      24.48500058       0.39824298       0.35533767      -0.67247387
H      -18.67333902      -2.22254853      23.58613397       0.37268629       0.04611763       0.24076367
H      -17.76225637      -2.38277196      24.90383594      -0.24924513       0.24605865      -0.36629601
O        4.97948811      -6.66464383      -5.57916330       0.71812878       1.53761638      -0.22104258
H        5.01832093      -6.01551325      -4.84547432       0.12087732      -0.28193055      -0.31918930
H        5.48103445      -6.33491112      -6.38634283       0.01710946       0.00490341       0.10255105
O       12.17001905       9.73165813       6.28462566       0.54525903      -0.92182825      -0.34403358
H       11.64638749      10.22168509       7.17389946      -0.16934521       0.33180298      -0.27578394
H       12.13792138      10.22284509       5.48489775      -0.00959430       0.10700059       0.14285766
O        4.51306990      11.83583358      -5.12770073       0.81135501      -0.83123767      -0.35259246
H        3.89191944      11.84868008      -4.42891255      -0.18961923       0.32030425       0.01980251
H        4.09564661      11.23865161      -5.81084476       0.04431378       0.27088353       0.22690652
O       13.14802942      28.96867766      15.90497462      -0.35084559      -0.25595028       0.66519865
H       13.67764553      28.59826934      16.58369613      -0.09866239      -0.38876619      -0.47694075
H       12.31062651      29.28912172      16.17090819      -0.07584519       0.05543760      -0.08150322
O       -4.10635366       4.07924848       1.23266154       0.04650367       1.00593947       0.20123800
H       -4.66932708       4.99538366       1.11987268      -0.09442297       0.34245393      -0.36413094
H       -4.86680563       3.47644286       1.53824794       0.30575118       0.06304204       0.02370349
O        6.59863008     -15.80890575       8.82140447      -0.01071093       0.12304239      -0.83244418
H        5.72526892     -15.55653254       8.47967545       0.19730878      -0.19083191       0.02959176
H        6.63604968     -16.76278691       8.88799377       0.32410433      -0.03453724       0.07421978
O        1.50020914       8.67879732      22.70312652      -1.07134629      -0.72216366      -0.77160296
H        1.34387946       7.75670157      23.04424888      -0.09927537      -0.23719834      -0.37239337
H        1.99207040       8.61171658      21.92854743      -0.14212142      -0.15132689      -0.05520638
O       22.79681293      22.89018843      -0.36262767      -1.39063758       0.70046194      -0.34688925
H       23.22469499      23.65942788       0.08771703       0.04716370      -0.23308407       0.10125633
H       22.27339766      22.65206674       0.39070284       0.15373387      -0.27676756       0.10915673
O       12.03461131       6.02813875     -16.60760380       0.72815459       0.45731307       0.19058131
H       11.92376851       5.10723682     -16.72406663       0.04092827       0.25962338      -0.00700304
H       11.87839116       6.42384212     -17.60745892      -0.25977125      -0.14799686       0.10562197
O       -7.77422388      22.77317663       1.74421450      -0.22577063      -1.43274857      -0.81488455
H       -8.60649891      22.30470208       1.70202759       0.11795581       0.16513132      -0.07473323
H       -7.79139193      23.35879625       2.62358944      -0.14290073       0.32755400       0.63938571
O        5.15570863     -15.66453494      17.46131773      -0.45197984      -0.16136532      -0.30383186
H        5.96008701     -15.92449907      17.87662981       0.09891025       0.00380086      -0.45660721
H        5.30489009     -14.76157860      17.26661477       0.11661158       0.01131070       0.25653754
O        1.63695455      18.59906339       0.62183800      -1.58160807      -0.80921710       0.14604759
H        0.89264653      18.90131344       1.03000192       0.18513032      -0.23408099      -0.13179455
H        1.39391741      18.67550351      -0.35544261       0.41152713       0.04243792       0.27135184
O       -4.84974859      -6.60196185       6.55958683      -1.20358448      -1.02457033       0.68040774
H       -4.51635433      -7.49328526       6.51905335      -0.07508019       0.18781604       0.05244077
H       -5.65115198      -6.66445059       6.07800159      -0.55202942      -0.33620593      -0.03646670
O       -3.56140329       2.32228437       8.51588181      -0.52107367       0.70818871       0.74312555
H       -2.92344880       2.63618665       9.18354502       0.02983492       0.06477142       0.08245585
H       -3.08355683       1.61450513       7.98175773       0.11537724       0.35529092      -0.22413272
O       14.35044479      -6.94554310      -2.48070848       0.53244704      -1.04655208      -0.74219389
H       13.71299858      -7.16870054      -3.12575870       0.23727614       0.20601776       0.33621457
H       14.87419728      -7.70621366      -2.33889203      -0.17047361       0.22719005       0.12171530
O       11.48534031       3.45795718      23.57446837       0.78026970      -0.72313942      -0.50500983
H       10.94672162       3.31245478      24.38855771       0.07679763       0.06581018       0.16842772
H       12.23037399       2.89143774      23.45017206      -0.52285319       0.39744411       0.06349379
O        7.98198906      13.74277481      25.54752903      -0.33283718      -0.31125717       1.31552650
H        8.82497317      14.01715719      25.34442232      -0.36731934      -0.13319013       0.14536539
H        7.89929509      12.76190701      25.46958692      -0.08365396       0.38137540       0.16601695
O       -9.07023483       5.77100950      11.49617161       1.58043968      -0.42697536       0.47770699
H       -7.93331154       5.35139575      11.59354363      -0.05691452       0.18514348      -0.22811443
H       -9.04444361       6.11706833      12.32057358       0.10692115      -0.30633315      -0.28900365
192
Lattice="13.05909152880403 0.0 0.0 -5.288822871385268e-07 13.05909152880403 0.0 -5.288822871385268e-07 -5.288822871385268e-07 13.05909152880403" Properties=species:S:1:pos:R:3:momenta:R:3 step=190 time_fs=19.0 phase=production pbc="T T T"
O       12.76981253      -2.78553078     -15.45247646       1.09362020       0.53294521      -0.38838812
H       12.28109029      -2.54047037     -16.27097002       0.01675088      -0.27035359      -0.16503202
H       13.25198803      -3.56731664     -15.74048729      -0.25186685      -0.08229688      -0.01886753
O       25.27106192      24.45889052       0.45389865       0.81249673       0.61580464       0.53909670
H       25.79437842      25.46704908       0.75836403       0.15068149       0.17117870       0.16973953
H       25.76672232      24.49722984      -0.40640449      -0.14959494      -0.45856955       0.63021699
O        5.40759646       1.43962106       7.96880653       0.58861927      -1.80251617      -1.27142100
H        5.95675473       1.81701945       8.64081755       0.34527695      -0.14986072       0.08719918
H        5.27537009       0.46289364       8.19495602       0.10480848       0.23388715      -0.51332588
O       -2.99279085      -5.66113350      -1.95144093      -0.98730571       0.14775171       0.78764538
H       -2.32339339      -5.19629777      -2.41238284      -0.10073579       0.72236700       0.11482641
H       -2.68529413      -4.67129819      -1.81238851       0.31148598      -0.14599621      -0.20337300
O        3.41906355      16.36787970      10.60998266      -0.47946456       0.31990609      -0.44654175
H        3.70474096      17.14373020      11.09922688      -0.13912456       0.31429393      -0.22354897
H        3.21778526      16.38296402       9.68887225       0.38485878       0.39067155      -0.06356682
O       -2.04741091       4.34989839       2.99308934      -0.96561150      -0.27954486       0.36812143
H       -2.60447513       4.18497800       3.66830686       0.21341424      -0.33949031      -0.25719266
H       -2.53214631       4.28800202       2.18350613      -0.04062583       0.09663349       0.02800344
O       23.87994662      13.33610137       7.29910930       1.00729047      -0.45169635      -0.10724716
H       24.84476882      13.31591600       7.42036688      -0.05550950       0.03635450       0.40119117
H       23.65108450      12.82675281       6.56020945      -0.20739068      -0.42258348      -0.18641283
O       -0.77002455     -14.99033910       3.88043755      -0.76697806      -0.33552752      -0.15134192
H       -0.86334367     -15.66729410       3.20591516      -0.28417810       0.29081023       0.11141434
H       -1.63483708     -14.71308273       4.15210189      -0.33132965      -0.57930935       0.12295555
O       18.46219571     -18.43184552       9.82089972      -0.02820597      -0.65623350      -0.22054250
H       19.40478867     -18.72232963       9.98175034       0.48292563      -0.00120327      -0.08825862
H       17.89455423     -18.69167648      10.58292734       0.05456835       0.36501851      -0.07003667
O        4.89385528     -14.18257259     -13.65513978       0.00521093       0.33436159      -1.03004776
H        5.84181191     -13.97392692     -13.54125323       0.26560519      -0.00182075      -0.03773187
H        4.81379393     -14.88475760     -13.01911213       0.30207334      -0.44532971       0.08113861
O       -4.82403905       2.28534382       4.37097183      -0.23144215       0.59562916      -0.04713516
H       -4.78294337       1.93092352       3.46510862       0.20692351      -0.01304306       0.15405266
H       -5.55282388       1.78295936       4.83207796      -0.21501046      -0.35228042       0.40467967
O       -5.88130343      15.25695249      27.64211182      -0.59760489      -0.54468961      -1.08738464
H       -6.77345182      15.67960368      27.39469738       0.22875084       0.39991802      -0.15998273
H       -5.51784122      14.46833208      26.94406091      -0.08864264      -0.06512461       0.14649834
O        7.56152175     -15.47241733      -6.72920964       0.85046401       1.28480860       2.21932614
H        7.85669100     -16.34000128      -7.00471093      -0.18501197      -0.00806209       0.03154539
H        7.09520579     -15.42211294      -5.87993841       0.44765342      -0.05725959      -0.71883003
O       15.43642545       7.49833185      20.54695055       0.10116337       0.52475506       0.04340785
H       14.88091766       6.79575052      20.18573538       0.42980583      -0.07263160       0.03776711
H       16.41179338       7.18063002      20.62369319      -0.38872952      -0.11175188      -0.11945616
O       -0.29534897       1.09260737       1.01594965      -0.96515987       0.09578235       0.15136167
H       -0.06065220       1.74760021       1.70566651       0.08100634       0.33763742      -0.18705363
H        0.30705380       1.44011555       0.30217763       0.14178789       0.18416664       0.01271362
O      -16.10001914      12.58132417      17.78590416       0.73833642      -0.05971407       0.80779125
H      -16.34189540      13.07829172      16.94655413       0.21045625       0.34864413      -0.50724418
H      -16.74471895      11.86077716      17.91982750      -0.25572459      -0.35337032       0.03012492
O      -17.66742417       6.31688960      12.95094925       1.92449597       0.87420189       0.34429730
H      -18.36957089       5.83211911      12.29516650      -0.06709704       0.10894547      -0.59850141
H      -17.37373208       7.08858984      12.41936524      -0.28703327      -0.09941978      -0.14315333
O       -9.99032033      34.30035761     -11.50647381      -0.14688110       1.06349704      -0.49520867
H       -9.37598752      33.85841958     -10.82945360       0.15312162      -0.22369646       0.30085744
H      -10.07751643      33.31835417     -11.69031533       0.20521528      -0.04490494      -0.26210880
O       36.59098539      10.90897976      21.68346056       0.97560412       0.40089561      -1.37195972
H       36.61182919      11.81918096      21.31856855       0.09024160       0.34084137      -0.02599507
H       35.75446676      10.81617577      22.16550008      -0.18124022      -0.24573206       0.40356751
O       30.55404401     -10.93687246       2.34022768       0.46600594       1.15305824      -0.66455812
H       30.27524365     -11.50696246       3.01025108      -0.45462572      -0.20884515      -0.14488732
H       30.22000533     -11.35448197       1.54515011       0.38941417      -0.00328119       0.26883207
O       16.34242411       9.69854818      -6.89850680      -0.31704488      -0.70719216      -0.23480363
H       16.84261970       9.60024855      -7.76164751       0.14619368      -0.20034316       0.24485514
H       15.96162766       8.81494946      -6.71320880       0.06019232      -0.07902160      -0.15852279
O       -9.23087958       3.45697690      33.45365372       0.04202975      -0.41013106      -0.05397630
H       -9.01324260       4.43573908      33.62292336      -0.08894343       0.07940676       0.16085856
H       -8.56161785       2.90267841      33.87344618       0.20910026       0.02787908      -0.05261583
O        3.34417924       1.20114028       0.10976809       1.29191899       0.28980883       0.00081934
H        3.23368884       1.86665741      -0.53486690       0.01754973       0.30708749      -0.23990365
H        3.70208224       0.39226339      -0.24368510       0.05109506      -0.27012286       0.16745589
O       23.41228557       1.95050224      12.97980951      -0.80211312      -0.35413790      -0.10169938
H       23.42027704       2.85537769      13.41938280       0.13424238      -0.03464687      -0.16882406
H       24.10477832       1.39271303      13.43534326      -0.19180553       0.26291770       0.14554844
O        0.05459993      32.50149802      15.76762891      -0.48399214       0.01376189       1.10589132
H       -0.58153928      31.72622061      15.53133595      -0.05037934       0.00366155       0.23837929
H       -0.13692128      33.10617776      15.09694164      -0.03094781      -0.41080763       0.14716085
O        5.98553358      20.22043330       5.10821705      -1.03942739      -0.74122214       1.16885196
H        5.12125406      19.89336946       4.58395041      -0.14263627       0.00523897       0.17120702
H        6.65156869      20.78735235       4.62707920       0.36402839       0.12076542      -0.19563347
O       -9.69106058      10.99414939      10.46937506      -1.09993091       1.12235611       0.80330690
H      -10.17232270      10.17272221      10.43161323       0.25441927       0.21001080       0.12865097
H       -9.11359166      10.95269660      11.41638170       0.01206939      -0.01697244       0.17586741
O       17.16587644      17.95214014      28.04151922      -0.15473020      -0.69088689      -0.93848388
H       17.49477920      17.07245273      28.12076316      -0.24122829       0.41842158      -0.12890777
H       16.24908342      17.77075115      27.81302491      -0.08391795      -0.35049633       0.14995659
O        6.74594183      18.35969236      10.93363078       0.12659307      -1.03919965       0.61619050
H        7.22616166      18.78364303      10.27515722       0.14245583       0.14081573      -0.04603521
H        6.57063155      17.42616369      10.60528287       0.07568284      -0.19189702      -0.00503340
O        1.02184919     -13.62414080      10.40890126       0.36496911      -0.52278939      -0.19929860
H        0.26911578     -14.08016048      10.66386053      -0.10787214      -0.01296155       0.05823358
H        1.74345346     -14.31393869      10.64978310      -0.44404427       0.19569718       0.13941196
O        0.00550419       9.14204281       1.94394582      -0.82336348      -0.03512818       0.50049178
H        0.95208876       8.96237750       2.04855491       0.15096025       0.20796206       0.13203216
H       -0.14239560       9.80518351       1.25350027       0.29898381      -0.27545048       0.65483372
O        0.51522617       0.60697836       7.84592048       0.24009570      -0.62634859       1.31324632
H        0.91439446       0.27705376       7.05405012       0.09970976      -0.22835865      -0.55274589
H        0.93631251       0.18327502       8.59616157       0.17175019       0.15235338       0.05459923
O      -18.79766795      28.98352055     -15.94588967       0.72560958       1.32886813       0.03199801
H      -17.92105558      28.82507067     -16.51593728       0.35387510       0.13754962      -0.52511898
H      -18.54660658      28.50989858     -15.15017131      -0.12858307       0.13432137       0.01873495
O        4.64044889      26.35972688      -8.24610471       0.26142119      -0.64333236       0.10822672
H        5.18514469      26.98042180      -7.88566266      -0.21308544       0.03586766      -0.02245110
H        3.68285646      26.69092007      -8.17661788       0.23301447       0.11774783      -0.17574848
O      -18.30217658      21.47369664       1.44586958      -1.47712130      -1.12446772      -0.53792213
H      -17.94408014      20.68498348       1.05259487       0.28021223       0.05599486      -0.17325488
H      -19.04570929      21.99593722       1.23990656       0.07480811       0.25065615       0.13133218
O       11.42773235      20.27766053       6.90744245       0.29188534      -0.00316304       0.13936635
H       11.73163383      21.14036791       6.80690689      -0.02834776      -0.20869377       0.16442820
H       10.57971331      20.19604456       6.68146726       0.07385966       0.19356841      -0.07703256
O       -9.49624237      -6.81938886       4.30414570       0.15324181      -0.63513225      -0.32662978
H       -9.04876399      -7.59368567       3.71883951      -0.26457700       0.31397068      -0.04224979
H      -10.03284468      -7.30320652       4.93144150       0.01728711      -0.09464211       0.61052919
O      -25.48375649       1.96062675      11.28817007       0.51076856      -0.50039179       0.22799846
H      -25.59795431       1.19837690      10.60259525      -0.07930045      -0.27523324      -0.56358964
H      -24.48906038       2.21549185      11.26034217      -0.89019741      -0.37327933       0.31000339
O      -12.47261916      -7.50592585      19.39864655      -0.02013343      -0.78978748       0.08132470
H      -11.92131376      -8.18543718      19.09191924       0.47853293       0.13184604       0.19015962
H      -12.88109737      -6.87308685      18.81805886      -0.03388364       0.17147720      -0.10617105
O        8.07687150       8.67434811      17.38476816      -0.52220027       1.31167292      -0.26478219
H        8.54298585       7.89942108      17.79519324      -0.29273883      -0.06801025      -0.02803500
H        8.01275657       8.67947550      16.41969570      -0.09110234      -0.12506237       0.15000279
O      -11.12785859      -0.75265728      18.54992640       0.44453744      -0.14683902       0.88994806
H      -10.74567654      -1.62825351      18.76886771      -0.00872056      -0.24068237       0.04633126
H      -11.93722329      -0.91306563      18.06980947      -0.16303803       0.04272548       0.12324728
O       22.56235958       4.07850794      18.99192055      -1.18068909       1.18453239      -0.59631909
H       22.16489947       3.35685313      18.35958342      -0.08740111       0.23893719       0.35835819
H       22.85804028       3.53628477      19.75453781       0.09308380      -0.12492052      -0.17444594
O       -4.96949241     -18.84943268      -3.89983312      -0.13031215      -0.06213260      -1.37146306
H       -4.29415331     -19.07302355      -3.30203354      -0.21083987       0.05835018      -0.16134969
H       -5.00341515     -19.41446370      -4.69949015       0.22013036      -0.15124181      -0.07818531
O       27.51364910      -9.87237242      -7.16829695      -0.86060903       1.25523434       0.11845243
H       28.47889525     -10.04074101      -6.65483596       0.06982038       0.14833813       0.39005657
H       27.08920244     -10.63265574      -6.76416971       0.14277513       0.04217187       0.09795929
O        7.04634516       0.41101830       5.95322331       0.47719776       0.66629136       0.55178912
H        6.66733452       0.42320964       6.81363742      -0.37814349      -0.07030763      -0.30381440
H        7.53957971      -0.44009587       6.05566593       0.14270226      -0.01971059       0.35834870
O      -18.56953700      -2.00352614      24.48050063       0.43144177       0.43412121      -0.37234801
H      -18.63749415      -2.22122086      23.59340289       0.33549353      -0.02349960      -0.09290714
H      -17.78597344      -2.35898630      24.86704150      -0.20811447       0.21800696      -0.32943987
O        4.98380944      -6.65452201      -5.58062789       0.76288801       1.60276894      -0.37399446
H        5.03297245      -6.04433137      -4.87601886       0.18319439      -0.27882157      -0.26950766
H        5.47697576      -6.33685793      -6.36728788      -0.08297630      -0.04617924       0.26150280
O       12.17233734       9.72556547       6.28351113       0.42130182      -0.89337270       0.07682756
H       11.63554771      10.24704339       7.13545189      -0.04162073       0.19963345      -0.49879022
H       12.13600873      10.23777629       5.48973125      -0.01547456       0.20465887      -0.02853940
O        4.51791150      11.82982591      -5.12999098       0.83722614      -0.89425704      -0.42668172
H        3.86994171      11.87940179      -4.42077741      -0.23244178       0.32070419       0.11543233
H        4.10292731      11.26747587      -5.78705193       0.09255225       0.30850739       0.22673542
O       13.14554222      28.96586655      15.90750963      -0.25808322      -0.14165891       0.43181646
H       13.67218328      28.55320619      16.54570937       0.00487495      -0.51004437      -0.27454866
H       12.29259462      29.29667693      16.16639329      -0.25573325       0.12044808       0.00311310
O       -4.10675703       4.08533787       1.23401485      -0.21715011       1.06029104       0.25044034
H       -4.67139430       5.02016681       1.08412290       0.04070901       0.17524950      -0.36539420
H       -4.82553223       3.49173639       1.53600814       0.50872109       0.23406115      -0.05792069
O        6.59823403     -15.80725396       8.81583581       0.02068517       0.12682323      -0.82547994
H        5.74193136     -15.57173157       8.48224283       0.13093314      -0.13257771       0.02120197
H        6.66796667     -16.76632463       8.89586211       0.33632921      -0.04687022       0.09528512
O        1.49308298       8.67340384      22.69809716      -1.21438905      -0.88507909      -0.49115599
H        1.33460508       7.73973411      23.00625528      -0.08928670      -0.10223483      -0.37950198
H        1.98630847       8.59551256      21.90673398       0.01595078      -0.16770084      -0.34987010
O       22.78726859      22.89384672      -0.36477655      -1.34083492       0.87356556      -0.35341434
H       23.22850598      23.63136636       0.09329766       0.06125208      -0.30423641       0.02035981
H       22.28136261      22.61901954       0.40615886       0.04317153      -0.37141746       0.19518180
O       12.03845365       6.03165131     -16.60627007       0.73079166       0.80158160      -0.04520312
H       11.92510509       5.11895759     -16.72358264      -0.00079129      -0.02576076      -0.00058783
H       11.85353656       6.40629136     -17.58634836      -0.23437637      -0.20244802       0.30924883
O       -7.77493018      22.76376670       1.73977826      -0.11198544      -1.22472534      -0.60023761
H       -8.59774843      22.31864075       1.69401008       0.02049487       0.12613185      -0.08916518
H       -7.80530870      23.38040292       2.67612097      -0.15043247       0.14268810       0.44240376
O        5.15245433     -15.66493706      17.45836225      -0.51087559      -0.22887799      -0.35554854
H        5.97714624     -15.93043021      17.83637679       0.25379616      -0.14209819      -0.35316655
H        5.31162229     -14.74761061      17.28872017       0.02443286       0.24797912       0.22179499
O        1.62827874      18.59259949       0.62139669      -1.20276220      -0.97801990      -0.24139743
H        0.88949257      18.88586734       1.03341631      -0.25307904      -0.06124052       0.20431669
H        1.43841445      18.67741663      -0.32399562       0.49265581       0.02086774       0.33551151
O       -4.85683584      -6.60747429       6.56367579      -1.23810559      -0.87999182       0.73872707
H       -4.51675244      -7.48451761       6.52325211       0.06503136      -0.02493696       0.04020246
H       -5.71064390      -6.69576282       6.07218518      -0.62828520      -0.31004150      -0.04918322
O       -3.56409408       2.32632294       8.51996509      -0.41289098       0.65122438       0.73460830
H       -2.92185824       2.64201723       9.18906345      -0.00241377       0.05658917       0.03937016
H       -3.07711626       1.65623556       7.96507981       0.01830696       0.49672916      -0.11288601
O       14.35306648      -6.95074425      -2.48468647       0.57991574      -0.74319799      -0.58097119
H       13.72193756      -7.14997946      -3.10351623      -0.06305627       0.16387083       0.09481786
H       14.86692962      -7.69420816      -2.32333210       0.05130818      -0.00842853       0.20017203
O       11.48841629       3.45388416      23.57050121       0.36608025      -0.50511827      -0.36443125
H       10.96014146       3.31857808      24.39546745       0.20855745       0.06532241      -0.00085082
H       12.19002259       2.92070859      23.45634560      -0.23589897       0.16368080       0.07728360
O        7.97814107      13.73951632      25.55432206      -0.78800934      -0.46763709       1.34446013
H        8.81269430      14.01210893      25.35328480       0.13841352       0.05214113       0.06188991
H        7.89067983      12.79920277      25.48513723      -0.09097780       0.34817772       0.17985543
O       -9.05888109       5.76689356      11.49667463       1.94880731      -0.80375854      -0.11011919
H       -7.95351701       5.37529163      11.56690183      -0.34868698       0.30236197      -0.30716603
H       -9.03665091       6.10007831      12.32476218       0.04000553      -0.03570198       0.38441608
192
Lattice="13.058396409973081 0.0 0.0 -5.288541354071192e-07 13.058396409973081 0.0 -5.288541354071192e-07 -5.288541354071192e-07 13.058396409973081" Properties=species:S:1:pos:R:3:momenta:R:3 step=200 time_fs=20.0 phase=production pbc="T T T"
O       12.77553733      -2.78196579     -15.45471255       0.98895756       0.58207334      -0.60837038
H       12.28160722      -2.56530088     -16.27953309       0.00739999      -0.23816460      -0.02765435
H       13.23007949      -3.57795477     -15.73969333      -0.17852438      -0.14536078       0.01767938
O       25.27522310      24.46195676       0.45728646       0.93454587       0.81365777       0.65945546
H       25.80139796      25.47531635       0.77452646       0.01878883       0.02089586       0.16004504
H       25.74881707      24.44803748      -0.34477907      -0.14011788      -0.52368275       0.54806953
O        5.41090029       1.42791489       7.96044450       0.60796997      -1.93220676      -1.29768051
H        5.99252359       1.80190656       8.65152241       0.37287877      -0.17188472       0.11581414
H        5.28509897       0.49151904       8.14351973       0.09556785       0.31620574      -0.52227500
O       -2.99883759      -5.65932102      -1.94634698      -0.99789446       0.37448422       0.81274219
H       -2.31970097      -5.13681520      -2.41778427       0.15130805       0.45462744      -0.22693018
H       -2.66744280      -4.68525210      -1.81875681       0.03746295      -0.13775782       0.09429047
O        3.41582244      16.36880462      10.60715306      -0.51509254       0.27315737      -0.29128449
H        3.69110855      17.17248084      11.07305208      -0.13854766       0.28614574      -0.30153274
H        3.25663939      16.42283683       9.67812857       0.41475009       0.44379272      -0.14673880
O       -2.05188182       4.34834205       2.99422950      -0.53852189      -0.14932319       0.04517123
H       -2.59996984       4.14575751       3.66911226      -0.12062493      -0.46411624       0.27361320
H       -2.54196985       4.29745049       2.17473729      -0.15653631       0.10342897      -0.19091308
O       23.88513299      13.33264291       7.29855834       1.07426519      -0.47356335       0.00648384
H       24.83984412      13.32107295       7.46041550      -0.02369518       0.07992235       0.42209944
H       23.62637435      12.78157470       6.53350564      -0.24921531      -0.45104294      -0.29844238
O       -0.77450618     -14.99155254       3.87952018      -0.72722129      -0.29575058      -0.05668010
H       -0.88898702     -15.64297106       3.21193584      -0.24313127       0.17216734      -0.00481619
H       -1.67252760     -14.76499254       4.16565950      -0.42405554      -0.50424154       0.15519530
O       18.46151228     -18.43522080       9.81935206       0.15291161      -0.75780995      -0.13514719
H       19.43848132     -18.71738199       9.97035854       0.21664796       0.08522926      -0.13574303
H       17.90386878     -18.65308762      10.56936963       0.14278644       0.39887524      -0.17651191
O        4.89412178     -14.17960288     -13.66055622       0.18459980       0.34562843      -0.92979455
H        5.86331055     -13.97282462     -13.54769253       0.15822001       0.00412761      -0.11067892
H        4.83903970     -14.93083897     -13.00943529       0.22657561      -0.46964411       0.06262673
O       -4.82582117       2.28830887       4.37051994      -0.44220814       0.40940781       0.00000193
H       -4.76255334       1.93053836       3.48235545       0.20503852       0.00254092       0.19353587
H       -5.56580162       1.75293531       4.86621389      -0.04265681      -0.25267126       0.28924021
O       -5.88553457      15.25280998      27.63326630      -0.85439536      -0.54573480      -1.30753517
H       -6.73188098      15.70776877      27.38266693       0.59229514       0.20340364      -0.06388143
H       -5.53115208      14.47122205      26.96550589      -0.19134842       0.14220193       0.32127034
O        7.56662044     -15.46351291      -6.71567157       0.98431173       1.34310452       1.99980736
H        7.83676763     -16.33985819      -7.00150517      -0.21048013      -0.01133407       0.01946193
H        7.13547055     -15.42958273      -5.94301120       0.33778934      -0.10535851      -0.49428282
O       15.43694301       7.50097287      20.54611399       0.32302772       0.48427128       0.04295210
H       14.91972578       6.78778623      20.18706297       0.36373230      -0.09950878       0.00336766
H       16.36278669       7.17243507      20.61001917      -0.56125606      -0.05332481      -0.13255763
O       -0.30083668       1.09361406       1.01647724      -0.81855876       0.26233589       0.03603707
H       -0.05560224       1.77467200       1.68624303       0.02044476       0.21498140      -0.21262926
H        0.31531433       1.45249926       0.30670527       0.02169199       0.06631939       0.08473526
O      -16.09542172      12.58015625      17.78879143       0.45193819      -0.12277732       0.42878167
H      -16.31611650      13.10097385      16.91535247       0.30170869       0.12004345      -0.09654783
H      -16.76073738      11.83712114      17.92121311      -0.06563696      -0.08784174       0.01379503
O      -17.65512542       6.32190875      12.95178801       1.77429532       0.85750949       0.16490518
H      -18.36755344       5.84794530      12.24361022       0.08115936       0.21316161      -0.44879375
H      -17.40001716       7.07332788      12.40600837      -0.26038016      -0.18480356      -0.13062627
O       -9.99003924      34.30365004     -11.50837696       0.06837142       0.60837203      -0.32195768
H       -9.37515048      33.83903220     -10.81482724      -0.14707241      -0.13418689      -0.01701726
H      -10.05158615      33.33115611     -11.70851582       0.31369557       0.33754816      -0.12117660
O       36.59466615      10.91115426      21.67393587       0.82534245       0.51189013      -1.34042180
H       36.61842640      11.84623928      21.31738875       0.07953240       0.20074821       0.03652377
H       35.74170031      10.79344989      22.19943191      -0.00473148      -0.19741418       0.29161572
O       30.55558983     -10.92862420       2.33592145       0.55691805       1.32011810      -0.63452233
H       30.22669794     -11.53328744       3.01016252      -0.49112072      -0.30959283       0.10782054
H       30.25403082     -11.35587832       1.56030419       0.33275450      -0.04967501       0.01728479
O       16.33981027       9.69341716      -6.90007792      -0.25764329      -0.78912249      -0.37978094
H       16.85272713       9.58212055      -7.72934167       0.09269379      -0.15890323       0.38661827
H       15.96743976       8.80993014      -6.72709840       0.07093970      -0.02139734      -0.12868313
O       -9.23007754       3.45499929      33.45163539       0.06497807      -0.17769408      -0.01964275
H       -9.02291352       4.42960820      33.63569660      -0.11803998      -0.19827745       0.13733397
H       -8.54229714       2.90913700      33.86522649       0.17397620       0.10930476      -0.08025384
O        3.35176955       1.20266558       0.11007737       1.24338385       0.24871473       0.05864002
H        3.23473097       1.90100617      -0.56426440       0.01775784       0.34928991      -0.32255035
H        3.70884092       0.36383800      -0.22883414       0.07936395      -0.28242284       0.14318833
O       23.40651274       1.94846108      12.97907051      -0.69305675      -0.27460421       0.06385021
H       23.43012187       2.84068950      13.39754595       0.09000182      -0.24092612      -0.25733428
H       24.07908281       1.42441476      13.44371879      -0.28457675       0.36301761       0.05548179
O        0.05115443      32.49819492      15.77386078      -0.62864011      -0.52908314       1.21322006
H       -0.57748888      31.73575984      15.56072330       0.12762770       0.21853085       0.37966585
H       -0.14303902      33.07941056      15.09916717      -0.09983468      -0.08892523      -0.09713203
O        5.97881626      20.21490598       5.11440434      -1.03998210      -0.70298752       0.92516771
H        5.11856881      19.89900530       4.60527193       0.09917436       0.13526514       0.27338587
H        6.67465738      20.79120792       4.61419818       0.10159121      -0.02856604      -0.05610139
O       -9.69684731      11.00088589      10.47430902      -0.93695049       1.28967219       0.98842695
H      -10.14947220      10.18659128      10.44428146       0.18525507       0.05575589       0.13971679
H       -9.11860957      10.95002781      11.42242825      -0.12411484      -0.02363471      -0.03878043
O       17.16367130      17.94760459      28.03431748      -0.29665683      -0.44003128      -0.92905171
H       17.47901394      17.09788490      28.10918233      -0.04708527       0.08203765      -0.07334135
H       16.23646773      17.73960930      27.82471112      -0.14321977      -0.26460911       0.12229988
O        6.74568392      18.35128253      10.93726670      -0.07096655      -1.35982175       0.72315660
H        7.24692428      18.80254884      10.26037280       0.26547244       0.24226000      -0.21161000
H        6.58060612      17.41635970      10.60830567       0.13802749       0.01464922       0.07769725
O        1.02532761     -13.62663265      10.40707165       0.72143390      -0.51684753      -0.21467437
H        0.24205783     -14.08897764      10.67183855      -0.41522537      -0.16185022       0.10511900
H        1.69863963     -14.28581341      10.65870800      -0.44221996       0.33556338       0.06557604
O        0.00069396       9.14109939       1.94728234      -0.71634882      -0.17044675       0.67379445
H        0.96314606       8.98359575       2.06032892       0.06997542       0.23191031       0.11674528
H       -0.11475551       9.78446994       1.31172180       0.24997014      -0.08007243       0.48232287
O        0.51650839       0.60304254       7.85334861       0.21714885      -0.67119673       1.18282155
H        0.92366945       0.25468681       6.99993107       0.06308869      -0.20745433      -0.47777472
H        0.95356856       0.19705043       8.60471859       0.18097634       0.13303362       0.11712848
O      -18.79140768      28.99005507     -15.94542456       0.97794793       1.30504335      -0.15398239
H      -17.89665509      28.83930791     -16.56050226       0.12863083       0.18325073      -0.40107060
H      -18.55923550      28.51908464     -15.14350593      -0.14712749       0.08564548       0.09685104
O        4.64019057      26.35380894      -8.24546662      -0.22805184      -0.82530904      -0.03984862
H        5.17818533      26.99484532      -7.87920681       0.07056812       0.28052188       0.14091326
H        3.71843867      26.69479637      -8.19487277       0.46939670      -0.00152177      -0.20761333
O      -18.30945893      21.46560438       1.44287291      -1.22268807      -1.13481570      -0.41271806
H      -17.92004758      20.68931521       1.03271708       0.18595511       0.06595736      -0.22787642
H      -19.04664085      22.02079662       1.24774332      -0.09994822       0.27123034       0.03426928
O       11.43039540      20.27561609       6.90859155       0.73916243      -0.30966986       0.34505380
H       11.73768817      21.13909224       6.82102292       0.16224577       0.19886967       0.13295794
H       10.55421767      20.20891869       6.66586293      -0.54790210       0.09836125      -0.22665815
O       -9.49449455      -6.82383975       4.30159212       0.22777665      -0.95511048      -0.40207274
H       -9.08153184      -7.55106826       3.72065808      -0.41849398       0.55374974       0.09109415
H      -10.02905091      -7.30916812       4.98768833       0.07645437      -0.01472810       0.51402658
O      -25.47876402       1.95696340      11.28813430       0.56307306      -0.68078918      -0.03405985
H      -25.60084724       1.18293987      10.55962713      -0.01303042      -0.05280203      -0.31612138
H      -24.58597621       2.17562552      11.28991457      -1.01130945      -0.40988432       0.31009205
O      -12.47227576      -7.50984904      19.39871785      -0.08470400      -0.61602641       0.25697852
H      -11.87173852      -8.17372493      19.10286757       0.51247838       0.11498772       0.06116577
H      -12.88188857      -6.85958335      18.80457059       0.01553213       0.07943755      -0.13495444
O        8.07344922       8.68169715      17.38254339      -0.45447977       1.23884852      -0.14420868
H        8.50950941       7.90012968      17.78472646      -0.37727736       0.08337902      -0.16000206
H        8.00566043       8.66402034      16.43630384      -0.04958064      -0.18047967       0.18082516
O      -11.12439190      -0.75377484      18.55456257       0.48132751      -0.24530887       0.93795004
H      -10.74765278      -1.64823981      18.77090945      -0.04998832      -0.15778569       0.01224038
H      -11.95293230      -0.90970820      18.08001535      -0.15543723       0.02653758       0.11504275
O       22.55374605       4.08499238      18.98723436      -1.22768089       1.01095994      -0.59287486
H       22.15870690       3.38994239      18.40013106      -0.02677907       0.42752256       0.47511544
H       22.86480708       3.52772357      19.73310759       0.07365916      -0.04728890      -0.23730842
O       -4.97073461     -18.84875293      -3.90865670      -0.36703952      -0.04396329      -1.57773648
H       -4.30492132     -19.06921878      -3.31056024      -0.00775060      -0.00304171      -0.00875119
H       -4.97946031     -19.42573043      -4.70415306       0.26409792      -0.09948632      -0.02204161
O       27.50758160      -9.86432174      -7.16700269      -0.63967757       1.19442981       0.18089050
H       28.48116505     -10.02104806      -6.61905614       0.00487263       0.24320868       0.33458076
H       27.09599018     -10.63006804      -6.75404024       0.02809887       0.00187439       0.10101467
O        7.04937740       0.41459695       5.95583822       0.63768489       0.50040185       0.40656812
H        6.62181516       0.42016663       6.79515036      -0.54851793       0.00803827      -0.07065991
H        7.55096653      -0.43822550       6.08707404       0.09615512       0.06510495       0.29163292
O      -18.56639422      -2.00028084      24.47751888       0.24509004       0.58966225      -0.21516562
H      -18.60676813      -2.22634551      23.56493995       0.27463591      -0.07606289      -0.44001780
H      -17.79219764      -2.34370559      24.84237586       0.08657938       0.08295614      -0.13515920
O        4.98810753      -6.64471240      -5.58326578       0.70228512       1.44847856      -0.57384642
H        5.05291200      -6.06313630      -4.88992391       0.22742834      -0.09335055       0.00678352
H        5.46738548      -6.34165699      -6.34038380      -0.08784717      -0.04864324       0.24714927
O       12.17390608       9.71975971       6.28457989       0.30036878      -0.81188126       0.34872298
H       11.63667796      10.25963948       7.07734937       0.07740188       0.06946496      -0.68105494
H       12.13389842      10.25900090       5.48278256      -0.01243529       0.22295102      -0.08011152
O        4.52280532      11.82389673      -5.13178833       0.83113246      -0.81086110      -0.20700026
H        3.85048625      11.90929665      -4.41044316      -0.14415006       0.30234187       0.07252717
H        4.10995130      11.29306149      -5.77133580       0.04102345       0.20922496       0.06589040
O       13.14317808      28.96396646      15.90870527      -0.29767909       0.02530315       0.25596889
H       13.67538130      28.49661192      16.52773961       0.05591454      -0.60699811      -0.09216880
H       12.26596406      29.30660073      16.16879692      -0.24297648       0.09989751       0.05822935
O       -4.10805366       4.09220302       1.23538536      -0.22897183       1.28954568       0.19480452
H       -4.66142944       5.02921200       1.04906866       0.15874292       0.01464760      -0.35016364
H       -4.77558307       3.51448622       1.53025835       0.45916717       0.18969607      -0.03610932
O        6.59842320     -15.80581880       8.81034824       0.16795314       0.05705211      -0.80991378
H        5.74727155     -15.58015414       8.48134974      -0.02245332      -0.05783830      -0.03379512
H        6.70039569     -16.76805337       8.90521842       0.33323905       0.00389865       0.10394068
O        1.48538501       8.66702565      22.69425534      -1.24009688      -1.03756502      -0.41252447
H        1.32631856       7.73522897      22.96842531      -0.08005613       0.01014372      -0.36813188
H        1.99101554       8.57917922      21.86489137       0.05582454      -0.15152053      -0.43825002
O       22.77766042      22.89822659      -0.36681373      -1.41641175       0.92648175      -0.30535457
H       23.23553950      23.60054330       0.09337919       0.11746992      -0.28642359      -0.00879570
H       22.28177672      22.57871620       0.42515973       0.00280636      -0.42235106       0.17463380
O       12.04223654       6.03720527     -16.60641559       0.70232171       1.08141987      -0.28874907
H       11.92268480       5.10342847     -16.72187241      -0.03221560      -0.25970677       0.02155629
H       11.83201502       6.38405117     -17.54537662      -0.19227992      -0.24459934       0.50643541
O       -7.77456211      22.75586385       1.73675971       0.09857762      -0.94927623      -0.34260447
H       -8.60534774      22.32466359       1.68443605      -0.18726720       0.02075978      -0.10451306
H       -7.81972561      23.38306321       2.70790794      -0.15298721      -0.06997605       0.20218025
O        5.14914679     -15.66542649      17.45514263      -0.44591928      -0.17706927      -0.38365539
H        6.00548082     -15.94913830      17.80405171       0.30572635      -0.24703615      -0.30486746
H        5.30838878     -14.71674251      17.30950964      -0.08872083       0.33256937       0.23211042
O        1.62186261      18.58512259       0.61952855      -0.89785544      -1.12233300      -0.28840102
H        0.84764393      18.88543642       1.06682170      -0.55605529       0.05260352       0.45047220
H        1.48757029      18.67859812      -0.29842877       0.50810510       0.02952036       0.15303731
O       -4.86481643      -6.61216711       6.56772868      -1.45550998      -0.78454484       0.68659913
H       -4.50397185      -7.49611041       6.52611185       0.18087964      -0.19994892       0.02509179
H       -5.76599190      -6.72367162       6.07153666      -0.49275310      -0.26968819       0.05216813
O       -3.56610425       2.33010072       8.52400213      -0.31108144       0.62855825       0.73222701
H       -2.92349394       2.64701696       9.19046226      -0.03171951       0.05095906       0.00280906
H       -3.07804791       1.70895801       7.95746112      -0.02818951       0.56969067      -0.04790227
O       14.35611615      -6.95393404      -2.48755071       0.66585312      -0.44187861      -0.40536755
H       13.69858068      -7.13636902      -3.10749342      -0.38186644       0.10876470      -0.16269236
H       14.88206009      -7.70663317      -2.29977608       0.25455264      -0.23150952       0.27240715
O       11.48835539       3.45163297      23.56746617      -0.17441429      -0.16513916      -0.23448050
H       10.98447934       3.32492356      24.38765541       0.28562068       0.06760943      -0.11166925
H       12.18879309       2.91880046      23.46133490       0.22898886      -0.20128039       0.04743325
O        7.97174624      13.73615479      25.56129349      -1.10197473      -0.34578558       1.36131790
H        8.84750600      14.02484231      25.35458845       0.53203453       0.20527525       0.00420219
H        7.87986227      12.82038673      25.50156517      -0.12347313       0.07797864       0.18318938
O       -9.04559196       5.76089253      11.49416886       2.20519230      -1.00601526      -0.41752297
H       -7.99540720       5.40779830      11.53269941      -0.49727711       0.36345597      -0.37955430
H       -9.03586791       6.10586747      12.38455548      -0.03286575       0.12528764       0.76302690
