192
Lattice="12.749513626098633 0.0 0.0 -5.291772140481044e-07 12.749513626098633 0.0 -5.291772140481044e-07 -5.291772140481044e-07 12.749513626098633" Properties=species:S:1:pos:R:3:momenta:R:3 step=0 time_fs=0.0 phase=equilibration pbc="T T T"
O       11.58024883       0.72498864     -16.52445793       1.11768299       0.20408896       0.69008038
H       11.81181717       0.78436756     -15.53965855       0.36097603       0.29840838      -0.15413935
H       10.76372814       0.18189090     -16.44460487       0.15239367      -0.02783003      -0.01289933
O       26.36344719      24.79401588       4.85561371       0.24636511       0.03920975       0.99621760
H       26.70196342      23.84678841       4.58326721       0.12184479       0.01628950       0.07550418
H       25.49327087      24.94361305       4.49529648       0.05278673       0.23805757      -0.02937182
O        4.55044222      -0.28422797       6.68408966       0.18357736      -0.60336600      -1.58355279
H        4.83529854      -1.07390165       7.11166525       0.10448683       0.13631298      -0.11614725
H        4.04536915       0.15737888       7.41435432       0.36563978      -0.23838440       0.01117406
O       -2.84938097      -4.43740463       0.99063027      -0.13847139       0.93324112       1.00592910
H       -2.61852217      -3.73749900       0.44086069       0.02390609       0.05773556      -0.13967824
H       -3.60226274      -4.18081188       1.49332213      -0.32121079      -0.05959153       0.02904448
O        4.24721289      15.84552383      10.73478317       0.77406131       0.72053872      -0.18935610
H        4.32293320      16.65563965      11.23829556      -0.04998140      -0.17280874      -0.22568214
H        5.19970036      15.68020821      10.36292934      -0.27684983       0.31185556      -0.07857528
O       -1.38442278       6.65292120       5.13221407      -0.29998804      -0.86003830       0.56052247
H       -1.16714787       6.34425259       4.30304146      -0.26192329      -0.03774898      -0.14091939
H       -0.51785862       7.04266024       5.23280573       0.06138793      -0.08591356      -0.18699957
O       22.81806755      12.30516911       5.78538847      -0.03611034       0.22222706       0.10281672
H       23.17335701      13.23964310       5.97626257       0.04774470      -0.10587278      -0.05483579
H       22.49505615      12.44190884       4.78045988      -0.10979553      -0.06147261      -0.12761717
O       -0.99380004     -15.77508926       6.81807756      -1.12930256       0.06070057      -0.19866128
H       -0.45485213     -16.08402252       6.13538647      -0.26455731       0.07140934      -0.14283130
H       -1.49262893     -14.86474609       6.47252512       0.00726189       0.11444236       0.02462237
O       15.45499039     -17.88147926       9.66319847       0.71554873      -0.84846998       0.31901162
H       16.20885658     -18.30376244      10.29202080      -0.11179112      -0.14408501      -0.08975696
H       15.70476151     -16.92102242       9.71442318      -0.05147608       0.00570373      -0.18449776
O        3.25135970     -14.66133022     -13.33013248       0.56196096       0.24625949      -0.92899846
H        4.07719374     -15.24898148     -13.27065277       0.23935606       0.30298645       0.19426001
H        2.57298112     -14.89321613     -12.72210789      -0.03020624      -0.17639601       0.17416975
O       -5.74231339       1.54765272       2.85520196      -0.27752205       0.73345619       0.19407663
H       -6.46929693       1.30210924       2.21823668       0.15668401       0.05421351       0.11795573
H       -5.43554926       2.35845280       2.31344628       0.00056469       0.28520842       0.02428775
O       -5.38575363      16.01581192      25.98963737       0.24082278       1.15880104      -0.80765703
H       -5.29129553      15.31565762      25.36113358      -0.20643089       0.15327365      -0.18578622
H       -4.35831404      16.55647278      26.03186607       0.31293957      -0.07020916      -0.11700203
O        7.41874647     -15.71936703      -8.56404495       1.21997197       0.89959466       1.26227987
H        7.76011896     -16.59404373      -8.22976398       0.14527660      -0.14253835       0.31242910
H        6.70255852     -15.71397018      -8.01100159      -0.04443893       0.12629761       0.15684724
O       13.68023586       8.54409504      17.93683052      -0.11775878       0.34180640       0.65368701
H       14.04198074       8.80058670      17.02638245       0.05969494      -0.18102529       0.05197249
H       14.22989178       7.91326284      18.49035072       0.21319994      -0.11560795      -0.02039969
O       -0.15136531       1.17568886      -1.25246716      -0.29810774       1.13698550       0.49280032
H        0.81402797       1.41365457      -1.19074392       0.06471013      -0.12778354       0.09091769
H       -0.07980151       0.32297695      -0.61002493      -0.11009807       0.00177145      -0.09896707
O      -14.19501877      12.66273403      15.80837536       0.41750254       0.31767226      -0.07410255
H      -14.08447456      12.39100170      14.93772030       0.06285908      -0.18000092      -0.23719382
H      -15.12377834      12.22245789      16.00036049       0.06986971       0.02356085       0.10639523
O      -16.50709915       5.89053583      12.35020161       1.51623836       0.55450928      -0.52765617
H      -17.07337189       5.99335480      11.63549519       0.17936770      -0.21601080      -0.07080799
H      -15.87981319       6.77748966      12.58092308      -0.01215924       0.27348859      -0.11656573
O       -9.93085670      32.95535660      -9.56657028      -0.55000669      -0.11690284      -0.36713513
H       -9.34108829      32.25430298      -9.17445087       0.18092215      -0.17787923      -0.18164064
H      -10.60434055      32.31637573     -10.11273479      -0.07187977      -0.08384961       0.31557481
O       34.72598267      11.51679993      21.45279121       0.59324470       0.00284148      -0.72890836
H       34.76889801      11.55188560      20.38697433       0.13530940      -0.16499782      -0.24584112
H       35.17197418      10.55581474      21.38193321       0.19084284       0.04784298       0.15258235
O       30.39016914     -12.69961739       2.17083836       0.18722109       0.49808324      -0.35911841
H       29.79241180     -12.15017319       2.64960074      -0.16825629       0.10676742      -0.12604383
H       30.32688141     -12.61913013       1.28064585      -0.11255702      -0.07698201       0.00660438
O       17.59328842       9.34982014      -7.42393255      -0.24585931      -0.93867906      -0.35434986
H       17.75654030       8.24436951      -7.47171736      -0.36041383       0.09765966      -0.25509811
H       17.49332619       9.50084782      -6.49755478      -0.17959036       0.00505733      -0.11572678
O       -5.19974279       2.63030171      32.17810059       0.97538472      -0.88582886       0.23191499
H       -5.76909018       2.18207788      31.62262344      -0.00747976      -0.19212541       0.08833667
H       -4.51727343       1.96271300      32.26456833      -0.02885235       0.12134229       0.13685072
O        3.72383595       0.83603644      -0.23808952       1.37466686       0.80689973      -0.17767484
H        3.50995302      -0.10580844      -0.28170851      -0.03981352       0.17432296       0.10966459
H        4.04864979       1.22581255      -0.97762311       0.10230744      -0.26465753      -0.00015098
O       23.25961304       3.22112799      11.66518211      -0.49309219       0.12668637      -0.00319194
H       22.89178276       3.69758320      12.53435612       0.14594465       0.04788751       0.13084338
H       23.95712090       2.57524610      11.70460510      -0.07650112      -0.15598604      -0.06248042
O       -1.44264293      31.80788803      14.97783184      -0.02892466       0.19056619       1.51447818
H       -1.90867865      32.56244278      14.49384594      -0.00796039      -0.15784413      -0.05212762
H       -0.63238788      31.96923447      14.54845619      -0.07604493       0.07443097      -0.24519894
O        4.83401251      19.39249229       5.20213461       0.02275903       0.04723308       0.20946672
H        4.19375563      18.92559814       5.89170027      -0.09765288      -0.04181807      -0.22633545
H        5.66431284      18.99529266       5.20644188      -0.08084804      -0.09109358       0.07100982
O      -10.11733818      10.47273445       9.45824909      -0.76228711       0.44939303       1.02210441
H      -10.56179523      10.95322704       8.62468815      -0.33562285       0.06550747       0.11316211
H      -10.49601841      10.85548878      10.17052078      -0.10413607      -0.06756761      -0.01769240
O       17.70605659      17.76738930      26.21935463      -0.20967728      -0.25245609      -1.01897234
H       18.51691628      17.23879242      26.00022125       0.18507433       0.17108451      -0.12765240
H       16.93769073      17.24535561      26.08018112      -0.23809291       0.08082729      -0.08926222
O        6.93529034      18.72588730      10.12019539       0.07341833      -0.25909691       0.50518909
H        7.17553711      19.43673134       9.56392574       0.11113316      -0.12062204      -0.21975919
H        6.77701330      17.86063004       9.62658024      -0.25692053       0.09525970      -0.18832899
O       -0.61552304     -13.79612541      13.26192093      -0.34424236      -0.43741294       0.02615325
H       -1.32075751     -13.98700047      12.60902309      -0.31401730       0.02713283       0.08843595
H       -0.07504050     -14.52363777      13.75675488       0.01315619      -0.05360847       0.01951889
O        1.14059913       6.22465849       1.06936646       0.23892814      -1.83844376       1.31915943
H        1.58913505       5.20397615       1.11494458       0.06190353      -0.10879540      -0.05939462
H        0.86076492       6.21000004       0.19304278       0.07865219      -0.02213342      -0.32436032
O        3.08428288       1.33452666       8.34316635       1.31109867      -0.12468486       0.71675497
H        2.14491916       0.71188623       8.18653011      -0.11296100       0.24489254       0.05005045
H        3.21509027       1.66781306       9.25075817       0.09725164      -0.17227556       0.19949001
O      -18.86823654      28.79443550     -16.13371277       0.42611937       0.78457256      -0.34435151
H      -18.57898712      28.67098045     -17.17761993      -0.07886164       0.36892000      -0.16750906
H      -18.02880287      28.11259079     -15.81260872      -0.02310026       0.18033927       0.01957137
O        2.89657831      26.89320755      -9.10925674       0.35732283      -0.31067644       0.29822691
H        3.39167643      26.84923363      -8.50101948      -0.21225492       0.26456683      -0.01531434
H        2.37178278      26.07023048      -8.79159164      -0.11104265       0.10430939      -0.07066824
O      -18.04356575      19.06403160       1.91016555      -0.87692777      -0.92050290       0.50662754
H      -17.35203743      18.82579613       1.07529342      -0.02691764      -0.02497704       0.17793354
H      -18.82352066      18.41457176       1.64946640      -0.18321686      -0.12144299      -0.05841319
O       11.69502831      17.57333946       7.08430672       0.04277370      -0.08067057      -0.12469572
H       12.57938862      17.40537834       6.63619947      -0.01109028      -0.02071164      -0.11250165
H       11.44980621      18.34218216       6.52200270      -0.13250432       0.04098728      -0.14018391
O       -7.21591282     -11.17987347       5.19630289      -0.76304215      -0.25456721      -0.04150717
H       -6.55555296     -11.33497524       4.52568722       0.36353407      -0.11724526       0.15620229
H       -7.33566570     -12.14186478       5.44856691       0.11960685      -0.19549482       0.12873058
O      -24.11656189       3.45878673      10.69699860      -0.78011849      -1.76542662       0.45032720
H      -24.75385094       4.16675711      10.53126049      -0.28486803       0.06949485      -0.10675007
H      -23.20468330       3.72668266      10.25629997       0.26703637       0.16928937      -0.06948314
O      -11.42477703      -8.17853928      18.47018814      -0.46077907      -0.83511270      -0.22385967
H      -10.61190796      -8.51080894      18.81251335      -0.04643492      -0.06230325       0.02910183
H      -11.33889198      -8.48281574      17.61085892       0.09235182       0.05312892      -0.11969884
O        8.64130497       7.31222343      16.93864441      -0.94357958       0.82492790      -0.38385450
H        9.65557957       7.37318468      16.82402420      -0.10653675      -0.08759155      -0.29404345
H        8.34004402       6.79352379      16.19911957      -0.07836829      -0.08088011       0.10402419
O      -11.66915131      -0.47635421      20.40851212       0.43168092      -0.05109410       0.65989409
H      -12.51255322      -0.31226641      20.80952263       0.05380325      -0.00590616       0.02978444
H      -11.54479408      -0.51122749      19.37783432      -0.03193989      -0.06717618      -0.03948341
O       24.20710564       2.47224188      16.24833298      -0.74415130       0.12701927      -0.57935209
H       23.82329369       2.48642898      17.10057259       0.13486798      -0.04368233       0.01177784
H       23.88504791       1.49528539      15.90733051       0.07866754       0.10058171      -0.25001862
O       -5.65780354     -17.97080421      -4.97955227      -0.15116650       0.51311426      -1.03320103
H       -4.91104460     -17.61366272      -4.62017727       0.06144900      -0.36785083      -0.16144795
H       -5.84719610     -18.62328148      -5.61049509       0.00511033      -0.27108224      -0.15546971
O       29.51348114      -9.01765537      -6.13924885      -0.96549591       1.00750409       0.16572019
H       30.18786430      -9.07189655      -6.90846157       0.09053696      -0.03935436      -0.05333147
H       29.35758591      -9.90000534      -5.99594784      -0.26233961      -0.05053035      -0.11927034
O        8.81016541      -0.69567221       3.37943673       0.53434142       0.68108958       1.00413937
H        8.13959217      -0.08129326       2.97969079       0.13663266      -0.10010913      -0.17653895
H        8.18504810      -1.42161870       3.76989532       0.12275381       0.05420162      -0.28199990
O      -19.77704430      -3.17595220      24.77496529       0.21088243       0.47084467       0.09792943
H      -20.24594879      -3.93345857      24.23261070      -0.03103501      -0.13388076      -0.22996701
H      -19.22686005      -3.35188770      25.64948273       0.12818889      -0.05332217      -0.03394620
O        2.33822227      -5.82634640      -6.04426193       1.09751282       0.38714205       0.29872204
H        2.60435629      -5.58678818      -5.23193264       0.02182389       0.24224533       0.28164996
H        1.84410310      -6.58979034      -6.15263700       0.14906759       0.09071014      -0.33468899
O        9.83052444       8.29157162       7.94427252       0.06168154      -0.13728112       0.12047930
H       10.55507374       8.67099094       7.39429855       0.15125569      -0.44607910      -0.08821577
H       10.27916145       7.62031031       8.47927094       0.04248208      -0.07881009      -0.22517930
O        5.33315372       9.75194168      -4.79990673       0.54144840       0.12472113      -0.56517681
H        6.11570072       9.05035877      -4.75399590       0.04973959       0.12938873       0.00463515
H        4.79601765       9.65584373      -3.99316049       0.12823201       0.00927406      -0.06008552
O       13.78490734      29.46945572      15.87139988      -0.76437171      -0.10884166       0.18507536
H       12.97367859      29.05727959      16.07074165       0.14039463      -0.02197240       0.07769412
H       14.51437759      28.85084534      15.94469070      -0.15700458      -0.12983786      -0.01405801
O       -2.79554796       3.97514725       1.67142200      -0.69690935       0.47453222       0.35814578
H       -2.09789133       3.54244971       2.37876797       0.04396733       0.05139176       0.33036224
H       -2.66680431       4.90871143       1.82570362      -0.07689622      -0.35910506       0.03598501
O        7.81044340     -14.01097202      10.98301983      -0.05054459      -0.38668680      -0.57015015
H        6.86072922     -14.50368881      11.26676464      -0.07210106       0.02593057      -0.07747072
H        8.08376408     -13.91688442       9.99806213       0.38869865      -0.15858089      -0.12438068
O       -2.40225267      10.55052280      24.40655136      -1.49132057       0.10837733      -1.23811470
H       -2.11677766      10.18962383      23.63982582      -0.08830300      -0.04791794      -0.11090571
H       -3.26164699      10.98137951      24.01273727       0.27985406       0.15731305       0.21694048
O       20.08693123      21.72748566       1.53467739      -0.58604532       0.67303738       0.37930701
H       19.91960526      22.10029221       2.53567410       0.12352020       0.16297592      -0.14306801
H       19.85652733      20.72363663       1.67248571      -0.06969790       0.13601563      -0.42534410
O       12.13112259       9.99456882     -15.93627644       0.95627332       0.30257013       0.03057169
H       12.65966415       9.41337395     -15.31909752       0.03450003      -0.16980029      -0.05276778
H       12.34766197       9.94609737     -16.98574066       0.17666397       0.20637652       0.43946529
O      -11.40509129      22.31270409       1.06221199      -0.06555812      -0.47748072      -0.27105557
H      -11.54109001      21.21931839       1.16522169      -0.16563836      -0.01595270       0.06562600
H      -10.82580090      22.41965103       1.83509648      -0.00666526       0.17378764      -0.03406725
O        2.95212603     -15.01799583      16.16424561      -0.24164693      -0.42772701      -0.99105234
H        3.49181795     -15.75963783      16.56245232      -0.25446908      -0.19391332       0.21407889
H        3.56264305     -14.31895351      16.05730057       0.14353394       0.21880966      -0.21149344
O        2.46401834      16.36612701       0.35240024      -1.28531600      -0.47844854       0.17318229
H        2.10474420      16.02274513      -0.38129756       0.07945182       0.16597073       0.04971692
H        2.72625208      15.46308708       0.61630619       0.28046748      -0.03934314      -0.14376543
O       -5.64552689      -7.28079033       5.59652519      -1.10029130      -0.62581800       0.21586385
H       -5.41443539      -8.04312229       6.03960514      -0.14474116       0.14799702       0.23199927
H       -4.82533407      -6.73557901       5.23846245      -0.38403580       0.13625095      -0.35811983
O       -2.16926670       2.36249566       6.64598942       0.24050713       0.73501765       0.10174734
H       -1.92925835       3.32724380       7.01350307      -0.20791820      -0.09797246      -0.03849963
H       -1.87211776       1.97126448       7.38212776      -0.03058112      -0.03615837      -0.01397616
O       13.16375923      -5.43200397      -1.44062662       0.11946546      -0.83156953      -0.09581129
H       13.87253857      -5.19277859      -1.97007370       0.24420524      -0.06552730      -0.06793999
H       12.83011246      -6.28154516      -1.97071934       0.17309491      -0.41691315       0.19467999
O       11.83367157       4.88765526      22.73101616      -0.42477033       0.05201119       0.12200384
H       11.19543076       4.19066000      23.06752205       0.15116230      -0.04661297      -0.10578292
H       11.82980919       5.03477716      21.78167343       0.20858811      -0.38540116       0.00706572
O        8.21489334      14.51268387      23.75709343      -0.88572619      -0.54380255       1.35478868
H        9.03183746      14.96227264      24.07449341      -0.00833823       0.02814942      -0.28410452
H        8.11122799      13.52015972      24.14614296      -0.11893903       0.02838982       0.06110553
O       -8.10852909       7.02339840      11.40487957       0.37916792      -0.04796728       0.39926609
H       -7.33910561       6.59090185      11.03143883       0.07219503      -0.29904156       0.00975969
H       -8.30591202       6.27672958      11.91421318       0.12295406       0.09194716      -0.05501639
192
Lattice="12.74946110768763 0.0 0.0 -5.2917503423582e-07 12.74946110768763 0.0 -5.2917503423582e-07 -5.2917503423582e-07 12.74946110768763" Properties=species:S:1:pos:R:3:momenta:R:3 step=10 time_fs=1.0 phase=equilibration pbc="T T T"
O       11.58689170       0.72593233     -16.51935253       1.07188605       0.11147649       0.93734125
H       11.84717446       0.81381751     -15.56457434       0.36366351       0.30378558      -0.34896045
H       10.78399954       0.18207371     -16.44863354       0.25544789       0.02601178      -0.06661671
O       26.36533966      24.79293907       4.86149512       0.39427118      -0.34747122       0.92650644
H       26.70664994      23.86696942       4.59615666      -0.02132230       0.39104195       0.18680726
H       25.49754200      24.96662757       4.49128136       0.04553896       0.23479861      -0.04937813
O        4.55116599      -0.28728922       6.67439563       0.07047985      -0.40677067      -1.58297896
H        4.85159174      -1.07253669       7.10228696       0.23322376      -0.11271003      -0.07671737
H        4.08117864       0.13719352       7.41180084       0.35213964      -0.15920994      -0.04200985
O       -2.85004452      -4.43239278       0.99699992      -0.10927244       0.73136247       1.07570990
H       -2.61147068      -3.72081650       0.41749700       0.10270852       0.25292364      -0.30949140
H       -3.64020726      -4.18356726       1.50071385      -0.40853986      -0.00609784       0.08747122
O        4.25289186      15.84947120      10.73295832       1.05863439       0.56792125      -0.39783542
H        4.32028533      16.64490409      11.21932197      -0.00983410      -0.01298092      -0.13953475
H        5.15867987      15.71200138      10.35893691      -0.53695100       0.32789296      -0.01669743
O       -1.38651493       6.64783881       5.13638665      -0.36505638      -0.78938720       0.78692111
H       -1.19072640       6.33621011       4.27444012      -0.23037941      -0.12091657      -0.42794021
H       -0.50856185       7.03612930       5.21523642       0.11957086      -0.05036184      -0.17193041
O       22.81786331      12.30735706       5.78537740      -0.00459215       0.49691875      -0.10365036
H       23.17247165      13.21660993       5.96887631      -0.06014978      -0.35503081      -0.09369449
H       22.48735740      12.43418400       4.78431303      -0.04486821      -0.09581153       0.21203693
O       -1.00160084     -15.77350703       6.81716076      -1.40529467       0.42992404      -0.09848201
H       -0.47331450     -16.07874965       6.11119887      -0.12100950       0.03778340      -0.34391840
H       -1.48354839     -14.86727165       6.47775618       0.17751880      -0.16810561       0.08408571
O       15.45998253     -17.88632371       9.66576843       0.93073984      -0.75649740       0.52960362
H       16.18691954     -18.31121502      10.27469494      -0.33525439      -0.01029845      -0.26333596
H       15.69658370     -16.92842352       9.69467772      -0.11332227      -0.15610505      -0.21889695
O        3.25558463     -14.66018385     -13.33581839       0.78875137       0.10123113      -0.91470790
H        4.09187548     -15.21363110     -13.25367112       0.06768185       0.41596935       0.15137567
H        2.56734737     -14.91233495     -12.70396905      -0.06046896      -0.20801887       0.17377285
O       -5.74416868       1.55283513       2.85544891      -0.31796936       0.96248837      -0.09330602
H       -6.45148150       1.30361547       2.23698501       0.19076546      -0.02935479       0.25193497
H       -5.43513974       2.37830920       2.32495016       0.00716753       0.12201723       0.21135598
O       -5.38385394      16.02337996      25.98482949       0.37326876       1.32121316      -0.72989725
H       -5.30844100      15.32984867      25.33823202      -0.14672143       0.14622462      -0.27541752
H       -4.34027375      16.54180227      26.02169561       0.05639838      -0.22920081      -0.08976018
O        7.42732561     -15.71458475      -8.55659666       1.55006589       0.62936059       1.18399464
H        7.77548897     -16.60037800      -8.20526268       0.17585850       0.01074194       0.18413996
H        6.67766606     -15.69564288      -7.98331752      -0.43591408       0.25497110       0.38147815
O       13.68018817       8.54593772      17.94013529       0.11501549       0.26490152       0.46183021
H       14.04195152       8.77872499      17.04861021      -0.05366121      -0.26031734       0.39011527
H       14.24145906       7.91287025      18.47878166       0.02517694       0.10665446      -0.21283202
O       -0.15241620       1.18212666      -1.24901618      -0.04939443       0.95687840       0.63132021
H        0.80862313       1.39987283      -1.18352342      -0.16656888      -0.14931317       0.05577252
H       -0.09360060       0.33033518      -0.62534388      -0.17562529       0.14909213      -0.21587961
O      -14.19315815      12.66432583      15.80867178       0.17930864       0.20478794       0.13687600
H      -14.07181796      12.37030996      14.89866795       0.18135994      -0.22653276      -0.50103069
H      -15.10805706      12.22772002      16.01116240       0.25795804       0.08635086       0.10870667
O      -16.49638392       5.89433911      12.34780593       1.94415346       0.69542279      -0.24196199
H      -17.06282548       5.97623190      11.61834509       0.04109314      -0.13602538      -0.27224136
H      -15.89297956       6.79198525      12.56370252      -0.25843044       0.02338949      -0.23506251
O       -9.93425862      32.95333058      -9.56896638      -0.57106527      -0.50638506      -0.42682027
H       -9.33137105      32.24717307      -9.19724981       0.01993336       0.03763596      -0.28366001
H      -10.60313027      32.31712125     -10.07605730       0.09453191       0.10628329       0.43303161
O       34.72983217      11.51587193      21.44746636       0.70821618      -0.28923837      -0.97556697
H       34.77954654      11.54329811      20.36867161       0.08691713      -0.01279046      -0.12652386
H       35.18575112      10.56751355      21.40273061       0.09471503       0.19438790       0.27357973
O       30.39189949     -12.69678461       2.16986528       0.39950729       0.42665392       0.03162897
H       29.77024530     -12.13599630       2.64251848      -0.26506671       0.16753371      -0.03829741
H       30.31332939     -12.62460230       1.25454701      -0.16321895      -0.03667524      -0.50772861
O       17.59196535       9.34309704      -7.42646875      -0.16205310      -1.24125481      -0.48287384
H       17.71873170       8.26913626      -7.49536712      -0.41296133       0.41063468      -0.23062654
H       17.47614786       9.50230380      -6.50320011      -0.17243346       0.02720780      -0.00072613
O       -5.19326894       2.62547075      32.17995366       1.10579801      -0.68879278       0.39900623
H       -5.78385517       2.15878252      31.62104796      -0.27930832      -0.27440983      -0.10016521
H       -4.50982457       1.97140152      32.28148009       0.18733067       0.05216138       0.21396536
O        3.73190135       0.84072730      -0.23792665       1.26174229       0.73532118       0.22542188
H        3.50558577      -0.09164476      -0.27459335      -0.05282852       0.10494978       0.03717039
H        4.06587717       1.20532473      -0.99464129       0.25036856      -0.15788544      -0.34549778
O       23.25573642       3.22265704      11.66584162      -0.72075709       0.36179625       0.23485535
H       22.91838427       3.69281064      12.53278190       0.39601757      -0.14330565      -0.16128988
H       23.95173482       2.55782338      11.70242888      -0.04554784      -0.18969285       0.01569203
O       -1.44356870      31.80947947      14.98688046      -0.24025039       0.37049627       1.44130182
H       -1.90954586      32.53918367      14.49571955      -0.01452676      -0.30995368       0.08800326
H       -0.62408243      31.97462398      14.52250402       0.21645361       0.03336975      -0.27160437
O        4.83276531      19.39252731       5.20410866      -0.41354459      -0.00940402       0.43636119
H        4.19625704      18.92904975       5.85727746       0.14668923       0.11258223      -0.47476410
H        5.66378521      18.98111471       5.21421459       0.06283326      -0.19499639       0.08675314
O      -10.12197910      10.47546891       9.46240195      -0.77059352       0.46164536       0.35872334
H      -10.58667919      10.95031353       8.65004693      -0.17476124      -0.12305589       0.40370116
H      -10.51173023      10.85767340      10.18819362      -0.21257367       0.10480459       0.37000084
O       17.70559892      17.76578779      26.21280810       0.06195875      -0.25629270      -1.08146620
H       18.52576791      17.25878942      25.99189420      -0.00207275       0.23745836      -0.04116659
H       16.91096905      17.24924041      26.07111208      -0.28673192       0.01433169      -0.09201426
O        6.93542560      18.72313079      10.12325973      -0.01454169      -0.59329123       0.49411124
H        7.18768228      19.42770916       9.53794260       0.13351338      -0.07801590      -0.30049343
H        6.75488846      17.88111766       9.61372404      -0.19617760       0.32153656      -0.07528501
O       -0.61729739     -13.79928751      13.26226194      -0.24159856      -0.61027403       0.09877668
H       -1.34644993     -13.98511573      12.62258011      -0.20783872       0.01140196       0.19432807
H       -0.08199798     -14.51955915      13.74883820      -0.15447331       0.13430667      -0.17879226
O        1.14243012       6.21269803       1.07806781       0.33903266      -2.05332563       1.45021490
H        1.59109291       5.20221265       1.10858260      -0.02459429       0.07903923      -0.07347685
H        0.86635377       6.21007133       0.15162888       0.05807117       0.02334382      -0.45787767
O        3.09166955       1.33337327       8.34744415       1.09899027      -0.24795870       0.69116872
H        2.14944768       0.74874453       8.19815336       0.20284369       0.50487549       0.18478061
H        3.22247399       1.64576576       9.26262468       0.05763922      -0.27843877       0.04451781
O      -18.86510400      28.79881958     -16.13578514       0.57000461       0.68249130      -0.35590696
H      -18.58705058      28.70736606     -17.18820026      -0.08764594       0.37962470      -0.04954462
H      -18.03824617      28.13633983     -15.81258743      -0.17275714       0.30916924      -0.02016174
O        2.89540367      26.89026468      -9.10903365      -0.75589538      -0.60197819      -0.29033438
H        3.40926209      26.86899136      -8.46630355       0.60517286       0.14957851       0.77161936
H        2.37334187      26.10010944      -8.80614492       0.13159344       0.49378273      -0.22195027
O      -18.04877983      19.05786190       1.91247208      -0.84693844      -1.06452313       0.24654671
H      -17.36673349      18.82550770       1.10503428      -0.27230406       0.01991975       0.42909164
H      -18.83450801      18.40985569       1.64582398      -0.04504487       0.02652971      -0.01516948
O       11.69576197      17.57308322       7.08277104       0.20771553       0.02771691      -0.37150985
H       12.57577702      17.40155679       6.63177735      -0.06248547      -0.05417221       0.02178591
H       11.43233080      18.34287371       6.51407456      -0.21950777      -0.03456758      -0.01629657
O       -7.22063409     -11.18237169       5.19613146      -0.75761086      -0.58558156      -0.03196200
H       -6.51617070     -11.34102575       4.53144852       0.41521474      -0.00480203      -0.01212307
H       -7.33124374     -12.15211726       5.46440584      -0.02669437      -0.00834497       0.19087608
O      -24.12064202       3.44848637      10.69921988      -0.60439349      -1.56407435       0.28341229
H      -24.77610829       4.16997544      10.52153175      -0.15513421      -0.02464472      -0.08588673
H      -23.19542138       3.73824704      10.25620786      -0.07416670       0.06870395       0.06716560
O      -11.42808209      -8.18323145      18.46946763      -0.60135718      -0.72694221      -0.00229156
H      -10.60297360      -8.52101188      18.82585941       0.20422196      -0.13784915       0.23921478
H      -11.33388187      -8.47975676      17.58052152       0.00563687       0.02021992      -0.47453033
O        8.63660160       7.31732221      16.93627106      -0.58710276       0.84132587      -0.37231845
H        9.62819670       7.36276630      16.79994998      -0.44212105      -0.12144232      -0.19569378
H        8.33037002       6.78458444      16.20418076      -0.12228438      -0.10001041       0.00253016
O      -11.66603653      -0.47691595      20.41148351       0.56270755      -0.12964014       0.33854568
H      -12.51226005      -0.30962415      20.81274531      -0.04446941       0.05884678       0.03641903
H      -11.55235564      -0.51776764      19.38934202      -0.12253669      -0.06698925       0.27609919
O       24.20235953       2.47231312      16.24377458      -0.77758119      -0.09968777      -0.86684591
H       23.83231844       2.48373363      17.11545988       0.06064904      -0.01363618       0.27555122
H       23.89760491       1.52102261      15.88638245       0.18080839       0.42320637      -0.17661282
O       -5.65979969     -17.96752172      -4.98593028      -0.50521847       0.50800730      -1.07719944
H       -4.88438726     -17.64274677      -4.63230596       0.47519223      -0.23533181      -0.08986148
H       -5.84781948     -18.65503028      -5.63098829      -0.01208869      -0.35148686      -0.23502166
O       29.50819915      -9.01047681      -6.13942772      -0.72470700       1.28127859      -0.22236109
H       30.18915840      -9.07053955      -6.89891742      -0.06550274       0.06175232       0.25044020
H       29.32512151      -9.92430583      -5.99958985      -0.38926389      -0.40544345       0.03136596
O        8.81245108      -0.69182579       3.38552356       0.22932956       0.57310257       0.97805845
H        8.15725091      -0.09310250       2.96557906       0.22231996      -0.13340942      -0.11721078
H        8.20389743      -1.40994371       3.73943042       0.25885806       0.17413059      -0.33480716
O      -19.77581234      -3.17353024      24.77563651       0.15928835       0.30965836       0.14658402
H      -20.23960384      -3.93726390      24.22297779       0.16213546       0.06004770       0.03816580
H      -19.22617234      -3.35596171      25.63010714      -0.11399694      -0.02975722      -0.35825450
O        2.34554000      -5.82310219      -6.04348054       1.29402427       0.65731560      -0.00951400
H        2.61068102      -5.56180746      -5.18614087       0.08794515       0.25236785       0.60776363
H        1.84678674      -6.59805443      -6.18501191      -0.07950625      -0.23677843      -0.32415171
O        9.83153205       8.29075565       7.94498027       0.27022998      -0.11367780       0.11829738
H       10.56203999       8.62703492       7.38872934       0.00163363      -0.44167209      -0.03908112
H       10.27936275       7.61212461       8.45736660      -0.03507170      -0.10502024      -0.20849757
O        5.33707250       9.75202125      -4.80319984       0.75214113      -0.08654043      -0.52469718
H        6.10697029       9.07286490      -4.75377017      -0.22869963       0.33345439      -0.00123293
H        4.81052913       9.65686143      -4.00271454       0.16173862       0.01139067      -0.12390401
O       13.78069399      29.46893087      15.87229202      -0.58537430      -0.02876186       0.12275119
H       12.97654042      29.05165974      16.07967835      -0.08657339      -0.09003977       0.10871108
H       14.50146432      28.83440313      15.94292429      -0.10551296      -0.20063990      -0.02203896
O       -2.79945812       3.97700520       1.67398713      -0.58759742       0.10055193       0.47142609
H       -2.10178850       3.55257814       2.40061897      -0.12233245       0.15363565       0.11947346
H       -2.67067354       4.88433800       1.83049211       0.00160562      -0.10108905       0.06900447
O        7.80955440     -14.01356661      10.97925361      -0.22515837      -0.47780668      -0.64501828
H        6.87220216     -14.49130952      11.24994534       0.30546097       0.22456267      -0.26416376
H        8.11479024     -13.93802597       9.99640394       0.24707159      -0.27335288       0.09280805
O       -2.41275235      10.55194223      24.39936704      -1.90615512       0.34967018      -1.08409178
H       -2.11083700      10.17269213      23.61087930       0.19828963      -0.28680370      -0.45850316
H       -3.22970098      10.99599453      24.04412313       0.35976950       0.15022505       0.41942601
O       20.08299961      21.73103312       1.53798485      -0.67219077       0.50264031       0.70339264
H       19.93326065      22.11219599       2.50843233       0.15750729       0.08182076      -0.41717119
H       19.85266041      20.74585636       1.62916598      -0.00641723       0.33238104      -0.46207939
O       12.13745111       9.99606976     -15.93647010       1.12402950       0.19540621      -0.10903169
H       12.65819518       9.40163987     -15.33443129      -0.06545090      -0.06611050      -0.26318480
H       12.36163643       9.96531610     -16.92663509       0.11002527       0.18939907       0.76493407
O      -11.40538782      22.30887768       1.06076560      -0.04737302      -0.74281790      -0.19938313
H      -11.55560520      21.23292063       1.17097944      -0.13183966       0.30083230       0.05165170
H      -10.82809343      22.43508053       1.83015681      -0.04080261       0.14479090      -0.06695664
O        2.95075963     -15.02143071      16.15840864      -0.17250725      -0.67594527      -0.89467901
H        3.46048697     -15.76947999      16.57924672      -0.38456698       0.00007702       0.12807727
H        3.57930575     -14.29345802      16.03652652       0.16796298       0.25792022      -0.20393587
O        2.45681842      16.36305018       0.35495337      -1.05742944      -0.50393030       0.65201655
H        2.09950278      16.03280409      -0.39779033      -0.18338517       0.04612970      -0.38214884
H        2.75368923      15.46705833       0.60259897       0.28072689       0.12034083      -0.13721523
O       -5.65188914      -7.28334741       5.59677238      -0.98413853      -0.22916155      -0.12315275
H       -5.42098049      -8.03894231       6.07034153       0.00794200      -0.05406372       0.39504892
H       -4.87425430      -6.73321845       5.21238648      -0.61263681      -0.08728084      -0.17488464
O       -2.16809219       2.36850758       6.64569280       0.14971564       1.21980760      -0.16393179
H       -1.95327198       3.31023414       7.00154607      -0.28563906      -0.25247860      -0.20987826
H       -1.86660507       1.95001851       7.40176543       0.13431951      -0.39045475       0.39565423
O       13.16357588      -5.43834412      -1.44124282      -0.12196197      -1.22649461      -0.12993031
H       13.90987908      -5.19169133      -1.98496506       0.47610708       0.06454849      -0.20892474
H       12.84863304      -6.31233199      -1.94267801       0.21416471      -0.20754277       0.37615661
O       11.83075354       4.88756014      22.73204382      -0.49590963      -0.06382838       0.24284593
H       11.21699042       4.19561697      23.05068036       0.27905588       0.13540530      -0.23147610
H       11.84838356       4.99632467      21.78260209       0.17311564      -0.40228288       0.00931238
O        8.20946666      14.50854292      23.76591095      -0.88013224      -0.78792550       1.54396320
H        9.02568580      14.96156061      24.04443957      -0.10780160      -0.03716877      -0.32563293
H        8.10143995      13.53762687      24.14521600      -0.08083556       0.33069450      -0.07802360
O       -8.10596851       7.02374446      11.40682844       0.46196065       0.15238317       0.24244467
H       -7.32923822       6.56266329      11.03059934       0.10864868      -0.26527131      -0.01649243
H       -8.29880396       6.27300202      11.91854878       0.02293896      -0.16292731       0.14286366
192
Lattice="12.749291614851055 0.0 0.0 -5.291679993206312e-07 12.749291614851055 0.0 -5.291679993206312e-07 -5.291679993206312e-07 12.749291614851055" Properties=species:S:1:pos:R:3:momenta:R:3 step=20 time_fs=2.0 phase=equilibration pbc="T T T"
O       11.59335260       0.72646681     -16.51298328       1.09405540       0.07758285       1.02529065
H       11.88299075       0.84352024     -15.60311996       0.38246869       0.30833578      -0.41112101
H       10.81013293       0.18486595     -16.45652578       0.26188947       0.01642180      -0.09612123
O       26.36761733      24.78961359       4.86696560       0.43937534      -0.58129067       0.89010594
H       26.69876217      23.91798881       4.61824580      -0.11790690       0.61558307       0.25367076
H       25.50348054      24.98847805       4.48635832       0.08919096       0.21810574      -0.04824424
O        4.55140989      -0.28951828       6.66444918       0.04473626      -0.35512386      -1.62208311
H        4.87969026      -1.09319328       7.09503747       0.33195426      -0.28024719      -0.08544690
H        4.11145924       0.12845673       7.40935446       0.26404523      -0.01574298       0.00325186
O       -2.85096728      -4.42779439       1.00378037      -0.21704225       0.79098172       1.12434216
H       -2.60190601      -3.69571142       0.38741833       0.07905081       0.22206071      -0.27407162
H       -3.67272209      -4.18374443       1.50431718      -0.22652797      -0.00652380      -0.03235765
O        4.25944304      15.85221870      10.72992311       1.02293629       0.41048288      -0.50990973
H        4.31942636      16.65661408      11.21376792      -0.01363513       0.26020535       0.03194256
H        5.10720577      15.74008816      10.35368846      -0.44188966       0.23516215      -0.12421731
O       -1.38856966       6.64302203       5.14133705      -0.28137700      -0.76194985       0.79666993
H       -1.21471200       6.32245550       4.22596451      -0.27978632      -0.14740385      -0.52157917
H       -0.49687757       7.03222854       5.20003520       0.10757101      -0.02981600      -0.13145063
O       22.81745552      12.31073769       5.78387295      -0.05078171       0.61104846      -0.37613247
H       23.16371153      13.17600652       5.95974743      -0.08889762      -0.42168546      -0.07341439
H       22.48597771      12.42251203       4.82241182       0.01940084      -0.14637905       0.56698599
O       -1.01086053     -15.76960822       6.81649601      -1.59408624       0.76294879      -0.12259272
H       -0.48112381     -16.07519089       6.07222339      -0.06022058       0.04049894      -0.42264590
H       -1.45811110     -14.89769520       6.48923757       0.34349464      -0.46280233       0.15663666
O       15.46607452     -17.89057084       9.66948672       1.09726945      -0.71655241       0.70747797
H       16.14455133     -18.30636747      10.24151860      -0.50651131       0.08728455      -0.39617410
H       15.68317098     -16.94847689       9.67158821      -0.15149205      -0.23193755      -0.25332893
O        3.26064094     -14.65987281     -13.34085625       0.84678351      -0.06077965      -0.76966684
H        4.09173816     -15.16880000     -13.24103355      -0.05766602       0.49194948       0.10523163
H        2.56495455     -14.93196577     -12.69167571       0.02334587      -0.19376387       0.06361954
O       -5.74583483       1.55954621       2.85427911      -0.22506669       1.23807065      -0.24992729
H       -6.43690501       1.29462763       2.26316906       0.07945714      -0.16442578       0.26287432
H       -5.43409870       2.38202386       2.35462357       0.01292292      -0.04476336       0.39773653
O       -5.38104728      16.03163505      25.98010300       0.52076298       1.42648852      -0.70907579
H       -5.32012009      15.34567868      25.30888483      -0.09675864       0.19266217      -0.30894128
H       -4.34703363      16.51178479      26.01398891      -0.19467521      -0.38029793      -0.06045153
O        7.43688360     -15.71135721      -8.54876757       1.53191758       0.35717888       1.37832832
H        7.79436115     -16.59196131      -8.19417437       0.20356417       0.16383078       0.04115506
H        6.62969402     -15.66428448      -7.94628322      -0.47192382       0.37198074       0.32385784
O       13.68114203       8.54715849      17.94259443       0.21327695       0.17173733       0.46588453
H       14.03432824       8.75206925      17.09455643      -0.07269690      -0.26682515       0.49443716
H       14.23600852       7.93202499      18.45039714      -0.11455489       0.26730204      -0.34523109
O       -0.15217520       1.18730933      -1.24466210       0.09590302       0.72464605       0.78383771
H        0.78591123       1.38642724      -1.18008648      -0.26179026      -0.11297286       0.01397420
H       -0.11480424       0.35205807      -0.65228229      -0.26396970       0.29706304      -0.33831911
O      -14.19240392      12.66487584      15.80900443       0.02379637       0.02593782      -0.00733957
H      -14.05177022      12.35056871      14.85316970       0.21523525      -0.15959168      -0.37886169
H      -15.07250548      12.23900820      16.01995466       0.46352455       0.14485103       0.07275595
O      -16.48314743       5.89906764      12.34679724       2.27206551       0.88210635      -0.06179766
H      -17.06237029       5.96612769      11.58595975      -0.01573067      -0.07419276      -0.36096348
H      -15.92960603       6.78138127      12.53507714      -0.49567295      -0.24389798      -0.34750564
O       -9.93774838      32.94855327      -9.57167801      -0.61603534      -0.89131928      -0.50063443
H       -9.33472048      32.26046736      -9.22780048      -0.06494139       0.22989695      -0.32876194
H      -10.58682630      32.33739445     -10.02929024       0.22065159       0.31740874       0.51132316
O       34.73410294      11.51302887      21.44042691       0.83887306      -0.59244681      -1.22917515
H       34.78542108      11.54856913      20.36280373       0.04430576       0.12017597       0.01922765
H       35.18968092      10.59430535      21.43428791      -0.00684030       0.36702466       0.37590202
O       30.39423587     -12.69386326       2.17070395       0.46560078       0.49336901       0.18000388
H       29.74494490     -12.12094348       2.63762739      -0.22141951       0.12097896      -0.07847266
H       30.29489643     -12.62617972       1.19459798      -0.20133539      -0.00254171      -0.63095061
O       17.59097070       9.33441969      -7.42964141      -0.08970721      -1.54054436      -0.56567055
H       17.67599459       8.32383857      -7.51644980      -0.45740355       0.70990141      -0.20396538
H       17.45940112       9.50599169      -6.49913380      -0.16535895       0.04929661       0.06615737
O       -5.18630471       2.62146910      32.18214738       1.12458276      -0.64503017       0.42746891
H       -5.81658243       2.13244129      31.60882120      -0.34159185      -0.24148190      -0.09888060
H       -4.48336532       1.97456235      32.30492260       0.32046400       0.03253288       0.26499069
O        3.73937278       0.84518642      -0.23557320       1.20362047       0.72981430       0.49990504
H        3.49949028      -0.08547112      -0.27443970      -0.06840070       0.03261382      -0.03394208
H        4.09561025       1.19296392      -1.04098310       0.34236701      -0.11483040      -0.56536101
O       23.25063831       3.22526775      11.66782179      -0.81134305       0.47421538       0.44079071
H       22.96662870       3.67082895      12.50403551       0.58370204      -0.29097564      -0.40113815
H       23.94488478       2.54085814      11.70654289      -0.10186877      -0.14544859       0.06668643
O       -1.44499406      31.81183472      14.99509294      -0.18002982       0.52241662       1.28981650
H       -1.91321544      32.50421498      14.50916668      -0.07509391      -0.37642153       0.17848201
H       -0.59775079      31.97364978      14.49932263       0.28599317      -0.05231605      -0.17929402
O        4.82919619      19.39210044       5.20720333      -0.67296459      -0.02956334       0.55733135
H        4.21922520      18.94514813       5.80248266       0.28754959       0.19683072      -0.60866445
H        5.67353313      18.95857110       5.22267009       0.11674334      -0.24864574       0.08401942
O      -10.12681096      10.47838226       9.46293775      -0.86789885       0.55112425      -0.07576671
H      -10.59583492      10.92981642       8.70190487      -0.02316985      -0.28441109       0.64653601
H      -10.53418517      10.87217806      10.23646018      -0.22467467       0.16705716       0.57102710
O       17.70609263      17.76385537      26.20560033       0.13266324      -0.29545021      -1.15234592
H       18.51814870      17.28317870      25.99120330      -0.12922446       0.25427843       0.02838686
H       16.88592481      17.25081974      26.06247613      -0.20164805       0.03697494      -0.07424781
O        6.93509771      18.71864825      10.12595068      -0.05057949      -0.74614367       0.42131539
H        7.20021304      19.41800759       9.50804691       0.11990229      -0.12895107      -0.29580006
H        6.73831821      17.92058975       9.61081479      -0.14728811       0.46999959       0.00745665
O       -0.61856393     -13.80329897      13.26286932      -0.18437451      -0.73717592       0.15041112
H       -1.36119593     -13.98455635      12.64622135      -0.10146408      -0.00607115       0.28573773
H       -0.10402247     -14.49849932      13.72291243      -0.28341899       0.27607555      -0.33465407
O        1.14454599       6.19926362       1.08641113       0.34810242      -2.30328974       1.23670573
H        1.58371769       5.22077536       1.10041919      -0.12911184       0.31201423      -0.09265000
H        0.87546850       6.21431183       0.11536756       0.13653095       0.06514116      -0.25482156
O        3.09768578       1.33141446       8.35140072       0.86898478      -0.39139950       0.61610879
H        2.18354023       0.80856551       8.22110705       0.49270179       0.71343827       0.28083905
H        3.22744481       1.61498528       9.26201641       0.05303639      -0.34161252      -0.02974576
O      -18.86089130      28.80231127     -16.13788567       0.72330090       0.57836208      -0.41125784
H      -18.59582317      28.74443672     -17.18666835      -0.09964391       0.38941693       0.08165316
H      -18.06203751      28.17207044     -15.81589422      -0.31934749       0.43001252      -0.04950986
O        2.88863908      26.88602031      -9.11205080      -1.24568401      -0.58098262      -0.59991732
H        3.49844470      26.88100549      -8.36508611       1.12332478       0.12412269       1.14952530
H        2.38655887      26.15223019      -8.83050121       0.05484967       0.48557861      -0.26008885
O      -18.05370455      19.05052242       1.91307963      -0.83878773      -1.26049137      -0.05554388
H      -17.40414429      18.82949499       1.15879020      -0.49941823       0.07079239       0.68023047
H      -18.83131261      18.42033325       1.64727977       0.11174247       0.20156196       0.05280190
O       11.69729774      17.57340210       7.07963817       0.33400080       0.15027463      -0.61030555
H       12.56771318      17.39487583       6.63965689      -0.09126335      -0.07700733       0.13521683
H       11.40773947      18.33440460       6.51883867      -0.27855807      -0.13261668       0.11162943
O       -7.22479600     -11.18692779       5.19555854      -0.61443568      -0.94409345      -0.14568503
H       -6.47988117     -11.33581692       4.52764540       0.30665047       0.10356421      -0.04856671
H       -7.33982208     -12.14255778       5.48437287      -0.14590770       0.20082709       0.21323815
O      -24.12367339       3.43965630      10.70024709      -0.48491736      -1.29470357       0.09475651
H      -24.78195962       4.15996738      10.51502345       0.02860036      -0.17985452      -0.04365682
H      -23.21859500       3.73992202      10.26934790      -0.41021914      -0.03458125       0.20724286
O      -11.43137965      -8.18775290      18.46950764      -0.47341341      -0.81774328       0.06446596
H      -10.58076069      -8.53433510      18.85433263       0.19409246      -0.12076123       0.31234039
H      -11.33781565      -8.47546604      17.52867201      -0.08372604       0.08325864      -0.51073510
O        8.63354392       7.32232567      16.93368856      -0.43686362       0.80911728      -0.40066203
H        9.57623287       7.35053514      16.78573038      -0.55143482      -0.12039671      -0.09504723
H        8.31547440       6.77483471      16.20028425      -0.18474912      -0.09175575      -0.07153761
O      -11.66217810      -0.47786768      20.41245274       0.62734455      -0.17448658       0.09280216
H      -12.51895416      -0.30138538      20.81540551      -0.08165619       0.10592556       0.01737352
H      -11.56798036      -0.52432601      19.42995977      -0.19766033      -0.06856345       0.54233219
O       24.19695699       2.47101121      16.23781462      -0.89259314      -0.30577150      -0.96140276
H       23.83764706       2.48330667      17.14681906       0.07327069       0.00374559       0.32703810
H       23.91971737       1.57600038      15.87288445       0.27724983       0.69093161      -0.09694787
O       -5.66366071     -17.96450348      -4.99292333      -0.73036255       0.38941414      -1.22520363
H       -4.82395326     -17.66127334      -4.63940158       0.71060710      -0.16721977      -0.07570209
H       -5.84827199     -18.68525198      -5.65026547       0.00504072      -0.24846702      -0.13897280
O       29.50379485      -9.00255559      -6.14160921      -0.61691840       1.18763862      -0.48171130
H       30.17486353      -9.06087388      -6.86070351      -0.20836538       0.12736888       0.51430099
H       29.28500380      -9.96490678      -5.99304353      -0.40377148      -0.35169137       0.08436391
O        8.81305311      -0.68852951       3.39132180       0.03835086       0.51395754       0.91995233
H        8.18123788      -0.10454204       2.95520076       0.25976477      -0.08196709      -0.10731164
H        8.23275110      -1.39194245       3.70707811       0.31221188       0.15954097      -0.31000051
O      -19.77478644      -3.17215544      24.77625529       0.07917614       0.12594685       0.14523505
H      -20.21388345      -3.92102922      24.23963174       0.35591601       0.27049079       0.30303236
H      -19.24763127      -3.35738388      25.58072099      -0.31147012      -0.00202862      -0.62003526
O        2.35397222      -5.81841774      -6.04368741       1.44130887       0.80808205      -0.03503302
H        2.61807312      -5.54035927      -5.12402587       0.04970144       0.17345412       0.60751098
H        1.83304448      -6.62834625      -6.21477299      -0.16886374      -0.33300735      -0.28228057
O        9.83350731       8.29004068       7.94561254       0.40119038      -0.08683050       0.12905995
H       10.55776161       8.58738784       7.38351657      -0.07155099      -0.35822685      -0.08111797
H       10.27258544       7.59700310       8.44096131      -0.09991090      -0.21148454      -0.11795910
O        5.34233528       9.75077669      -4.80642150       0.96673881      -0.25114106      -0.56150578
H        6.07276068       9.11392516      -4.75434135      -0.43605870       0.48455040      -0.01305069
H        4.82540268       9.65772901      -4.01441999       0.12987453       0.00940077      -0.09954982
O       13.77746344      29.46837928      15.87260754      -0.41647884      -0.05031973       0.04956645
H       12.95805919      29.04032097      16.09136585      -0.26906547      -0.12475915       0.12990214
H       14.49218365      28.81311792      15.93994067      -0.09489666      -0.21583066      -0.03630412
O       -2.80272467       3.97619697       1.67717114      -0.48367341      -0.33087950       0.57968891
H       -2.12149652       3.57165004       2.40214324      -0.28261019       0.23510878      -0.08776099
H       -2.66658515       4.89132825       1.83937000       0.07605724       0.23218226       0.10970122
O        7.80760547     -14.01659897      10.97476266      -0.37525573      -0.57354472      -0.78267436
H        6.91865261     -14.46054095      11.21631106       0.64232517       0.39951019      -0.41532852
H        8.13160896     -13.96894687      10.01737739       0.10084222      -0.35791082       0.34683490
O       -2.42493351      10.55412733      24.39243130      -1.99875527       0.35205553      -1.11565214
H       -2.08288065      10.13888181      23.55942393       0.33664699      -0.36238600      -0.52259611
H       -3.19727521      11.01334545      24.09037142       0.27422023       0.22461640       0.51281773
O       20.07829434      21.73334478       1.54329339      -0.76887089       0.37600481       1.01603454
H       19.94966909      22.11549594       2.45416196       0.18059076      -0.00527262      -0.68454052
H       19.85456342      20.78788522       1.58306043       0.04124473       0.50681810      -0.47825569
O       12.14453626       9.99686882     -15.93701626       1.19488374       0.13087704      -0.07238227
H       12.64791470       9.39930499     -15.36866375      -0.12316074       0.00065712      -0.42440004
H       12.37024901       9.98274629     -16.84290221       0.09190298       0.16859568       0.86631989
O      -11.40550019      22.30310327       1.05972318      -0.04086684      -1.05003443      -0.13793270
H      -11.56650512      21.27849438       1.17458371      -0.09649185       0.64163108       0.01645128
H      -10.83304998      22.44816893       1.82249078      -0.05905153       0.13761781      -0.08556703
O        2.95017901     -15.02556704      16.15285719      -0.00145748      -0.69911606      -0.85795674
H        3.41843145     -15.75985164      16.58740706      -0.46322543       0.17744248       0.05191992
H        3.59020535     -14.27548174      16.01878890       0.04048334       0.08433825      -0.15049546
O        2.45082671      16.35963824       0.36001253      -0.91429996      -0.54627006       0.93230070
H        2.07117717      16.03439100      -0.45105146      -0.37572485       0.02166382      -0.66148985
H        2.78157387      15.48348560       0.59084661       0.30220158       0.19720170      -0.08856828
O       -5.65767208      -7.28389996       5.59516902      -0.95715061      -0.04461157      -0.33398017
H       -5.41390419      -8.04944140       6.11409264       0.12842464      -0.13258827       0.48531184
H       -4.94055779      -6.75023810       5.20320586      -0.70506014      -0.23554501      -0.02951141
O       -2.16716843       2.37699300       6.64445847       0.16498713       1.47996053      -0.14183902
H       -1.98453375       3.28030663       6.97270614      -0.35014968      -0.32938533      -0.36928146
H       -1.84972744       1.89987291       7.44957154       0.18226418      -0.59386756       0.51174407
O       13.16264307      -5.44674137      -1.44257541      -0.08314889      -1.51523201      -0.33487514
H       13.95399958      -5.18490247      -2.00370845       0.38603981       0.05437251      -0.14663762
H       12.87252417      -6.32072190      -1.89817335       0.28154317       0.03592147       0.53323596
O       11.82765875       4.88708366      22.73353526      -0.43079082      -0.03617808       0.33162955
H       11.24507161       4.21196428      23.02449802       0.26740504       0.16327921      -0.27971208
H       11.86341157       4.95658884      21.78196371       0.14072104      -0.40877790      -0.02556199
O        8.20380139      14.50271884      23.77555403      -0.94238703      -1.04004220       1.68910127
H        9.01302845      14.95587174      24.01175608      -0.13568649      -0.06981366      -0.33268547
H        8.09553228      13.58415953      24.13055697      -0.03720043       0.61674485      -0.21183575
O       -8.10257986       7.02473668      11.40772112       0.60891426       0.15179281       0.11832720
H       -7.32100504       6.54175016      11.02914924       0.04833771      -0.15089119      -0.00918449
H       -8.30074795       6.24907877      11.93951212      -0.05985559      -0.28664991       0.26753619
192
Lattice="12.749016432291574 0.0 0.0 -5.291565776817788e-07 12.749016432291574 0.0 -5.291565776817788e-07 -5.291565776817788e-07 12.749016432291574" Properties=species:S:1:pos:R:3:momenta:R:3 step=30 time_fs=3.0 phase=equilibration pbc="T T T"
O       11.60000215       0.72698018     -16.50668383       1.15520947       0.10128960       0.87905366
H       11.92305895       0.87457399     -15.63736865       0.45154557       0.33232424      -0.27311388
H       10.83092375       0.18267052     -16.46606372       0.15745022      -0.06991199      -0.10262890
O       26.36953381      24.78571409       4.87249920       0.34770342      -0.44950263       0.96591682
H       26.68724344      23.97376132       4.64154312      -0.07932723       0.47413457       0.20521765
H       25.51406851      25.00814775       4.48168740       0.13725821       0.19824838      -0.04627056
O        4.55173383      -0.29206806       6.65445027       0.10361264      -0.50544458      -1.56743596
H        4.91275209      -1.11939581       7.08208755       0.33010477      -0.21807691      -0.19101421
H        4.13277697       0.13337455       7.41219402       0.18372412       0.10480845       0.05057101
O       -2.85263114      -4.42218068       1.01059366      -0.33672202       1.02015224       1.08870495
H       -2.59750563      -3.68256262       0.36832566       0.00626813       0.03177519      -0.10613027
H       -3.68138765      -4.18543381       1.49307340       0.04600432      -0.02956173      -0.19511721
O        4.26482641      15.85428398      10.72673450       0.75071818       0.41471586      -0.41981921
H        4.31671992      16.69102846      11.22279702      -0.04052389       0.40895163       0.13012811
H        5.08067507      15.75597473      10.33026664      -0.08790321       0.10089605      -0.35805292
O       -1.38965984       6.63815851       5.14549747      -0.07167788      -0.77833017       0.57242534
H       -1.24755660       6.30899086       4.17932497      -0.39845745      -0.12077950      -0.41305301
H       -0.48962773       7.02961441       5.19060627       0.03221985      -0.02433987      -0.05744377
O       22.81630301      12.31384055       5.78070266      -0.15135948       0.44590997      -0.55102966
H       23.15936018      13.14411759       5.95839615       0.02991761      -0.18889962       0.06532273
H       22.48751154      12.40418328       4.88786660      -0.01059376      -0.22410568       0.69416497
O       -1.02077064     -15.76388213       6.81506571      -1.59516496       0.93004326      -0.29937824
H       -0.48880288     -16.06874434       6.03487128      -0.10830894       0.08584264      -0.31779568
H       -1.41868258     -14.95379657       6.50758846       0.42925142      -0.63253240       0.20495939
O       15.47229561     -17.89453863       9.67365304       0.97712628      -0.69780514       0.67152471
H       16.09743172     -18.30093232      10.20529880      -0.39270351      -0.03108782      -0.29076957
H       15.66769795     -16.96557597       9.64443680      -0.15444405      -0.08662220      -0.30417256
O        3.26552851     -14.66028281     -13.34474391       0.73396341      -0.15757399      -0.59254137
H        4.08457380     -15.11970238     -13.23211666      -0.05575982       0.49121075       0.07731772
H        2.57250688     -14.94905040     -12.69200134       0.13133669      -0.16213927      -0.07602303
O       -5.74659414       1.56790910       2.85256549      -0.07061044       1.46733101      -0.26463725
H       -6.43889189       1.27053273       2.28521583      -0.12527825      -0.32785454       0.18627810
H       -5.43180796       2.37146228       2.40100157       0.04026501      -0.14314209       0.53652190
O       -5.37720104      16.04024683      25.97509097       0.70554029       1.48931670      -0.74867309
H       -5.32761875      15.36813204      25.27883092      -0.06283608       0.27726789      -0.29082531
H       -4.37839953      16.46745051      26.00919388      -0.45915421      -0.52142428      -0.02572488
O        7.44558044     -15.70960035      -8.53913520       1.35304679       0.11533535       1.69611611
H        7.81226260     -16.56620408      -8.19650712       0.15856929       0.35820557      -0.08688333
H        6.59303852     -15.62546886      -7.92412753      -0.26656878       0.40621127       0.12723311
O       13.68172070       8.54792485      17.94566792       0.02446938       0.16076624       0.67817654
H       14.03188445       8.73013750      17.13169053       0.04432491      -0.15904594       0.21555796
H       14.22444518       7.95756027      18.41765486      -0.08146675       0.21298827      -0.27077002
O       -0.15168933       1.19095433      -1.23941066       0.02508421       0.49464038       0.89614635
H        0.76550868       1.38010806      -1.18063734      -0.12042005      -0.00777069      -0.02432943
H       -0.14539603       0.38674548      -0.69029456      -0.36236921       0.38554994      -0.42143723
O      -14.19201157      12.66432355      15.80777157       0.04935716      -0.09549632      -0.29433113
H      -14.03046979      12.34012015      14.82817470       0.21324582      -0.04708091      -0.12292974
H      -15.02114134      12.25338073      16.02517664       0.54283815       0.13524146       0.05028382
O      -16.46823942       5.90505874      12.34620715       2.42950542       1.09036688      -0.08074194
H      -17.06103135       5.96088207      11.55352564       0.05639028      -0.03203938      -0.27038179
H      -15.98831279       6.74379381      12.49611961      -0.69877000      -0.50174123      -0.43887701
O       -9.94142221      32.94186919      -9.57468590      -0.62984021      -0.97172058      -0.52697062
H       -9.33681003      32.28559736      -9.25703487       0.05264870       0.26544916      -0.25792655
H      -10.56716561      32.37319169      -9.98113281       0.12334811       0.38460754       0.43744611
O       34.73896508      11.50821019      21.43152060       0.97769194      -0.86432094      -1.53293250
H       34.78715118      11.56547270      20.37367072       0.00720395       0.22738573       0.22432798
H       35.18339032      10.63901179      21.47433033      -0.09012605       0.52554753       0.45196171
O       30.39632807     -12.69013082       2.17123157       0.42258151       0.63502154      -0.02398553
H       29.72828830     -12.11348015       2.62589606      -0.10391233       0.02596266      -0.16068396
H       30.27431254     -12.62534819       1.14503790      -0.20198122       0.01285610      -0.35494855
O       17.59016121       9.32434847      -7.43288605      -0.05931399      -1.58439935      -0.52180595
H       17.62991388       8.39913479      -7.53579716      -0.47349175       0.74204189      -0.20997947
H       17.44360267       9.51134906      -6.49306696      -0.15052099       0.06738553       0.04932439
O       -5.17936110       2.61705818      32.18386228       1.10147069      -0.79187485       0.35018810
H       -5.84176992       2.11482573      31.60715300      -0.15234396      -0.11146827       0.09670376
H       -4.45400706       1.98124484      32.32963659       0.25490592       0.11852204       0.24725425
O        3.74679653       0.84975073      -0.23245552       1.26066095       0.76783457       0.45794123
H        3.49299131      -0.08213627      -0.28104865      -0.05958449       0.05076876      -0.10121946
H        4.12760482       1.17840384      -1.09403944       0.29218775      -0.20313992      -0.46895525
O       23.24528177       3.22795235      11.67025447      -0.74957179       0.38747391       0.36671321
H       23.02726956       3.64139112      12.46392343       0.65179153      -0.27806110      -0.35086489
H       23.93000726       2.53047065      11.71446015      -0.19238247      -0.06562421       0.10085887
O       -1.44526779      31.81452804      15.00224253       0.10580219       0.55361955       1.15739562
H       -1.92733186      32.46988568      14.52664879      -0.23188995      -0.28744938       0.16847591
H       -0.57269610      31.96257714      14.48937195       0.21742132      -0.16078838      -0.01417105
O        4.82512942      19.39174940       5.21023984      -0.55605312       0.06898263       0.43350012
H        4.24258051      18.96044728       5.74773439       0.14782025       0.09709665      -0.47154600
H        5.68165299      18.93530948       5.22937013       0.02799811      -0.20267953       0.05028820
O      -10.13235726      10.48193219       9.46225272      -0.98901727       0.65972289       0.02128122
H      -10.59513233      10.89906049       8.76792510      -0.00772248      -0.30319958       0.64338469
H      -10.54996994      10.88450324      10.28916324      -0.08524969       0.07245404       0.48182862
O       17.70610236      17.76164718      26.19777744      -0.04022873      -0.28448198      -1.20775875
H       18.50478863      17.30454176      25.99507674      -0.11098457       0.17462492       0.05469691
H       16.87381045      17.25756893      26.05636550      -0.03340160       0.11228779      -0.03710586
O        6.93472279      18.71385425      10.12815552      -0.00867631      -0.63808183       0.38262917
H        7.21028216      19.40122260       9.48198521       0.09028884      -0.20138030      -0.22803822
H        6.72397707      17.96487798       9.61143228      -0.15899931       0.39866377      -0.01303184
O       -0.61976215     -13.80739293      13.26346690      -0.23195743      -0.64337433       0.11853609
H       -1.36822350     -13.98668845      12.67565314      -0.05607442      -0.04991437       0.31239333
H       -0.13231066     -14.47198784      13.68804216      -0.26529323       0.21593280      -0.34485782
O        1.14665505       6.18412261       1.09304328       0.34747416      -2.58809077       0.92484991
H        1.56562111       5.26421918       1.09121847      -0.23956687       0.58341614      -0.08847817
H        0.89274335       6.22284581       0.10326671       0.21334818       0.11711457       0.00208798
O        3.10223191       1.32849192       8.35454424       0.66480071      -0.53473948       0.45985163
H        2.24405725       0.88597463       8.25161067       0.71453357       0.85315395       0.34213405
H        3.23350133       1.58061082       9.26028211       0.07401181      -0.35876573       0.01207133
O      -18.85541988      28.80481877     -16.14045890       0.94715405       0.42696586      -0.55321708
H      -18.60671743      28.78246279     -17.16950204      -0.13880970       0.40556460       0.27594071
H      -18.10116597      28.22001759     -15.82185903      -0.50617987       0.57629374      -0.08329904
O        2.88176566      26.88266741      -9.11474137      -0.90841914      -0.28838472      -0.31664285
H        3.61061414      26.89514555      -8.26462596       1.13235255       0.17107797       0.86712700
H        2.37391263      26.18391427      -8.85516877      -0.33195404       0.14749867      -0.23041689
O      -18.05877475      19.04170327       1.91197779      -1.00561469      -1.44803978      -0.20285978
H      -17.45647441      18.83785665       1.23179682      -0.48517875       0.08892670       0.72474989
H      -18.81293560      18.44892406       1.65762961       0.23076247       0.38223870       0.16677789
O       11.69932429      17.57424524       7.07519586       0.39724673       0.23822006      -0.76832956
H       12.55968489      17.38605605       6.65629550      -0.05563047      -0.09572795       0.19987994
H       11.37798538      18.31764560       6.53403028      -0.32688207      -0.19220845       0.19155807
O       -7.22787096     -11.19341366       5.19407862      -0.43968956      -1.22219459      -0.30573598
H       -6.45836349     -11.32182086       4.52367743       0.12600027       0.17120523      -0.02435686
H       -7.35809522     -12.11413747       5.50513792      -0.22557754       0.35829435       0.21612070
O      -24.12568410       3.43239609      10.70002037      -0.34328036      -1.06742161      -0.08306762
H      -24.77113702       4.13631493      10.51244790       0.16224228      -0.28494223      -0.00798124
H      -23.27424652       3.73138559      10.29609471      -0.71999770      -0.13345774       0.33608899
O      -11.43317932      -8.19322196      18.46940408      -0.18626582      -1.02575722       0.02761604
H      -10.57149806      -8.54251917      18.88019023      -0.02261579      -0.04863263       0.21024483
H      -11.34818375      -8.46133949      17.49052654      -0.12745295       0.20605001      -0.24006456
O        8.63003877       7.32686088      16.93071731      -0.70302851       0.70793075      -0.45512710
H        9.53544773       7.34007533      16.77968484      -0.22215871      -0.08833723      -0.02689303
H        8.29376701       6.76796624      16.19117642      -0.25477613      -0.03598383      -0.09649193
O      -11.65811870      -0.47894506      20.41254024       0.59926380      -0.17301667       0.14879065
H      -12.52516986      -0.28971967      20.81410867      -0.04034458       0.13021460      -0.04110237
H      -11.58954239      -0.53135810      19.48558565      -0.24464655      -0.07791159       0.54383198
O       24.19056621       2.46889878      16.23189362      -1.00155796      -0.29243438      -0.80771081
H       23.84789142       2.48426025      17.17272070       0.15221991       0.01762888       0.19647044
H       23.94869123       1.64798350      15.86428607       0.30618928       0.71117391      -0.10541877
O       -5.66780970     -17.96202798      -5.00062787      -0.60880763       0.30119051      -1.30225239
H       -4.75843120     -17.67851641      -4.65137997       0.57853945      -0.20856210      -0.18960014
H       -5.84647971     -18.70045959      -5.65584126       0.02842062      -0.06877948       0.02441983
O       29.49904802      -8.99608092      -6.14458166      -0.77871894       0.84158191      -0.47170804
H       30.15308103      -9.04672884      -6.80536911      -0.17674574       0.15306286       0.56355697
H       29.24830088      -9.98358144      -5.98495224      -0.32789555      -0.01543775       0.07417089
O        8.81306013      -0.68525210       3.39666060       0.05488828       0.56636517       0.84201309
H        8.20522679      -0.10568863       2.94224819       0.22808451       0.06938850      -0.16547795
H        8.25971660      -1.38572853       3.68204247       0.22613659      -0.05980936      -0.19186507
O      -19.77440103      -3.17156980      24.77613446      -0.10561239       0.10259729      -0.03768645
H      -20.17211721      -3.88774280      24.27755262       0.46597147       0.36502084       0.45076732
H      -19.27857876      -3.35804257      25.51941174      -0.28856297      -0.02778604      -0.56344550
O        2.36287411      -5.81335778      -6.04338083       1.45909532       0.78278208       0.09435866
H        2.61861416      -5.52936270      -5.07475544      -0.03941939       0.04749620       0.38936769
H        1.81925523      -6.65399019      -6.23842525      -0.09861626      -0.17185888      -0.20079871
O        9.83599709       8.28929955       7.94640947       0.47655164      -0.10915806       0.19803054
H       10.54995726       8.55817343       7.37060585      -0.07755893      -0.23631059      -0.18567442
H       10.25936456       7.57076089       8.43423442      -0.17044087      -0.31407425      -0.02268864
O        5.34818751       9.74920453      -4.81014333       0.92259109      -0.14064727      -0.69644647
H        6.03506414       9.15670545      -4.75655897      -0.26116375       0.34064559      -0.03762391
H        4.83191337       9.65887221      -4.01808526      -0.01110111       0.02287450       0.03695259
O       13.77489583      29.46694806      15.87239358      -0.34463864      -0.23206153      -0.00283138
H       12.92864217      29.02885704      16.10299221      -0.30136344      -0.08409756       0.10811235
H       14.47993235      28.79358976      15.93494232      -0.15854968      -0.16396147      -0.06108710
O       -2.80517418       3.97327450       1.68121677      -0.31980281      -0.53640585       0.76872727
H       -2.15703994       3.59761854       2.38310931      -0.44934642       0.29517186      -0.30382659
H       -2.65755194       4.92232132       1.85010401       0.09609169       0.35230885       0.09869616
O        7.80495618     -14.01998548      10.96928688      -0.35259223      -0.58336859      -0.90480824
H        6.99076534     -14.41595055      11.17101989       0.74787426       0.46342076      -0.48592426
H        8.13489566     -14.00587689      10.06141554      -0.02082174      -0.40120745       0.52267818
O       -2.43645859      10.55533812      24.38444595      -1.73483740       0.09021213      -1.32048947
H       -2.05198599      10.10866368      23.51834361       0.27353258      -0.23309938      -0.28714360
H       -3.18049257      11.04156991      24.13915868       0.05519086       0.36616884       0.48398701
O       20.07308362      21.73532243       1.54966994      -0.76075328       0.44292895       0.98158929
H       19.96572698      22.11521681       2.38568620       0.14376331       0.05568886      -0.62846228
H       19.85681810      20.83304558       1.53638437      -0.00475852       0.36301773      -0.48257188
O       12.15109984       9.99769865     -15.93608921       0.98542623       0.23801917       0.30046733
H       12.63902355       9.39523565     -15.41000806      -0.02510684      -0.11762918      -0.38404679
H       12.38329831       9.99803304     -16.77492145       0.19552022       0.15783650       0.43533962
O      -11.40549005      22.29531504       1.05897879      -0.03115476      -1.27674926      -0.11003666
H      -11.57519912      21.35336123       1.17309059      -0.10146066       0.83889322      -0.04619305
H      -10.83790772      22.46309912       1.81463449      -0.03607344       0.18904084      -0.06490531
O        2.95046251     -15.02905188      16.14708603       0.08846512      -0.50836144      -0.92931969
H        3.37388871     -15.73973728      16.59166964      -0.42736872       0.19297540       0.06318785
H        3.58597137     -14.27821280      16.00697147      -0.12308331      -0.14387923      -0.08536328
O        2.44505851      16.35555906       0.36542816      -0.97257750      -0.67659251       0.77900743
H        2.03115445      16.04347831      -0.51491811      -0.42663192       0.19419017      -0.60478520
H        2.81499659      15.50067877       0.58887096       0.39532976       0.14718109       0.06120562
O       -5.66397995      -7.28449232       5.59303508      -1.16637520      -0.25771194      -0.28415569
H       -5.39661689      -8.05896792       6.16131514       0.21863306      -0.04178081       0.47088979
H       -5.00075924      -6.77207601       5.20205061      -0.49138717      -0.19069322      -0.00879643
O       -2.16589218       2.38556869       6.64411150       0.22819899       1.25285473       0.06811906
H       -2.01940827       3.25491033       6.93363029      -0.35422940      -0.14017258      -0.40068628
H       -1.83462572       1.84200041       7.49138559       0.12127297      -0.56394980       0.33134643
O       13.16240758      -5.45653342      -1.44538197       0.12237204      -1.67754525      -0.57919046
H       13.97942106      -5.18299861      -2.01047745       0.12479715      -0.02467355       0.01572000
H       12.90262905      -6.30660830      -1.83990474       0.33283500       0.22142205       0.64618905
O       11.82535429       4.88730720      22.73517080      -0.22133925       0.16324676       0.34505564
H       11.26289020       4.22033111      22.99937271       0.08149345      -0.01674138      -0.20797945
H       11.87619947       4.91740004      21.77526781       0.13191485      -0.38805495      -0.10456218
O        8.19748134      14.49586003      23.78549140      -1.06819039      -1.00852536       1.67428294
H        9.00215154      14.94878296      23.97971639      -0.06133927      -0.05694098      -0.31037105
H        8.09306579      13.64647737      24.10726403      -0.02135526       0.57169764      -0.21954988
O       -8.09826673       7.02475063      11.40820698       0.73129813      -0.13649862       0.14314391
H       -7.32010986       6.53447239      11.02788357      -0.03041487       0.00853083      -0.01695431
H       -8.30915001       6.22528223      11.96537228      -0.11290021      -0.16510595       0.24929126
192
Lattice="12.748731800077591 0.0 0.0 -5.291447638286044e-07 12.748731800077591 0.0 -5.291447638286044e-07 -5.291447638286044e-07 12.748731800077591" Properties=species:S:1:pos:R:3:momenta:R:3 step=40 time_fs=4.0 phase=equilibration pbc="T T T"
O       11.60699018       0.72769925     -16.50164895       1.19872421       0.13554891       0.64066337
H       11.97044189       0.90821718     -15.65396346       0.52005466       0.35510314      -0.08090096
H       10.84024716       0.17120788     -16.47486431       0.04932626      -0.15750329      -0.08044957
O       26.37050023      24.78362847       4.87879086       0.14715045      -0.01520697       1.13084019
H       26.68685565      23.99926628       4.65468710       0.10208864       0.02512118       0.05408593
H       25.52850204      25.02659400       4.47703958       0.16685848       0.19506967      -0.04796820
O        4.55252795      -0.29586767       6.64511316       0.18601599      -0.73522719      -1.41394104
H        4.94117138      -1.13049155       7.05643187       0.24744609       0.00301344      -0.33121440
H        4.14916122       0.14598957       7.41679693       0.16467415       0.13924719       0.03629838
O       -2.85472548      -4.41506572       1.01691557      -0.33099573       1.25385814       0.95792646
H       -2.60085140      -3.69046139       0.36759686      -0.07553573      -0.19407651       0.09045337
H       -3.66700578      -4.18829741       1.46840145       0.21071155      -0.02041736      -0.28982052
O        4.26855526      15.85711614      10.72461947       0.51505500       0.65177824      -0.17946367
H        4.31213188      16.72557122      11.23202578      -0.04358626       0.26324281       0.03378358
H        5.08818694      15.76101373      10.28478885       0.21745989       0.02454969      -0.55196936
O       -1.38936100       6.63316292       5.14803375       0.15366749      -0.80292355       0.28774768
H       -1.29152039       6.29954258       4.14768855      -0.49534993      -0.06439548      -0.22310514
H       -0.49164842       7.02635029       5.18810817      -0.07542833      -0.04330750       0.00236190
O       22.81490420      12.31538322       5.77779511      -0.11827974       0.14153493      -0.30963427
H       23.17052584      13.14228935       5.97385042       0.21205494       0.16022275       0.25579861
H       22.47627190      12.37896938       4.94052265      -0.23046077      -0.28616883       0.34104564
O       -1.02976243     -15.75856626       6.81271618      -1.30175956       0.61261827      -0.40215449
H       -0.50244987     -16.05898580       6.01245384      -0.16936819       0.09863616      -0.13259656
H       -1.38462107     -15.00168014       6.52346681       0.22386524      -0.27378783       0.10142472
O       15.47696154     -17.89825974       9.67697451       0.64347537      -0.62956239       0.46911213
H       16.07405356     -18.31680240      10.19021609      -0.06949388      -0.30580874      -0.00590254
H       15.65282602     -16.96137051       9.61151161      -0.14263462       0.15181174      -0.36310921
O        3.26915585     -14.66095760     -13.34762638       0.45642884      -0.15627335      -0.45498585
H        4.08676021     -15.07538238     -13.22438214       0.12639375       0.40223382       0.07884342
H        2.58927074     -14.96296296     -12.70523486       0.20219013      -0.13266604      -0.19288669
O       -5.74674013       1.57691015       2.85114681      -0.05212842       1.42384035      -0.16703549
H       -6.45856455       1.23264706       2.30038812      -0.25386177      -0.42943963       0.13955381
H       -5.42391580       2.36134673       2.45411109       0.12646773      -0.03036692       0.52981359
O       -5.37196752      16.04923620      25.96971151       0.96430835       1.55329335      -0.81898101
H       -5.33312471      15.39869475      25.25163618      -0.06121781       0.35090363      -0.25695325
H       -4.43833275      16.40976212      26.00791109      -0.76769045      -0.64475927       0.01368765
O        7.45309563     -15.70892543      -8.52772864       1.13029510       0.03766577       1.93674780
H        7.82556164     -16.52505815      -8.20845004       0.13429891       0.43679642      -0.14252828
H        6.57844241     -15.58586219      -7.92074524      -0.02510581       0.39402311      -0.06111374
O       13.68051370       8.54896187      17.95016560      -0.32310705       0.24822022       0.90632768
H       14.04352476       8.72318463      17.12923679       0.19789632       0.02159444      -0.25755664
H       14.22397651       7.96679615      18.40347769       0.08670896      -0.03157617       0.00053352
O       -0.15214522       1.19394294      -1.23404868      -0.18032703       0.54108232       0.80742835
H        0.76677811       1.38569356      -1.18455193       0.15438968       0.12469349      -0.05664110
H       -0.18505075       0.41723441      -0.72764341      -0.45248085       0.18856639      -0.31206592
O      -14.19060856      12.66343394      15.80454228       0.33806243      -0.08478776      -0.65628090
H      -14.00981344      12.34113946      14.82898488       0.20362799       0.07540311       0.14912112
H      -14.97503064      12.26052256      16.03155921       0.36117203       0.00035784       0.10088937
O      -16.45331100       5.91121103      12.34487883       2.25989266       0.86349882      -0.28347637
H      -17.04876167       5.95943674      11.53578037       0.18374192      -0.00171508      -0.08753251
H      -16.05575360       6.69917711      12.45217948      -0.63651238      -0.31110384      -0.43662801
O       -9.94481783      32.93595653      -9.57754022      -0.53545808      -0.68219594      -0.46400177
H       -9.31978844      32.30587079      -9.27584790       0.30371430       0.15382128      -0.12865640
H      -10.57011112      32.40364711      -9.94812903      -0.21266299       0.23478361       0.22366314
O       34.74420492      11.50272369      21.42047298       0.94760015      -0.77155446      -1.92593948
H       34.78525847      11.59157865      20.40809369      -0.03078412       0.30944264       0.50248294
H       35.17719497      10.68380379      21.52186277       0.01444773       0.33387353       0.54058279
O       30.39806732     -12.68553898       2.17018724       0.36393092       0.76470847      -0.30456508
H       29.72321705     -12.11506327       2.60674151       0.00730328      -0.06054741      -0.22535685
H       30.25487972     -12.62303616       1.12715147      -0.18079560       0.02944152      -0.00914228
O       17.58939954       9.31549658      -7.43543431      -0.06327045      -1.18228978      -0.33630468
H       17.58356216       8.45127520      -7.56024610      -0.47101147       0.27719534      -0.30944273
H       17.42961312       9.51957779      -6.49010372      -0.12507587       0.10777049      -0.00068777
O       -5.17254110       2.61156709      32.18502163       1.08084651      -0.97230656       0.26400853
H       -5.84411521       2.11094059      31.62737826       0.10160485       0.03002133       0.33057583
H       -4.43547505       1.99839635      32.35080420       0.12544160       0.23039133       0.20111856
O        3.75482519       0.85458474      -0.23034236       1.38704667       0.81151084       0.21427379
H        3.48811612      -0.07406347      -0.29404561      -0.03828517       0.11697213      -0.16472907
H        4.14989946       1.15171546      -1.12619927       0.16281378      -0.34404853      -0.17847652
O       23.24051111       3.22959963      11.67120693      -0.64011371       0.16269392      -0.00308581
H       23.09016076       3.62152665      12.44499730       0.63800341      -0.10561792       0.00726108
H       23.90739769       2.52715363      11.72540621      -0.24716639      -0.01490193       0.12404209
O       -1.44348041      31.81703736      15.00876875       0.46717613       0.49128913       1.08063340
H       -1.95963542      32.44951507      14.53917420      -0.42492457      -0.11680181       0.09326813
H       -0.55677195      31.94145389      14.49613979       0.09993485      -0.25295275       0.15983769
O        4.82269971      19.39225830       5.21202522      -0.17807174       0.24777815       0.17466850
H        4.24142885      18.95929332       5.71548930      -0.18862382      -0.12431368      -0.17455956
H        5.67639412      18.92004553       5.23167018      -0.13307653      -0.10059000      -0.00135987
O      -10.13814866      10.48572542       9.46373862      -0.94583391       0.63393860       0.57461685
H      -10.60444591      10.87694666       8.81465313      -0.21561285      -0.12393069       0.27950711
H      -10.54849102      10.88399071      10.32702588       0.11267710      -0.08110192       0.29699321
O       17.70460833      17.75977463      26.18966811      -0.31496281      -0.17952709      -1.23963001
H       18.49928482      17.31412770      25.99965502       0.01683042       0.02422435       0.04822186
H       16.87785526      17.27132508      26.05423612       0.10850503       0.16816150       0.00395079
O        6.93482185      18.71039307      10.13035410       0.09779424      -0.33833330       0.41360542
H        7.21786407      19.37964495       9.46406618       0.07120103      -0.22351688      -0.13270581
H        6.70436560      17.98988132       9.60457365      -0.24976072       0.10061280      -0.13051099
O       -0.62155728     -13.81011015      13.26359916      -0.36346393      -0.31672222       0.01697538
H       -1.37450793     -13.99467560      12.70456786      -0.08597135      -0.12383795       0.27757014
H       -0.15079476     -14.46293437      13.65943897      -0.09666250      -0.06144632      -0.22163251
O        1.14859068       6.16761795       1.09769863       0.25011555      -2.64916610       0.60209206
H        1.54090003       5.32687815       1.08507425      -0.21720521       0.60298673      -0.02619429
H        0.91559978       6.23826764       0.11375184       0.24782510       0.21112258       0.20040925
O        3.10668278       1.32525946       8.35659603       0.88353385      -0.47544010       0.26816848
H        2.30463766       0.96526669       8.28343695       0.43300729       0.72742443       0.28770369
H        3.24376178       1.54716227       9.26920191       0.15608223      -0.31245559       0.20419091
O      -18.84859045      28.80644771     -16.14422763       1.07310828       0.36835038      -0.83085575
H      -18.62351809      28.82266450     -17.13086619      -0.22232811       0.43533154       0.50725120
H      -18.15603242      28.27977315     -15.82883909      -0.55334319       0.60389216      -0.02615308
O        2.87758724      26.88144495      -9.11557492      -0.42850378       0.07242057      -0.02822802
H        3.71242276      26.91005333      -8.19874553       0.92950314       0.13880238       0.47178100
H        2.32441300      26.18048976      -8.87120817      -0.65785258      -0.18461591      -0.09235163
O      -18.06559305      19.03255060       1.91155151      -1.32661931      -1.33430469       0.14045127
H      -17.48229627      18.84224946       1.28439509      -0.01342828      -0.00484276       0.31090356
H      -18.79535988      18.48760697       1.67847424       0.06198157       0.37434441       0.24249937
O       11.70155408      17.57540190       7.07013973       0.40845526       0.25234049      -0.80776287
H       12.55829140      17.37573080       6.67664669       0.03904547      -0.10531197       0.21330279
H       11.34342708      18.29865461       6.55343115      -0.37740247      -0.17640304       0.19684480
O       -7.22987405     -11.20101413       5.19146201      -0.25990065      -1.29424594      -0.52063124
H       -6.45621624     -11.30318344       4.52384866      -0.09242965       0.20031239       0.03608720
H       -7.38270119     -12.07778007       5.52720154      -0.27846953       0.34710771       0.24834457
O      -24.12726851       3.42581449      10.69913802      -0.40369178      -1.11515569      -0.08360919
H      -24.75728033       4.11057569      10.51191769       0.05508825      -0.20118902      -0.00519197
H      -23.34338384       3.71716992      10.32829107      -0.60142061      -0.13243819       0.28543644
O      -11.43316894      -8.19997962      18.46903446       0.10214863      -1.23279003      -0.01481711
H      -10.58542220      -8.54359778      18.89305559      -0.26659238       0.02019133       0.06010785
H      -11.36139624      -8.43507160      17.48271502      -0.14699112       0.32653023       0.08905419
O        8.62420520       7.33057896      16.92723524      -1.13087805       0.55062235      -0.56613165
H        9.53669053       7.33304671      16.77926379       0.23717876      -0.05478756       0.02549464
H        8.26654374       6.76952473      16.18334415      -0.29118533       0.07971384      -0.04442329
O      -11.65441909      -0.47991085      20.41405687       0.51856661      -0.14122937       0.52892269
H      -12.52491117      -0.27639729      20.80587123       0.04055008       0.14205636      -0.11677850
H      -11.61431033      -0.53990297      19.52485537      -0.26540366      -0.10019595       0.23297601
O       24.18379407       2.46813905      16.22772505      -1.01904709       0.10190927      -0.40293631
H       23.86685843       2.48686823      17.18213330       0.24859809       0.03732992      -0.00188603
H       23.97471850       1.70069448      15.84500490       0.22967773       0.32919454      -0.30509787
O       -5.67061877     -17.95995960      -5.00858900      -0.34187129       0.24450532      -1.32345455
H       -4.71538344     -17.70192341      -4.67710292       0.29738072      -0.27843811      -0.33854432
H       -5.84266458     -18.69787572      -5.64542538       0.04559795       0.11025110       0.18287664
O       29.49238775      -8.99190561      -6.14658184      -1.20384850       0.45288175      -0.19841273
H       30.14720147      -9.03099462      -6.75936078       0.09660898       0.16713526       0.34982711
H       29.22056415      -9.96606817      -5.97868710      -0.22710843       0.36928852       0.05053258
O        8.81346212      -0.68141262       3.40150082       0.13040822       0.68308269       0.75747253
H        8.22540367      -0.09124230       2.92286682       0.19864130       0.21185316      -0.22045603
H        8.27511748      -1.40526576       3.66979280       0.09858080      -0.32959101      -0.06556836
O      -19.77516823      -3.16988147      24.77465893      -0.28025797       0.48034090      -0.25764562
H      -20.12927156      -3.86190760      24.31686380       0.36532182       0.10586293       0.31383844
H      -19.29587438      -3.36450027      25.48001609      -0.04083008      -0.10659509      -0.18635176
O        2.37170682      -5.80859718      -6.04231860       1.43350302       0.72580819       0.20419403
H        2.61034389      -5.53088387      -5.04834624      -0.12841596      -0.08073880       0.15052951
H        1.81454774      -6.66004088      -6.25318415       0.00322520       0.04633369      -0.10379131
O        9.83898619       8.28815692       7.94781601       0.57853470      -0.21748625       0.32450123
H       10.54231893       8.54027985       7.34732890      -0.07840258      -0.13455648      -0.28008206
H       10.23798052       7.53872100       8.43390712      -0.26800191      -0.31797951       0.00414609
O        5.35294790       9.74894946      -4.81469001       0.63835456       0.13534745      -0.79667977
H        6.02949279       9.17378325      -4.76170762       0.16132787       0.00404874      -0.06829662
H        4.82293541       9.66252577      -4.00805815      -0.15376840       0.05888080       0.14178296
O       13.77238415      29.46407472      15.87191850      -0.39188332      -0.49231176      -0.03410848
H       12.90280890      29.02436426      16.11069844      -0.20866074       0.00986811       0.05492119
H       14.46030334      28.78035543      15.92728527      -0.23261932      -0.09843575      -0.08748367
O       -2.80654950       3.97012674       1.68652046      -0.18692241      -0.40255302       0.92697643
H       -2.20623986       3.62625954       2.34572870      -0.51340666       0.25998537      -0.41009870
H       -2.64972778       4.95124217       1.85637411       0.05613333       0.21862308       0.02325452
O        7.80386884     -14.02254267      10.96371397       0.11173239      -0.30951245      -0.78339297
H        7.04420116     -14.37932451      11.12614246       0.25438200       0.23672235      -0.39935249
H        8.13168213     -14.04577523      10.10548622      -0.00369018      -0.41857916       0.30811196
O       -2.44598772      10.55468426      24.37518075      -1.39291054      -0.22205968      -1.51980639
H       -2.03143294      10.09431737      23.50308961       0.14407269      -0.05565606      -0.01792301
H       -3.18650627      11.08426455      24.18264540      -0.16851914       0.50885885       0.42243640
O       20.06827206      21.73794487       1.55457224      -0.65412780       0.56850380       0.60146235
H       19.97527682      22.13202739       2.34354093       0.05873375       0.31269230      -0.20988540
H       19.85041811      20.84937546       1.48789894      -0.12236458      -0.03009755      -0.51315333
O       12.15579892       9.99952071     -15.93232283       0.63317828       0.42578282       0.80861729
H       12.64549867       9.37145496     -15.43691507       0.16352578      -0.36866919      -0.17121078
H       12.40954966      10.01473811     -16.76822957       0.34988616       0.19423398      -0.30641376
O      -11.40524482      22.28761989       1.05807399       0.04464623      -0.97955147      -0.18976368
H      -11.58985523      21.42110106       1.16720001      -0.22447422       0.47099265      -0.06378286
H      -10.83786029      22.48516943       1.81187364       0.03467157       0.27507367       0.01234359
O        2.95076992     -15.03096528      16.14055208      -0.00098198      -0.23310897      -1.08862905
H        3.33806750     -15.72731244      16.60244230      -0.29826305       0.03467486       0.17821700
H        3.56852604     -14.29967119      16.00082753      -0.20900366      -0.27039887      -0.04015542
O        2.43876650      16.35063764       0.36945919      -1.04698421      -0.80781389       0.54997314
H        1.99009505      16.07053087      -0.56482188      -0.39977247       0.34844982      -0.39914530
H        2.85742145      15.51184344       0.60125910       0.45455963       0.10813382       0.16708209
O       -5.67179714      -7.28722721       5.59181253      -1.41895684      -0.71202883      -0.04806624
H       -5.37340967      -8.05235445       6.20161358       0.24256815       0.19333483       0.33921983
H       -5.03298238      -6.78497256       5.19937097      -0.16517208      -0.06971781      -0.05194454
O       -2.16438713       2.39175847       6.64478425       0.23971198       0.76349797       0.18445137
H       -2.05199070       3.25752296       6.89824076      -0.31176409       0.19980655      -0.31113501
H       -1.82580519       1.79329217       7.51375181       0.06157663      -0.42381246       0.13573926
O       13.16388109      -5.46635027      -1.44932576       0.47293573      -1.49455159      -0.68922034
H       13.97632084      -5.18981297      -1.99967859      -0.17611619      -0.11132487       0.20364348
H       12.93302758      -6.28902822      -1.77738022       0.27266548       0.06566764       0.60967568
O       11.82447551       4.88894978      22.73655328       0.01506922       0.39949025       0.25206855
H       11.25885580       4.20640582      22.98464922      -0.15343109      -0.26090080      -0.08518147
H       11.88912814       4.88140901      21.76230256       0.13861824      -0.34708919      -0.13237915
O        8.19028204      14.49050926      23.79470102      -1.21160467      -0.58132753       1.48204597
H        9.00391482      14.94644491      23.95037690       0.10509588       0.02043368      -0.28292480
H        8.08866386      13.67968754      24.09209769      -0.07391856       0.06314743      -0.06307310
O       -8.09333933       7.02255750      11.40913968       0.80595866      -0.52500181       0.25155131
H       -7.32525516       6.54313268      11.02428805      -0.06735133       0.16737539      -0.05822627
H       -8.32218292       6.21968439      11.98607926      -0.15803781       0.05695739       0.18061105
192
Lattice="12.748515581575095 0.0 0.0 -5.291357895329464e-07 12.748515581575095 0.0 -5.291357895329464e-07 -5.291357895329464e-07 12.748515581575095" Properties=species:S:1:pos:R:3:momenta:R:3 step=50 time_fs=5.0 phase=equilibration pbc="T T T"
O       11.61417432       0.72855435     -16.49802064       1.19979596       0.14136893       0.47335919
H       12.02204214       0.94270729     -15.65574684       0.53125451       0.34662882       0.01426378
H       10.84317699       0.15419426     -16.48046515       0.03196826      -0.17904124      -0.03949260
O       26.37037903      24.78453094       4.88623636      -0.01775432       0.41034177       1.31613724
H       26.70625512      23.97858865       4.65167360       0.28899401      -0.39920882      -0.10446254
H       25.54524830      25.04544626       4.47180753       0.18618965       0.20031440      -0.06113765
O        4.55375776      -0.30100265       6.63689813       0.22796508      -0.92397083      -1.22700933
H        4.96035755      -1.11870036       7.01830828       0.15208578       0.22553730      -0.43863682
H        4.16579889       0.15837744       7.41752689       0.17931915       0.10808391      -0.02261154
O       -2.85612160      -4.40690169       1.02213966      -0.11101437       1.34306117       0.75234381
H       -2.61116609      -3.71789433       0.38383423      -0.12387701      -0.34120155       0.21485177
H       -3.64912000      -4.18688177       1.44127489       0.10840613       0.05796355      -0.24204941
O        4.27142275      15.86176662      10.72398466       0.49678230       0.94373140       0.00114579
H        4.30942824      16.73723020      11.22578769      -0.00623047      -0.02246205      -0.16089005
H        5.11454068      15.76278291      10.22757119       0.26578727       0.02852518      -0.58233861
O       -1.38785036       6.62797668       5.14878543       0.31402426      -0.85802951      -0.01892141
H       -1.34217416       6.29737059       4.13794115      -0.53619338       0.02741421       0.03579620
H       -0.50347920       7.02065700       5.18967803      -0.15635929      -0.06874511       0.02716031
O       22.81414150      12.31531566       5.77684920       0.01502712      -0.04898185       0.03593193
H       23.19783887      13.17113071       6.00637796       0.32677876       0.38409410       0.38861881
H       22.44081314      12.34834584       4.95273966      -0.47951798      -0.32902208      -0.06589033
O       -1.03648983     -15.75623678       6.80996958      -0.89680361       0.05472855      -0.44986866
H       -0.52124194     -16.04982421       6.00906734      -0.21216836       0.08069202       0.06025818
H       -1.37952395     -14.99783619       6.52468530      -0.12203371       0.35462675      -0.07555199
O       15.47965788     -17.90132893       9.67902336       0.34094571      -0.45179975       0.26143045
H       16.08156341     -18.35660511      10.20198631       0.20498662      -0.48929662       0.22852548
H       15.63936163     -16.94230339       9.57520469      -0.12903128       0.18929004      -0.36645907
O        3.27106953     -14.66153090     -13.34999398       0.20857910      -0.10762418      -0.40758312
H        4.11101967     -15.04103412     -13.21596593       0.36954016       0.30191240       0.08895820
H        2.60857543     -14.97532573     -12.72640793       0.17540942      -0.13426479      -0.22844593
O       -5.74738729       1.58484326       2.85035765      -0.21426466       1.14313192      -0.08595418
H       -6.48126185       1.19155816       2.31532200      -0.17937378      -0.38933473       0.18086865
H       -5.40680699       2.36852212       2.50094928       0.21984252       0.18104833       0.42328104
O       -5.36591434      16.05841488      25.96398938       0.86374189       1.48991749      -0.90308731
H       -5.34175717      15.43304290      25.22553424      -0.13073674       0.34093131      -0.28739880
H       -4.51289399      16.34858156      26.01279959      -0.63547400      -0.55156982       0.11225591
O        7.45887092     -15.70791094      -8.51524443       0.77010854       0.24456939       2.07228950
H        7.84203737     -16.48928550      -8.22026328       0.22265207       0.25734117      -0.08964060
H        6.58891893     -15.54897020      -7.93598077       0.24840776       0.35279939      -0.25669862
O       13.67744587       8.55066924      17.95572656      -0.55478727       0.35323215       0.94931703
H       14.06711354       8.73170929      17.08878647       0.26218644       0.13179961      -0.48112904
H       14.23963482       7.95289192      18.41500485       0.22014517      -0.22302633       0.21213878
O       -0.15367556       1.19793245      -1.22962523      -0.27826131       0.77701823       0.62891487
H        0.79278024       1.40378825      -1.19184420       0.33821737       0.23459871      -0.09318234
H       -0.23410722       0.41830800      -0.74807755      -0.55260490      -0.16619323      -0.10940206
O      -14.18711554      12.66287539      15.79895912       0.72256373      -0.02596066      -1.07759620
H      -13.99034911      12.35468196      14.85718948       0.19109785       0.20674149       0.43230310
H      -14.95345534      12.25150219      16.04594290       0.07379766      -0.18207025       0.20483564
O      -16.44018400       5.91470221      12.34212014       1.91512776       0.26595409      -0.54714471
H      -17.02683332       5.95800286      11.53427586       0.24615379      -0.03700431       0.04642751
H      -16.10411820       6.69677515      12.41412482      -0.33616006       0.31690288      -0.32644466
O       -9.94745046      32.93221458      -9.57994216      -0.36273935      -0.38348808      -0.36778282
H       -9.27742322      32.31511820      -9.28204528       0.54025832       0.06799053      -0.01294490
H      -10.61039793      32.41656984      -9.93783302      -0.60920653       0.04907510      -0.00803678
O       34.74901219      11.49863281      21.40728257       0.80597523      -0.50573044      -2.17041742
H       34.77999367      11.62491800      20.46620848      -0.06122813       0.38206994       0.61626747
H       35.18809403      10.69838695      21.57983789       0.22217888      -0.02601960       0.65595860
O       30.39960591     -12.68031566       2.16731924       0.30869870       0.85758690      -0.62793726
H       29.72652826     -12.12377526       2.58298128       0.05810029      -0.11483332      -0.25415891
H       30.23802494     -12.61906098       1.14355387      -0.15413519       0.04718503       0.34642910
O       17.58870341       9.30976447      -7.43651628      -0.06317308      -0.64183652      -0.05480239
H       17.53671758       8.44841516      -7.59691743      -0.48817195      -0.31665288      -0.44019730
H       17.41918258       9.53128934      -6.49488459      -0.08077845       0.12757481      -0.10786939
O       -5.16590854       2.60522992      32.18592151       1.05420572      -1.04431994       0.22131891
H       -5.82335680       2.11904308      31.66853725       0.30010400       0.11977513       0.50509034
H       -4.42713320       2.02398684      32.36800482       0.06511477       0.27843036       0.16872743
O        3.76371196       0.85966742      -0.22987971       1.52987656       0.84846629      -0.06437050
H        3.48521828      -0.05969273      -0.31270979      -0.02295529       0.17146398      -0.21441715
H        4.15902132       1.11210226      -1.12803868       0.02823609      -0.46044405       0.13711996
O       23.23635029       3.22986512      11.66961306      -0.60348586      -0.04271152      -0.43968905
H       23.14900852       3.62356000      12.46895203       0.57574378       0.15005648       0.48293225
H       23.88417404       2.52383108      11.73693628      -0.20710042      -0.06920113       0.11173872
O       -1.43958316      31.81941294      15.01485030       0.77615490       0.47579525       0.97103527
H       -2.00617915      32.44293873      14.54560760      -0.50175978      -0.03161617       0.05793971
H       -0.55548698      31.91322347      14.51991478      -0.08536071      -0.30882313       0.33210586
O        4.82263477      19.39404168       5.21223940       0.14538441       0.43301151      -0.05733477
H        4.20649690      18.93592889       5.71231500      -0.50062200      -0.33279744       0.08882513
H        5.65730605      18.91396278       5.22915838      -0.24000207      -0.02876255      -0.04500506
O      -10.14342175      10.48921625       9.46909461      -0.83081625       0.56529161       1.21045691
H      -10.63888969      10.87578710       8.81988441      -0.48911001       0.09644888      -0.15241658
H      -10.52792508      10.86824981      10.34617619       0.30223194      -0.23652551       0.09375761
O       17.70178946      17.75893327      26.18156502      -0.47172174       0.01539330      -1.25343001
H       18.50767527      17.30851677      26.00326013       0.15476843      -0.12855232       0.03561407
H       16.88980612      17.28695526      26.05553037       0.11628709       0.14291851       0.02770408
O        6.93564625      18.70888916      10.13280396       0.20098018      -0.07501756       0.42667799
H        7.22436291      19.35821113       9.45583816       0.06699779      -0.20499441      -0.03418351
H        6.67466287      17.98393576       9.58665950      -0.35171288      -0.19343686      -0.21528458
O       -0.62418364     -13.81063966      13.26318197      -0.48736129       0.05787837      -0.07210918
H       -1.38656357     -14.01054356      12.72808210      -0.16373023      -0.20655980       0.20842714
H       -0.14995471     -14.48495082      13.64513786       0.10715674      -0.38596209      -0.07388692
O        1.14921546       6.15241197       1.10046409      -0.05988209      -2.22086985       0.31939935
H        1.53208943       5.36348017       1.08733889       0.06366386       0.09733728       0.07444441
H        0.93973770       6.26491134       0.14017842       0.24263376       0.34025034       0.32680568
O        3.11358908       1.32286397       8.35776637       1.42459762      -0.28035965       0.20182667
H        2.31651846       1.02284676       8.30436223      -0.22704750       0.44382841       0.13906154
H        3.26516658       1.52015799       9.29878156       0.28058541      -0.24950207       0.36855876
O      -18.84234204      28.80879266     -16.15006206       0.80417727       0.57769077      -1.09379430
H      -18.64893305      28.86654185     -17.07683771      -0.28804292       0.47776416       0.50721495
H      -18.19530289      28.32664955     -15.81875660      -0.22090875       0.34037951       0.25136611
O        2.87645922      26.88189759      -9.11424515       0.07981814       0.14877958       0.49778850
H        3.77262386      26.91939960      -8.18415538       0.15621449       0.05394007      -0.28442637
H        2.25961369      26.15922066      -8.87183137      -0.56443844      -0.14849141       0.07374283
O      -18.07401434      19.02501532       1.91395970      -1.48289489      -1.00839110       0.64041264
H      -17.45596152      18.83500396       1.28978970       0.53611103      -0.13161884      -0.18028654
H      -18.80817424      18.51521293       1.70214902      -0.35524263       0.18575865       0.23999043
O       11.70385553      17.57651909       7.06516539       0.40691700       0.20203118      -0.76670325
H       12.56670682      17.36575271       6.69661732       0.13069537      -0.08723449       0.19640259
H       11.30440798      18.28404814       6.57030429      -0.41410289      -0.11522794       0.14634527
O       -7.23054859     -11.20846967       5.18745132       0.02553228      -1.17597922      -0.74466146
H       -6.47809155     -11.28336615       4.53136450      -0.36888059       0.19688748       0.11837614
H       -7.40935526     -12.05188356       5.55599245      -0.24542765       0.15830952       0.36086812
O      -24.13015303       3.41809438      10.69887487      -0.69900549      -1.38993689       0.06424531
H      -24.76600735       4.10144987      10.51001259      -0.24789058       0.01540544      -0.03149737
H      -23.37720315       3.70849282      10.34596726      -0.06842639      -0.03486975       0.06815430
O      -11.43163094      -8.20796337      18.46846600       0.30580639      -1.39779556      -0.06799079
H      -10.62103929      -8.53939334      18.89180507      -0.43992774       0.05038451      -0.06532079
H      -11.37615578      -8.39827086      17.50615910      -0.15905688       0.41815698       0.37794961
O        8.61622909       7.33332540      16.92300075      -1.35796282       0.38831168      -0.72621012
H        9.57187829       7.32829700      16.78423603       0.41204821      -0.04514462       0.08572569
H        8.23891916       6.78430427      16.18355608      -0.26113163       0.22820786       0.05842804
O      -11.65123362      -0.48064039      20.41839515       0.46536673      -0.10042250       0.98991094
H      -12.51790719      -0.26183762      20.79164327       0.08832301       0.15943568      -0.16016258
H      -11.64015135      -0.55109954      19.52616867      -0.26609727      -0.12923248      -0.20198620
O       24.17716585       2.47019592      16.22638749      -1.00333592       0.57410222       0.03952492
H       23.89475608       2.49105779      17.17201792       0.32467439       0.04540218      -0.18753873
H       23.99216176       1.70967696      15.80304152       0.14011763      -0.13355366      -0.54284527
O       -5.67173141     -17.95820929      -5.01657726      -0.04413386       0.24793849      -1.28813927
H       -4.70059564     -17.73155227      -4.71656558       0.00303845      -0.33273246      -0.46981902
H       -5.83806777     -18.68036224      -5.62212306       0.03999121       0.21879430       0.27121723
O       29.48302067      -8.99000136      -6.14670065      -1.66544122       0.16039467       0.10931545
H       30.17233986      -9.01328285      -6.73850777       0.41850986       0.19605106       0.08737966
H       29.20214632      -9.91419290      -5.97504218      -0.15323480       0.64839633       0.02633303
O        8.81402471      -0.67691208       3.40580481       0.07112434       0.76297320       0.66309466
H        8.24601603      -0.06926760       2.90264752       0.23869564       0.21124707      -0.17324033
H        8.28138610      -1.44370160       3.66622654       0.05347493      -0.41511588      -0.02497057
O      -19.77699490      -3.16521463      24.77209018      -0.42038817       1.02318408      -0.43281231
H      -20.10446668      -3.87312323      24.33167124       0.13434937      -0.34175046      -0.00600501
H      -19.28222711      -3.37810546      25.48657185       0.31273156      -0.17049542       0.32564156
O        2.38036343      -5.80423082      -6.04064236       1.39768555       0.66237054       0.31051389
H        2.59367449      -5.54460966      -5.04504523      -0.21103520      -0.20032170      -0.08304241
H        1.81981819      -6.64452635      -6.25836696       0.10523308       0.26911154      -0.00607123
O        9.84282571       8.28618417       7.95009292       0.73193116      -0.38240207       0.45638859
H       10.53283183       8.52965329       7.31834339      -0.12199516      -0.09209105      -0.29644211
H       10.20658798       7.51236874       8.43183967      -0.36918183      -0.20618635      -0.05478301
O        5.35565718       9.75037683      -4.81938300       0.28326613       0.35918030      -0.73257284
H        6.06343206       9.15897969      -4.76868125       0.49645539      -0.27560777      -0.06928867
H        4.80709325       9.66984268      -3.99697135      -0.13886741       0.09075200       0.05015451
O       13.76933647      29.45981664      15.87137470      -0.54017930      -0.72037710      -0.05350614
H       12.88926058      29.03014454      16.11293498      -0.05879861       0.11979243      -0.00328748
H       14.43626507      28.77130710      15.91775856      -0.24058948      -0.09181823      -0.09908602
O       -2.80797594       3.96874986       1.69182078      -0.32442576       0.00232397       0.77245498
H       -2.24616957       3.64073221       2.31499164      -0.27314745       0.01345771      -0.18230201
H       -2.64735933       4.96301759       1.85373581      -0.01113231       0.02423768      -0.07865531
O        7.80633076     -14.02296940      10.95958037       0.72098587       0.08956584      -0.49378102
H        7.02918117     -14.37368410      11.09644114      -0.55741076      -0.12064164      -0.20744810
H        8.13937774     -14.08628664      10.11184378       0.17208704      -0.41837523      -0.18174911
O       -2.45370360      10.55237447      24.36477619      -1.16780163      -0.44539774      -1.74204322
H       -2.02394504      10.09740547      23.51340231       0.00925711       0.12218316       0.23621950
H       -3.20873155      11.13733417      24.22186106      -0.25238146       0.55711699       0.39956991
O       20.06426001      21.74128293       1.55692867      -0.54934938       0.61156042       0.18493895
H       19.97637473      22.17407139       2.34423594      -0.02697127       0.53939478       0.20194634
H       19.83263398      20.83027744       1.43754688      -0.22629586      -0.30918551      -0.50853890
O       12.15872151      10.00229005     -15.92588482       0.43782138       0.49403893       1.15363912
H       12.66701600       9.32738539     -15.44731932       0.24854431      -0.48494367      -0.09424733
H       12.44913277      10.03507743     -16.82339113       0.44715921       0.21783108      -0.73689834
O      -11.40425267      22.28303758       1.05665257       0.23430868      -0.37357357      -0.25231541
H      -11.62100662      21.43471650       1.16206050      -0.42336931      -0.19399426      -0.03651972
H      -10.83196546      22.51508811       1.81531749       0.06962784       0.33808401       0.04244587
O        2.94996794     -15.03164157      16.13309836      -0.26267166      -0.10455597      -1.24217687
H        3.31575535     -15.73369405      16.62674956      -0.16448640      -0.16343978       0.32270236
H        3.55039901     -14.32318044      15.99701245      -0.13892699      -0.18621076      -0.03841340
O        2.43223285      16.34492741       0.37227215      -1.06151528      -0.96743276       0.37180960
H        1.95609111      16.10790497      -0.58859158      -0.28751723       0.41644778      -0.07427124
H        2.89938300      15.52477638       0.61740954       0.39387096       0.17417962       0.15501740
O       -5.68111534      -7.29303930       5.59236043      -1.63708361      -1.21148477       0.25442064
H       -5.35067777      -8.01978444       6.22523238       0.21762073       0.46695265       0.14658554
H       -5.03276492      -6.78486762       5.19103220       0.15834968       0.06583846      -0.11500007
O       -2.16288383       2.39482556       6.64604659       0.24084672       0.26298593       0.26684700
H       -2.08001901       3.29234632       6.87328364      -0.26654502       0.49498315      -0.20357695
H       -1.82227848       1.76049843       7.51798882       0.01029606      -0.24634771      -0.04662535
O       13.16765303      -5.47426164      -1.45352458       0.79528541      -1.10959882      -0.66000649
H       13.94906149      -5.20187207      -1.97307735      -0.33318891      -0.11836401       0.31404625
H       12.95203532      -6.30229192      -1.72335085       0.11403383      -0.36108848       0.49722461
O       11.82486432       4.89173656      22.73722320       0.14737162       0.49613493       0.08847672
H       11.23635050       4.17384110      22.97983749      -0.27142123      -0.36626656      -0.02270558
H       11.90225562       4.84948447      21.75286279       0.13133367      -0.30770852      -0.03394346
O        8.18243988      14.48841929      23.80273304      -1.28019469      -0.02880229       1.27921429
H        9.01979026      14.95061684      23.92300867       0.19742779       0.05186503      -0.27394754
H        8.07824254      13.65575223      24.09479101      -0.12985338      -0.51898230       0.11631049
O       -8.08819655       7.01814256      11.41093360       0.81011695      -0.86155750       0.40290824
H       -7.33025031       6.56514573      11.01471160      -0.02206825       0.27554877      -0.14191857
H       -8.33943622       6.23594305      12.00027521      -0.19732568       0.27458079       0.11597736
192
Lattice="12.748350921436554 0.0 0.0 -5.291289552021684e-07 12.748350921436554 0.0 -5.291289552021684e-07 -5.291289552021684e-07 12.748350921436554" Properties=species:S:1:pos:R:3:momenta:R:3 step=60 time_fs=6.0 phase=equilibration pbc="T T T"
O       11.62135547       0.72937033     -16.49501211       1.19068587       0.12660812       0.46355093
H       12.07133112       0.97445776     -15.65575766       0.47202937       0.29830892      -0.04286709
H       10.84889894       0.13834890     -16.48226466       0.09920826      -0.13750774      -0.00324842
O       26.36978579      24.78730903       4.89468225      -0.04258242       0.53394809       1.43965862
H       26.73776925      23.93060718       4.63715502       0.33564513      -0.52101994      -0.17125673
H       25.56362601      25.06463162       4.46427518       0.19302493       0.19833697      -0.09486490
O        4.55500238      -0.30686951       6.62971535       0.17764059      -0.94997057      -1.10490042
H        4.97314074      -1.09185135       6.97366860       0.13300091       0.28477559      -0.45632835
H        4.18388584       0.16662365       7.41213612       0.19148030       0.06369224      -0.08258052
O       -2.85587711      -4.39896471       1.02639689       0.17398575       1.18829328       0.66980478
H       -2.62102979      -3.74900069       0.40155314      -0.05897047      -0.25952624       0.10887256
H       -3.65242152      -4.17600504       1.42487682      -0.19487052       0.16416411      -0.08291988
O        4.27509756      15.86802289      10.72388066       0.74334049       1.13193329      -0.02292472
H        4.31115427      16.72272331      11.20168223       0.04408645      -0.24426408      -0.31426478
H        5.12996194      15.76752157      10.17731076       0.02254208       0.07627174      -0.42534048
O       -1.38571886       6.62231597       5.14759713       0.35109866      -0.96650968      -0.34760997
H       -1.39506242       6.30533525       4.15601556      -0.54902826       0.13792298       0.33741925
H       -0.51888331       7.01389162       5.19289475      -0.13988896      -0.05959956       0.04079225
O       22.81464140      12.31511863       5.77802457       0.25104208       0.08084394       0.35391136
H       23.22592446      13.20377134       6.04288138       0.22678392       0.24057305       0.33832052
H       22.38568287      12.31698306       4.93475942      -0.62626360      -0.30368337      -0.25983929
O       -1.04101633     -15.75697416       6.80702170      -0.62443507      -0.28713398      -0.48045629
H       -0.54217327     -16.04356546       6.02136703      -0.20672672       0.04048162       0.17217582
H       -1.40500883     -14.93836667       6.51081903      -0.36601792       0.79213118      -0.18483455
O       15.48107233     -17.90322727       9.68014291       0.22705726      -0.25383320       0.17508294
H       16.10699585     -18.40621392      10.22883287       0.27839711      -0.50407527       0.28963113
H       15.62663700     -16.92959966       9.54134228      -0.13210220       0.05274190      -0.32211416
O        3.27202292     -14.66186140     -13.35238423       0.15546968      -0.06971412      -0.43198096
H        4.15517271     -15.01439728     -13.20700330       0.50466735       0.25345998       0.08774026
H        2.62073207     -14.99015762     -12.74671881       0.06968592      -0.17951943      -0.18476386
O       -5.74934644       1.59080491       2.84989855      -0.44838847       0.81601360      -0.05618787
H       -6.48945044       1.15974150       2.33716346       0.01588485      -0.25577419       0.27187987
H       -5.38200203       2.39526057       2.53645691       0.27852139       0.35236404       0.31311998
O       -5.36218331      16.06674509      25.95775024       0.27227533       1.27336513      -1.03428466
H       -5.35941002      15.46364608      25.19382503      -0.23238955       0.29634914      -0.35111772
H       -4.54504071      16.30750942      26.03139449       0.03350230      -0.27437424       0.28596423
O        7.46217252     -15.70522451      -8.50206548       0.34003756       0.56454874       2.18196214
H        7.86997453     -16.47711520      -8.22470492       0.35049471      -0.00834982      -0.00481619
H        6.62766789     -15.51768837      -7.97085963       0.54585934       0.28061648      -0.45693988
O       13.67398778       8.55292780      17.96064020      -0.46508276       0.39998562       0.70243375
H       14.08806889       8.74399472      17.05193049       0.15072979       0.10862809      -0.21717273
H       14.26106756       7.93006603      18.43742055       0.19309143      -0.20721018       0.22127061
O       -0.15503567       1.20336877      -1.22612153      -0.13600568       0.97388267       0.52948361
H        0.82176014       1.42668614      -1.20173367       0.20556173       0.20931709      -0.10295046
H       -0.28978366       0.39049966      -0.75245892      -0.56631811      -0.35387343      -0.01035374
O      -14.18150509      12.66278145      15.79122157       1.00969979       0.05904630      -1.29891231
H      -13.97102981      12.37908072      14.90672132       0.21668081       0.27272962       0.51638912
H      -14.95820628      12.22562644      16.07093552      -0.15243137      -0.33521410       0.30673103
O      -16.42913061       5.91438335      12.33792634       1.64978111      -0.29489722      -0.74601656
H      -17.00231325       5.95086392      11.54186584       0.24339686      -0.11023011       0.09776736
H      -16.12110040       6.76059195      12.38832619      -0.03827946       0.94582064      -0.20752424
O       -9.94886811      32.92964099      -9.58177887      -0.15059684      -0.37918911      -0.28090911
H       -9.22437699      32.32424928      -9.28274596       0.48316416       0.15896216      -0.03068546
H      -10.68005753      32.41592421      -9.94478758      -0.75179441      -0.02193800      -0.10234436
O       34.75318285      11.49574060      21.39428568       0.72489607      -0.44799786      -1.90811530
H       34.77330519      11.66634672      20.51217789      -0.06068384       0.46859205       0.29314826
H       35.21674707      10.68461560      21.64653731       0.34405537      -0.19086073       0.68951162
O       30.40105117     -12.67474630       2.16238789       0.30504974       0.89259252      -0.94661958
H       29.73077652     -12.13510947       2.55944898       0.01816028      -0.10704901      -0.20796102
H       30.22425874     -12.61388340       1.19243367      -0.11898153       0.05147553       0.61431868
O       17.58813200       9.30692239      -7.43605340      -0.04823169      -0.29556263       0.14729887
H       17.48773082       8.39761687      -7.64312575      -0.50978341      -0.66811258      -0.49345605
H       17.41336380       9.54251563      -6.51112652      -0.03596715       0.10066719      -0.21832595
O       -5.15932642       2.59920188      32.18702655       1.07971380      -0.86502593       0.29393182
H       -5.79347085       2.12910249      31.71856116       0.25989576       0.05862481       0.49225347
H       -4.41747839       2.04884568      32.38434030       0.16000379       0.21479836       0.18520213
O        3.77346680       0.86497031      -0.23099136       1.65319656       0.88062182      -0.26794306
H        3.48222684      -0.04328558      -0.33444684      -0.04919726       0.14282639      -0.22078002
H        4.15712220       1.06493885      -1.10274985      -0.04451192      -0.48115198       0.34067824
O       23.23228034       3.22923532      11.66590707      -0.62468797      -0.12219436      -0.64902268
H       23.20245140       3.64764655      12.53193116       0.53383589       0.30967881       0.74288442
H       23.86686471       2.51278953      11.74654361      -0.15156932      -0.14574750       0.08932948
O       -1.43422506      31.82213432      15.02012945       0.92320125       0.55565005       0.81387265
H       -2.05200707      32.43786217      14.55290100      -0.41696058      -0.08141089       0.10752741
H       -0.57373011      31.88141540      14.55948415      -0.27133822      -0.32984695       0.46977623
O        4.82368267      19.39679311       5.21151415       0.14780085       0.51533041      -0.11652598
H        4.15185042      18.89896696       5.72617698      -0.56121001      -0.38161987       0.15207711
H        5.63268674      18.91143204       5.22361332      -0.24940380      -0.03030734      -0.06267950
O      -10.14826492      10.49251989       9.47784755      -0.82123096       0.57691682       1.60883459
H      -10.69490292      10.89157213       8.79268284      -0.62105458       0.19816002      -0.33903530
H      -10.49052691      10.83841455      10.34417187       0.45085799      -0.36404624      -0.12595737
O       17.69874414      17.75946491      26.17348790      -0.40629787       0.22433251      -1.27080135
H       18.52573192      17.29057191      26.00641933       0.19514583      -0.21948431       0.04145465
H       16.89604790      17.29634030      26.05817535       0.00373520       0.04716615       0.03064172
O        6.93690859      18.70843262      10.13501215       0.22216918      -0.03757600       0.31127113
H        7.23096368      19.33947008       9.45677052       0.07088884      -0.17464538       0.05328809
H        6.63801271      17.95895786       9.56757490      -0.38294700      -0.27241937      -0.14567066
O       -0.62737344     -13.80933225      13.26243959      -0.53832161       0.26244258      -0.10191839
H       -1.40505631     -14.03415989      12.74583546      -0.20210400      -0.27762714       0.16985333
H       -0.13346448     -14.53275785      13.64150938       0.20264802      -0.55732416      -0.02067099
O        1.14781949       6.14030950       1.10193254      -0.37211662      -1.71926543       0.20172674
H        1.55493625       5.34277931       1.09963830       0.39694616      -0.50115778       0.17923862
H        0.96160850       6.30498021       0.17220186       0.19900906       0.48920479       0.29465264
O        3.12405779       1.32178327       8.35936803       1.96131079      -0.07840093       0.38721507
H        2.26261440       1.05377088       8.31088479      -0.82347820       0.21722817       0.01059893
H        3.29671759       1.49631876       9.33146475       0.35373635      -0.25117511       0.25885441
O      -18.83854532      28.81273796     -16.15629072       0.35013891       0.81774317      -0.95705142
H      -18.67553395      28.91586081     -17.04805988      -0.25184463       0.54750985       0.03039128
H      -18.19529470      28.34308434     -15.77707948       0.21139466       0.00965514       0.59908666
O        2.87816111      26.88192949      -9.10894192       0.42461330      -0.03540185       1.12691146
H        3.74035776      26.91985946      -8.25539571      -0.67775616      -0.02848577      -1.06747795
H        2.22243397      26.15961164      -8.85997495      -0.22524621       0.15690006       0.13926143
O      -18.08280775      19.01938463       1.91877445      -1.40744404      -0.78778005       0.85114305
H      -17.38759025      18.81806657       1.25909326       0.74962684      -0.19533354      -0.35923966
H      -18.86132322      18.52454567       1.72487458      -0.67973750       0.03691143       0.22291200
O       11.70622825      17.57733726       7.06052298       0.41747039       0.14093625      -0.71955074
H       12.58127268      17.35933262       6.71471595       0.15982248      -0.03547333       0.17842485
H       11.26378467      18.27505444       6.58150938      -0.40859677      -0.07080617       0.08718384
O       -7.22960888     -11.21502362       5.18244319       0.17661036      -1.00723117      -0.83047042
H       -6.52373290     -11.26548596       4.54359555      -0.50861690       0.16246719       0.10001798
H       -7.42904749     -12.04613654       5.59692593      -0.17558776      -0.01976125       0.45813666
O      -24.13538241       3.40891205      10.69949688      -1.11337355      -1.53859842       0.16004667
H      -24.80088209       4.10908357      10.50631349      -0.42809426       0.10040767      -0.03301701
H      -23.35611512       3.71043433      10.34141296       0.45760996       0.06861862      -0.14493896
O      -11.42967830      -8.21654298      18.46781211       0.22434434      -1.39473813      -0.03842114
H      -10.66105114      -8.53729828      18.88549620      -0.32139820      -0.03166224      -0.01801441
H      -11.39224879      -8.35507766      17.54659792      -0.17842560       0.45783628       0.38376382
O        8.60802370       7.33521721      16.91781673      -1.23368256       0.27034594      -0.88016817
H        9.60356670       7.32330130      16.79613133       0.19912144      -0.05800870       0.16410339
H        8.21648751       6.81312517      16.19355207      -0.19927501       0.35432152       0.13798676
O      -11.64822679      -0.48119344      20.42529670       0.47285079      -0.08993799       1.29881333
H      -12.50931812      -0.24478783      20.77519434       0.07735357       0.19222589      -0.16909924
H      -11.66588270      -0.56488690      19.48869999      -0.26835369      -0.15208059      -0.51635232
O       24.17077776       2.47480175      16.22719567      -0.97615381       0.89067346       0.22663891
H       23.92729161       2.49470785      17.14990304       0.33720910       0.02583009      -0.22779033
H       24.00273001       1.68075120      15.74275536       0.09408298      -0.40604811      -0.65636954
O       -5.67088054     -17.95601250      -5.02397162       0.30099434       0.42166048      -1.12211831
H       -4.71492940     -17.76571737      -4.76794110      -0.29578858      -0.37026218      -0.58180209
H       -5.83626700     -18.66076216      -5.59785280      -0.01167986       0.14837256       0.19888743
O       29.47160428      -8.98883282      -6.14549012      -1.86903658       0.24703347       0.21262507
H       30.22280607      -8.99266770      -6.73740089       0.58594311       0.21988133      -0.03264114
H       29.18630127      -9.85230756      -5.97110164      -0.17943888       0.55785269       0.06620527
O        8.81380274      -0.67225908       3.40956254      -0.11563406       0.73190190       0.57856893
H        8.27259473      -0.05346985       2.89157194       0.30594654       0.10736253      -0.04887963
H        8.28862878      -1.47899717       3.66216970       0.10809327      -0.28585325      -0.06451457
O      -19.77963578      -3.15757720      24.76882270      -0.49900450       1.38511546      -0.48852218
H      -20.09910958      -3.92355352      24.31945205       0.00569755      -0.63800170      -0.18870311
H      -19.23972666      -3.39659658      25.53499278       0.49179570      -0.19687585       0.58601262
O        2.38877740      -5.80032667      -6.03827474       1.35397700       0.58344152       0.44044778
H        2.56962507      -5.56918331      -5.06422811      -0.27869787      -0.30250380      -0.31135082
H        1.83492446      -6.60802508      -6.25470433       0.20301154       0.46950804       0.07550630
O        9.84765930       8.28328308       7.95307371       0.87490222      -0.51247476       0.53567578
H       10.51680820       8.52030118       7.29175680      -0.20747453      -0.10306584      -0.23966131
H       10.16719009       7.49882047       8.42237375      -0.42528122      -0.07984141      -0.13160350
O        5.35671856       9.75259007      -4.82335271       0.14077134       0.35447354      -0.57326918
H        6.11486651       9.12816250      -4.77441665       0.49709580      -0.30516911      -0.05171490
H        4.79955347       9.67912157      -4.00205587      -0.00795557       0.09977598      -0.16191920
O       13.76521832      29.45452352      15.87080534      -0.74469421      -0.86374731      -0.06425500
H       12.89104974      29.04676586      16.10960484       0.09086322       0.22651731      -0.06006063
H       14.41529710      28.75954271      15.90785993      -0.17868310      -0.14673990      -0.09994370
O       -2.81058334       3.97014091       1.69578683      -0.53874814       0.46409140       0.52187172
H       -2.25728810       3.62691151       2.31262927       0.04388448      -0.29636373       0.13475102
H       -2.65203450       4.95607162       1.84098021      -0.08428663      -0.16238352      -0.18065030
O        7.81191682     -14.02137047      10.95715957       1.05545576       0.32126636      -0.28706708
H        6.94776979     -14.39639678      11.08146763      -0.99504292      -0.29833621      -0.13007917
H        8.16137649     -14.12723738      10.07651896       0.24056769      -0.42550667      -0.46647597
O       -2.46068993      10.54927123      24.35300797      -1.14733309      -0.49362148      -1.98475505
H       -2.02938023      10.11756122      23.54821951      -0.11862009       0.28954717       0.48043189
H       -3.22858574      11.18671065      24.26089851      -0.13078522       0.43538929       0.40849016
O       20.06074868      21.74435087       1.55707139      -0.53015850       0.44521642      -0.09201829
H       19.97038796      22.23285812       2.37659977      -0.08277512       0.64763068       0.41512407
H       19.80858821      20.79903325       1.39063018      -0.24420902      -0.26975973      -0.44392146
O       12.16155955      10.00484365     -15.91854361       0.58406136       0.35770193       1.11026057
H       12.68714650       9.28572490     -15.46242425       0.14712831      -0.33897583      -0.23788434
H       12.49035268      10.05510229     -16.89030646       0.37450799       0.18972907      -0.56544684
O      -11.40194333      22.28205612       1.05517256       0.46169354       0.08691392      -0.20785171
H      -11.66964731      21.39053267       1.16075286      -0.55020037      -0.62631529       0.01262930
H      -10.82732467      22.54720532       1.81630955       0.00479045       0.30573579      -0.03937828
O        2.94745005     -15.03224743      16.12500198      -0.52951917      -0.19677536      -1.30402114
H        3.30357859     -15.75424917      16.66196629      -0.10228203      -0.22523121       0.37840239
H        3.54377665     -14.33300474      15.99232593       0.00779289      -0.02140163      -0.05422382
O        2.42569295      16.33826585       0.37402572      -1.05908291      -1.12875400       0.20112980
H        1.93486701      16.15036307      -0.57803851      -0.14708723       0.45578994       0.29043426
H        2.93277393      15.54594941       0.63070727       0.29021117       0.26073190       0.11650431
O       -5.69151879      -7.30156587       5.59456613      -1.74931681      -1.55129464       0.45478653
H       -5.33099955      -7.96379981       6.23126914       0.18846202       0.65735697      -0.00630474
H       -5.00587317      -6.77412367       5.17855830       0.35807830       0.13153077      -0.12254317
O       -2.16129637       2.39536676       6.64799947       0.27442762      -0.01529180       0.41515493
H       -2.10460424       3.34569862       6.85616043      -0.24277970       0.53394235      -0.16233083
H       -1.82387590       1.74548223       7.50405358      -0.04497903      -0.05916913      -0.24091049
O       13.17261347      -5.48006098      -1.45702712       0.82459392      -0.84032266      -0.46730600
H       13.92144492      -5.20914464      -1.94519457      -0.18831587      -0.02312132       0.22934265
H       12.95523219      -6.35853346      -1.67957054      -0.03259351      -0.76462581       0.40909062
O       11.82555272       4.89439961      22.73700435       0.10332824       0.36133600      -0.05675881
H       11.21212723       4.14270608      22.97653536      -0.19835655      -0.24253903      -0.04832147
H       11.91384323       4.82114311      21.75729103       0.10841773      -0.27259512       0.13296469
O        8.17451865      14.48928572      23.80996249      -1.25375169       0.30914597       1.20384448
H        9.03674133      14.95258897      23.89579658       0.13132957      -0.01885242      -0.27948978
H        8.06498381      13.58912575      24.11035771      -0.13095953      -0.76959813       0.18391496
O       -8.08329737       7.01193914      11.41378657       0.74594045      -1.11258741       0.57051079
H       -7.32694017       6.59471865      10.99535327       0.09440343       0.32556222      -0.25314207
H       -8.36002610       6.27140286      12.00876420      -0.22583585       0.44039905       0.06680242
192
Lattice="12.748163618028189 0.0 0.0 -5.291211810471122e-07 12.748163618028189 0.0 -5.291211810471122e-07 -5.291211810471122e-07 12.748163618028189" Properties=species:S:1:pos:R:3:momenta:R:3 step=70 time_fs=7.0 phase=equilibration pbc="T T T"
O       11.62852994       0.73010511     -16.49165924       1.20853266       0.11950628       0.55791797
H       12.11197999       0.99965635     -15.66680771       0.36044740       0.21480478      -0.19629589
H       10.86341473       0.12847685     -16.48076412       0.20306909      -0.06299817       0.02906746
O       26.36940214      24.78962514       4.90356644       0.06376898       0.29072753       1.46520884
H       26.76565563      23.88760605       4.62229351       0.22428395      -0.30979536      -0.11638002
H       25.58132675      25.08328920       4.45289279       0.17334280       0.19223168      -0.13929045
O        4.55559124      -0.31226668       6.62289081       0.02187702      -0.79044073      -1.10467542
H        4.99017007      -1.07040505       6.93255950       0.23375415       0.12842435      -0.37181228
H        4.20230015       0.17173069       7.40254818       0.18350691       0.04647387      -0.10276943
O       -2.85413415      -4.39237995       1.03066550       0.34370126       0.93981843       0.75036966
H       -2.62057595      -3.76419883       0.40080225       0.06728502      -0.04768454      -0.12787404
H       -3.68554391      -4.15544636       1.42449271      -0.44934466       0.24867770       0.05613037
O        4.28051967      15.87470163      10.72302242       1.04172825       1.06848502      -0.23613595
H        4.31818347      16.69740322      11.16916672       0.10250525      -0.21840966      -0.31887521
H        5.11651256      15.77729134      10.14636221      -0.29833648       0.12748841      -0.20358561
O       -1.38372126       6.61588841       5.14447443       0.28333973      -1.09039535      -0.61892208
H       -1.44956196       6.32321102       4.20156885      -0.57353443       0.21998576       0.56967483
H       -0.52756467       7.01035159       5.19784904      -0.02841786      -0.00573321       0.06466359
O       22.81640637      12.31618408       5.78051147       0.40409163       0.32716252       0.42677149
H       23.23915028      13.21412998       6.07032241       0.04840667      -0.02764904       0.22287087
H       22.32310768      12.28923846       4.91218411      -0.61919972      -0.26059567      -0.14198905
O       -1.04477868     -15.75815783       6.80378950      -0.65323472      -0.09395337      -0.54054786
H       -0.56021468     -16.04113900       6.03880348      -0.15847972       0.00812765       0.16906754
H       -1.44155410     -14.86193501       6.49407555      -0.34341640       0.68816314      -0.13570574
O       15.48245847     -17.90416659       9.68126038       0.31886931      -0.15442219       0.25413809
H       16.12805634     -18.44888681      10.25203947       0.13491064      -0.35648347       0.16953532
H       15.61279083     -16.93297946       9.51272268      -0.14654770      -0.12882350      -0.25995647
O        3.27334586     -14.66210947     -13.35490625       0.32064199      -0.09051932      -0.44796822
H        4.20235774     -14.98893160     -13.19945475       0.43529007       0.27289484       0.05856033
H        2.62237028     -15.01030080     -12.76184567      -0.03045628      -0.23813830      -0.13178399
O       -5.75256525       1.59514000       2.84954920      -0.60030016       0.64456319      -0.04517247
H       -6.47834075       1.14185927       2.36769729       0.20036599      -0.11590178       0.34631201
H       -5.35472385       2.43229734       2.56392394       0.26372793       0.37461125       0.26379765
O       -5.36249499      16.07355996      25.95040586      -0.35015301       1.03427500      -1.24197351
H       -5.38671880      15.49195570      25.15847761      -0.32457259       0.30179217      -0.35008748
H       -4.50515752      16.29390562      26.06879998       0.72758220      -0.02223701       0.48281753
O        7.46342959     -15.70081478      -8.48850340       0.19815329       0.75686705       2.15031166
H        7.90840402     -16.48741015      -8.22191916       0.42813402      -0.18636236       0.05290564
H        6.68716011     -15.49285260      -8.01916756       0.59559009       0.24185234      -0.48363726
O       13.67170454       8.55513648      17.96383038      -0.20002951       0.34975459       0.42685866
H       14.09452922       8.75162538      17.04967231      -0.01590365       0.04918943       0.17944793
H       14.27257156       7.91729530      18.45357206       0.03441207      -0.03693932       0.10373936
O       -0.15523209       1.20943096      -1.22280707       0.06713328       0.97119984       0.56437440
H        0.82805967       1.44199062      -1.21111984      -0.08142547       0.10171289      -0.08877444
H       -0.34111745       0.35869730      -0.75545522      -0.47638372      -0.25963908      -0.07324212
O      -14.17490559      12.66328723      15.78351968       1.01369368       0.15269146      -1.07662587
H      -13.94490766      12.40287550      14.94485882       0.32336264       0.20336844       0.23494136
H      -14.97571829      12.18914841      16.10297717      -0.15699760      -0.38256470       0.33532909
O      -16.41900135       5.91185580      12.33286846       1.61854280      -0.38091830      -0.82643344
H      -16.98003162       5.93635697      11.55085619       0.20934258      -0.18264924       0.08654519
H      -16.11704897       6.86573916      12.37175769       0.07086301       1.08888976      -0.13921083
O       -9.94936799      32.92608237      -9.58333068      -0.09069322      -0.64440518      -0.28584548
H       -9.18907571      32.34800467      -9.29003064       0.23336364       0.33838970      -0.12196577
H      -10.74529293      32.41759001      -9.95231492      -0.55455286       0.08683796      -0.04034364
O       34.75734507      11.49201462      21.38379087       0.82376636      -0.76045342      -1.38436542
H       34.76820612      11.71492386      20.52077350      -0.03058110       0.52770244      -0.10582563
H       35.24689986      10.67462997      21.70681759       0.25562847       0.04273775       0.52401967
O       30.40278327     -12.66917351       2.15640384       0.42834807       0.84955909      -0.91202053
H       29.72508644     -12.14113601       2.54740637      -0.14510729      -0.00594499      -0.01438663
H       30.21304928     -12.60952770       1.24594985      -0.11254376       0.03143425       0.38099920
O       17.58756087       9.30500234      -7.43490802      -0.06306286      -0.36719450       0.15004540
H       17.43840824       8.33141036      -7.68941642      -0.48538135      -0.61399878      -0.43958695
H       17.41127218       9.55093375      -6.53441722      -0.00463890       0.08128505      -0.24103490
O       -5.15236320       2.59485510      32.18879207       1.17975349      -0.53003328       0.44233664
H       -5.77974064       2.12662621      31.75865591       0.00190130      -0.11997321       0.32921228
H       -4.39279957       2.06422771      32.40447101       0.34167434       0.10439184       0.23786808
O        3.78367283       0.87038793      -0.23256135       1.66646316       0.87636501      -0.19333851
H        3.47337100      -0.03581535      -0.35377232      -0.13636204       0.00406592      -0.17000075
H        4.15595317       1.02369177      -1.07302750       0.04888535      -0.34539970       0.21183710
O       23.22813063       3.22861671      11.66232032      -0.60791675      -0.04728974      -0.41312574
H       23.25299496       3.67559055      12.59752727       0.50899582       0.23842171       0.55766730
H       23.85147064       2.49847678      11.75417966      -0.16488504      -0.13609734       0.07162317
O       -1.42890796      31.82540194      15.02465239       0.73962612       0.66082607       0.75807337
H       -2.08451109      32.42438664      14.56741185      -0.24224599      -0.18807557       0.19659850
H       -0.60007926      31.84910976      14.60597477      -0.21647289      -0.31985868       0.45817235
O        4.82356972      19.39954505       5.21107391      -0.20120096       0.46637022       0.01410623
H        4.10676679      18.86772106       5.73460014      -0.33448836      -0.23512326       0.00373312
H        5.61133960      18.90516956       5.21745017      -0.17311475      -0.10454103      -0.06022529
O      -10.15355897      10.49620488       9.48753280      -0.95868985       0.67083202       1.50206687
H      -10.75121995      10.90804310       8.76522329      -0.50803904       0.12292070      -0.18398258
H      -10.44301049      10.79981226      10.32635592       0.49808933      -0.40253229      -0.18519911
O       17.69672128      17.76100617      26.16518665      -0.14546285       0.34332577      -1.31194496
H       18.53984800      17.26855205      26.01173771       0.07649812      -0.21175767       0.08053443
H       16.88941816      17.29538325      26.06040719      -0.12956813      -0.05770457       0.02201775
O        6.93800749      18.70752290      10.13622064       0.15756029      -0.19205400       0.13439870
H        7.23818122      19.32388385       9.46491498       0.08195305      -0.13562866       0.10771266
H        6.60223485      17.93574081       9.56126167      -0.34067284      -0.18378290       0.02543786
O       -0.63056745     -13.80769350      13.26170710      -0.49294754       0.16154006      -0.06596182
H       -1.42304953     -14.06304404      12.76294259      -0.15533072      -0.31243016       0.19406670
H       -0.11628818     -14.58403673      13.63618166       0.12734798      -0.46161599      -0.10090825
O        1.14497683       6.13049898       1.10323556      -0.50496068      -1.52980593       0.23545778
H        1.60383831       5.27641983       1.12094748       0.55411665      -0.76054527       0.23988895
H        0.97848852       6.35949174       0.19441060       0.15835681       0.61336297       0.17419512
O        3.13673875       1.32159642       8.36239817       2.07706244      -0.00763944       0.63550178
H        2.17339169       1.07136143       8.31009172      -0.88354379       0.17847863      -0.00620920
H        3.33066889       1.46951916       9.34327535       0.33071814      -0.30154926      -0.02689587
O      -18.83725307      28.81779924     -16.16119717       0.03082669       0.93772713      -0.72674528
H      -18.69601545      28.97181040     -17.06866007      -0.16696684       0.59420156      -0.39460309
H      -18.15906261      28.33251335     -15.70673254       0.46926506      -0.16970558       0.78194556
O        2.88109003      26.88072307      -9.10080469       0.53963560      -0.22612385       1.45967911
H        3.65884070      26.91502494      -8.37627341      -0.96641201      -0.05495911      -1.38862141
H        2.21071711      26.18646843      -8.84779890      -0.02925343       0.39100081       0.10061993
O      -18.09035703      19.01425611       1.92338790      -1.15183779      -0.82349846       0.62840974
H      -17.32838274      18.79988654       1.23482016       0.42864989      -0.16352329      -0.11450944
H      -18.92846974      18.52757925       1.74575088      -0.66119694       0.05616083       0.21241813
O       11.70866592      17.57782511       7.05606926       0.43101213       0.10856131      -0.70346500
H       12.59577855      17.35882308       6.73157068       0.13557215       0.03116182       0.17127736
H       11.22589703      18.26833696       6.58777984      -0.35862818      -0.06927274       0.04810135
O       -7.22886767     -11.22063172       5.17760680      -0.00089736      -0.89006591      -0.68362453
H       -6.56687773     -11.25201772       4.54463605      -0.34783786       0.10847655      -0.09803517
H       -7.44428609     -12.05058446       5.64118462      -0.13412140      -0.04809753       0.43331990
O      -24.14292291       3.39972272      10.70020222      -1.39839660      -1.39339057       0.08857982
H      -24.83856093       4.11327927      10.50463533      -0.31453126      -0.03690136       0.00526011
H      -23.30069266       3.71929958      10.32209190       0.57889673       0.09103776      -0.21295454
O      -11.42899669      -8.22456447      18.46781962      -0.06582401      -1.24937445       0.14895957
H      -10.67537147      -8.54803461      18.89341385       0.03545695      -0.19440091       0.19364059
H      -11.41149017      -8.30965036      17.56904104      -0.22114281       0.47113088       0.05277346
O        8.60115942       7.33662363      16.91197662      -0.94497481       0.23995837      -0.91505560
H        9.60737185       7.31648774      16.81546390      -0.12032593      -0.08027339       0.23457964
H        8.19820482       6.85000858      16.20617068      -0.18634841       0.38513159       0.10217792
O      -11.64507983      -0.48182786      20.43296837       0.49510909      -0.12535715       1.22607968
H      -12.50300088      -0.22423612      20.75820461       0.04686343       0.22982168      -0.17302030
H      -11.69237414      -0.57973160      19.43817380      -0.27696837      -0.14583854      -0.44128215
O       24.16446340       2.48036462      16.22789612      -0.96914000       0.87817247       0.01241735
H       23.95804885       2.49561377      17.13315332       0.29362820      -0.00725157      -0.07920918
H       24.01214192       1.64275738      15.68231051       0.11638520      -0.31452832      -0.54193515
O       -5.66817166     -17.95236019      -5.03017420       0.48854301       0.68041595      -0.93522159
H       -4.75273464     -17.80177880      -4.82789390      -0.40994559      -0.35866562      -0.62981141
H       -5.84112089     -18.65464213      -5.58641839      -0.09620900      -0.04076527       0.02376046
O       29.46004065      -8.98626729      -6.14450373      -1.69518566       0.56779831       0.03625641
H       30.27554221      -8.97106298      -6.73684637       0.45036244       0.21706162       0.07987977
H       29.16477191      -9.81175258      -5.96046642      -0.25873300       0.25274135       0.15431474
O        8.81240569      -0.66809330       3.41287552      -0.28364850       0.60735880       0.52463197
H        8.30338478      -0.04746105       2.89227917       0.31182682       0.02806064       0.05374803
H        8.30306408      -1.49696977       3.65301723       0.19050905      -0.07838507      -0.12263231
O      -19.78231117      -3.14915417      24.76581324      -0.46629024       1.27810506      -0.37298627
H      -20.09637412      -3.98389992      24.30363812       0.06474327      -0.54352527      -0.09698337
H      -19.19733623      -3.41275205      25.58413903       0.34608618      -0.12341415       0.39769309
O        2.39705125      -5.79677747      -6.03512214       1.37577728       0.57254999       0.53093283
H        2.54007723      -5.60267747      -5.10339945      -0.32069151      -0.37989480      -0.45845250
H        1.85695216      -6.55749473      -6.24459389       0.22286209       0.52153047       0.12223220
O        9.85312050       8.27993591       7.95629392       0.93315688      -0.51228658       0.54042310
H       10.49262113       8.50920438       7.27164775      -0.27799893      -0.11975205      -0.17560061
H       10.12593631       7.49273629       8.40831482      -0.40536430      -0.06862566      -0.13886102
O        5.35773618       9.75409586      -4.82631094       0.24242650       0.17397872      -0.42981292
H        6.15259169       9.10511532      -4.77918169       0.26402268      -0.15361637      -0.04867209
H        4.80474727       9.68876887      -4.02745068       0.10276484       0.09946494      -0.34175307
O       13.75996774      29.44858244      15.87014074      -0.87236778      -0.91680821      -0.07951568
H       12.90310570      29.07219299      16.10139708       0.13288744       0.29328958      -0.09742667
H       14.40180826      28.74154587      15.89781264      -0.09278681      -0.21291860      -0.10171550
O       -2.81443653       3.97409501       1.69821548      -0.70913319       0.79669866       0.29639280
H       -2.23957419       3.58482737       2.33908727       0.29104569      -0.53992508       0.37861611
H       -2.66271297       4.93306487       1.81950539      -0.12620443      -0.28868373      -0.25036333
O        7.81795050     -14.01937731      10.95519014       0.89949741       0.22643207      -0.33795936
H        6.85965542     -14.42094796      11.06617542      -0.74526326      -0.18323615      -0.18607346
H        8.17957116     -14.16757752      10.03472207       0.11843751      -0.39821251      -0.34327889
O       -2.46804924      10.54635660      24.34010106      -1.30011393      -0.36719327      -2.03688997
H       -2.04437980      10.15038516      23.60141707      -0.15774920       0.35346568       0.55891886
H       -3.23227859      11.21941320      24.29998865       0.05611060       0.23147488       0.39443753
O       20.05699967      21.74611081       1.55640591      -0.60198352       0.24935221      -0.07299489
H       19.96132702      22.29234917       2.41292913      -0.09101304       0.54586426       0.27911336
H       19.78674377      20.78445465       1.35300648      -0.19415941      -0.01025456      -0.31963438
O       12.16572532      10.00633443     -15.91200625       0.82889113       0.17908903       0.94223327
H       12.69408002       9.26273471     -15.49364558       0.00038754      -0.13183794      -0.40284204
H       12.52010896      10.07122086     -16.93019844       0.23938248       0.14208484      -0.26405829
O      -11.39855292      22.28249091       1.05422750       0.55736357       0.08039197      -0.08845215
H      -11.72206716      21.32969724       1.16349987      -0.50282021      -0.53389994       0.03412655
H      -10.83200421      22.57209584       1.80647175      -0.10048178       0.21239639      -0.15775558
O        2.94365509     -15.03404788      16.11694452      -0.66916779      -0.47934964      -1.22353956
H        3.29237108     -15.76970030      16.69458075      -0.13945345      -0.06668625       0.27290322
H        3.55108839     -14.32869418      15.98609226       0.13309694       0.09204138      -0.06765752
O        2.41910591      16.33073648       0.37471807      -1.08551752      -1.23234010       0.02113805
H        1.92704548      16.19569881      -0.53284002      -0.01399547       0.47714534       0.63232947
H        2.95625424      15.57336599       0.64019257       0.19782340       0.29398774       0.08053360
O       -5.70208381      -7.31120017       5.59726055      -1.69633152      -1.56360407       0.40146237
H       -5.31212382      -7.89692979       6.22802909       0.21119003       0.67976845      -0.02978480
H       -4.97080163      -6.76416723       5.17088605       0.32075755       0.04588238      -0.01584727
O       -2.15938737       2.39521874       6.65115101       0.34042639       0.00377174       0.65292493
H       -2.12767473       3.38484245       6.83902984      -0.23084960       0.23887002      -0.19242250
H       -1.83134351       1.74970273       7.47002240      -0.11099416       0.15211119      -0.45985100
O       13.17698670      -5.48514477      -1.45923143       0.63511587      -0.92535876      -0.27053413
H       13.91450421      -5.20724487      -1.93043931       0.04802716       0.04879987       0.07181760
H       12.94990246      -6.43845185      -1.64135432      -0.04217033      -0.78126059       0.38822430
O       11.82567206       4.89586322      22.73603890      -0.01199843       0.13509114      -0.13037870
H       11.19941279       4.12886250      22.96948609      -0.05755817      -0.03799028      -0.08590360
H       11.92323769       4.79637808      21.77651604       0.09145887      -0.23287235       0.24769851
O        8.16686685      14.49087698      23.81720078      -1.20142954       0.22476217       1.28416429
H        9.04302109      14.94577020      23.86784514      -0.00299797      -0.11802181      -0.28622556
H        8.05403254      13.52081761      24.12481598      -0.08605386      -0.57500893       0.10351847
O       -8.07875340       7.00457118      11.41744800       0.71090853      -1.22478677       0.65203212
H       -7.31223539       6.62739218      10.96604517       0.19272879       0.34312035      -0.33393849
H       -8.38319650       6.31749218      12.01487470      -0.25362123       0.48034543       0.07615846
192
Lattice="12.747883277644569 0.0 0.0 -5.291095453292692e-07 12.747883277644569 0.0 -5.291095453292692e-07 -5.291095453292692e-07 12.747883277644569" Properties=species:S:1:pos:R:3:momenta:R:3 step=80 time_fs=8.0 phase=equilibration pbc="T T T"
O       11.63586056       0.73086549     -16.48756652       1.27086695       0.13827918       0.64782842
H       12.14097935       1.01601489     -15.69318085       0.24451767       0.12340251      -0.34158195
H       10.88715192       0.12558235     -16.47596989       0.27839928      -0.00364100       0.06207804
O       26.36971581      24.78968275       4.91239710       0.22611577      -0.10032932       1.43956400
H       26.77851151      23.87372025       4.61588268       0.04853301       0.04328397      -0.00979721
H       25.59621684      25.10109091       4.43688625       0.14722509       0.18269609      -0.18457406
O        4.55501026      -0.31650361       6.61577062      -0.17998556      -0.59838816      -1.17131467
H        5.01994616      -1.06881390       6.90244042       0.37891756      -0.09140288      -0.24108996
H        4.21923142       0.17620261       7.39321909       0.16859332       0.04454002      -0.08242356
O       -2.85217064      -4.38700666       1.03581912       0.22449587       0.81182796       0.94487148
H       -2.60943693      -3.75956245       0.37887200       0.14667414       0.12281835      -0.29838237
H       -3.72830435      -4.12986014       1.42972023      -0.36422795       0.25973281       0.01825456
O        4.28760613      15.88012472      10.72039419       1.26860681       0.79504036      -0.53590589
H        4.33072398      16.68716264      11.14384827       0.15290754       0.04082587      -0.17853961
H        5.07387763      15.79101504      10.13598732      -0.54025424       0.15281362      -0.02926944
O       -1.38218487       6.60887356       5.14046178       0.21728067      -1.12599699      -0.58303582
H       -1.50770581       6.34438158       4.25633114      -0.62637910       0.19562368       0.49006317
H       -0.52374206       7.01285799       5.20547939       0.10343800       0.05826645       0.09310833
O       22.81851678      12.31863727       5.78261854       0.43461275       0.55143472       0.28569957
H       23.23437610      13.19784232       6.08562026      -0.13449027      -0.29802748       0.09269710
H       22.26851462      12.26610108       4.91391205      -0.47858307      -0.20664569       0.19458342
O       -1.04928270     -15.75720573       6.80035893      -0.82933463       0.29108345      -0.50675055
H       -0.57160393     -16.04122930       6.05025929      -0.06893357      -0.01774358       0.05336204
H       -1.46907577     -14.80914290       6.48454240      -0.22248962       0.39111656      -0.06327288
O       15.48449512     -17.90466683       9.68302040       0.45477021      -0.15727582       0.39392194
H       16.13064724     -18.47275142      10.25969546      -0.07832486      -0.13508602      -0.01168051
H       15.59810043     -16.95276205       9.49055295      -0.14309552      -0.26922869      -0.19121037
O        3.27600888     -14.66250842     -13.35731650       0.57030768      -0.14909293      -0.42505382
H        4.23647117     -14.96005531     -13.19562826       0.25867256       0.31240388       0.01294501
H        2.61600987     -15.03563266     -12.77282423      -0.08911390      -0.28430751      -0.10680330
O       -5.75606604       1.59920881       2.84929440      -0.53904228       0.73548932      -0.00573363
H       -6.45379313       1.13500288       2.40172562       0.27254295      -0.04114843       0.33315319
H       -5.33361653       2.46171965       2.58969144       0.15268445       0.20347282       0.27184026
O       -5.36542770      16.07906866      25.94158158      -0.54130428       0.90109986      -1.43048028
H       -5.41945548      15.52508329      25.12887396      -0.33192240       0.39800536      -0.22747698
H       -4.42003117      16.29622451      26.12000436       0.89707239       0.03941135       0.54608892
O        7.46537409     -15.69591097      -8.47572963       0.56687675       0.67254000       1.93497507
H        7.94967642     -16.50719109      -8.21587060       0.39515190      -0.18448513       0.05414494
H        6.73030399     -15.46667958      -8.05673269       0.24122260       0.30271077      -0.26145986
O       13.67106043       8.55686002      17.96528680       0.07810585       0.27260938       0.19073388
H       14.08469083       8.75328448      17.08557313      -0.17176238      -0.00804855       0.54709755
H       14.26643274       7.92379547      18.45601179      -0.15049672       0.17166308      -0.04389327
O       -0.15432581       1.21499428      -1.21901810       0.20956441       0.84105214       0.66418855
H        0.80657772       1.44625821      -1.21880747      -0.34598291      -0.01307161      -0.06841918
H       -0.38118104       0.34404190      -0.76896802      -0.34075324      -0.03324535      -0.20845946
O      -14.16913335      12.66396325      15.77785551       0.74000502       0.14432116      -0.64235593
H      -13.90716160      12.41660658      14.94955782       0.44225414       0.08140501      -0.12798114
H      -14.97841227      12.15582105      16.13160306       0.12612139      -0.27851479       0.24415841
O      -16.40827957       5.91028226      12.32753396       1.76880078      -0.09307248      -0.80402002
H      -16.96089217       5.91655297      11.55742516       0.17247781      -0.21040606       0.04504882
H      -16.11246436       6.95771047      12.35884675       0.00744257       0.79191966      -0.12711457
O       -9.94991329      32.92051316      -9.58505983      -0.18355943      -0.91969588      -0.35445207
H       -9.17748030      32.38736454      -9.30550081       0.01522566       0.46813151      -0.19324007
H      -10.78418106      32.43307743      -9.95108376      -0.23893234       0.24547919       0.06291316
O       34.76217281      11.48576311      21.37649262       0.99899146      -1.18545585      -0.86585222
H       34.76632030      11.76791978      20.49374610       0.00835486       0.55846276      -0.41166476
H       35.26300391      10.69663832      21.74464647       0.09305635       0.41084280       0.25770044
O       30.40526388     -12.66384858       2.15168690       0.57991414       0.80948685      -0.59063261
H       29.70099118     -12.13555752       2.55784992      -0.31496324       0.09895884       0.21497652
H       30.19977590     -12.60745690       1.25657346      -0.14812464       0.00571401      -0.16729008
O       17.58667464       9.30155752      -7.43438191      -0.09733939      -0.69704768      -0.05763571
H       17.39395337       8.28450549      -7.72628573      -0.41626632      -0.33969058      -0.31648775
H       17.41094186       9.55933526      -6.55320028       0.00115160       0.10044583      -0.12736268
O       -5.14440434       2.59248647      32.19133029       1.39842787      -0.24752601       0.61733886
H       -5.79262769       2.10510058      31.78204537      -0.25243505      -0.31573735       0.17746240
H       -4.35545849       2.07166422      32.42812376       0.38251358       0.06991770       0.24925902
O        3.79356364       0.87544664      -0.23301927       1.56923931       0.75017118       0.04659364
H        3.45628679      -0.03989026      -0.36693402      -0.20325990      -0.06147686      -0.09681592
H        4.16921395       0.99902890      -1.06746215       0.22875285      -0.15943863      -0.10640896
O       23.22400909       3.22857621      11.66055587      -0.56737528       0.05553219      -0.07995222
H       23.30035260       3.69274179      12.63809813       0.47154536       0.11713214       0.28463261
H       23.83350006       2.48698902      11.76013217      -0.19211830      -0.09810808       0.05560626
O       -1.42555723      31.82904988      15.02914400       0.32929146       0.74848459       0.82964112
H       -2.09890479      32.40067141      14.59022233      -0.06095245      -0.27424506       0.27075644
H       -0.60891135      31.81802509      14.64439835       0.05385808      -0.30509046       0.32706871
O        4.82084469      19.40180716       5.21153827      -0.65232543       0.40842449       0.17362445
H        4.08843550      18.85361390       5.72574315      -0.03818019      -0.04498039      -0.18229219
H        5.60017001      18.88892321       5.21190336      -0.05355698      -0.22226029      -0.05081537
O      -10.15958386      10.50021330       9.49509687      -1.06947011       0.69878679       0.98753132
H      -10.79084311      10.91347364       8.75951572      -0.30525795      -0.00875318       0.07483794
H      -10.39701210      10.76361227      10.31807084       0.42891087      -0.32235837       0.05798613
O       17.69635470      17.76280850      26.15639236       0.13813516       0.35419864      -1.36641511
H       18.53747319      17.25045496      26.02158486      -0.12001016      -0.14812535       0.13288336
H       16.87258376      17.28613513      26.06153306      -0.18917281      -0.11114120       0.01399776
O        6.93848313      18.70519142      10.13640608       0.04016872      -0.44469393       0.00920346
H        7.24735528      19.31316522       9.47549848       0.11309129      -0.07217909       0.10453374
H        6.57260630      17.92394479       9.57238640      -0.25949239      -0.04616192       0.20609251
O       -0.63336799     -13.80709577      13.26115134      -0.42504886      -0.07328270      -0.02215068
H       -1.43377997     -14.09356959      12.78423473      -0.06126643      -0.31741906       0.25140060
H       -0.11037123     -14.61892420      13.62025110      -0.00770412      -0.25607459      -0.21978913
O        1.14209126       6.12034220       1.10477793      -0.40690528      -1.76948159       0.27552581
H        1.65303313       5.21226757       1.14310007       0.43395081      -0.51509015       0.20799405
H        0.99433776       6.42101052       0.20940744       0.17044618       0.64586226       0.13878604
O        3.14873761       1.32144573       8.36679252       1.84295468      -0.03518654       0.84088793
H        2.10257717       1.09103380       8.31056334      -0.56026359       0.22352694       0.01986153
H        3.36030592       1.43780200       9.32595681       0.28135198      -0.34392386      -0.30861946
O      -18.83667154      28.82273509     -16.16479803       0.07352426       0.85574758      -0.59070471
H      -18.70770705      29.02808322     -17.11141859      -0.08945464       0.56217958      -0.43053351
H      -18.11588703      28.31874479     -15.63414167       0.36368043      -0.06819585       0.67105823
O        2.88443787      26.87826749      -9.09120157       0.48387035      -0.35746963       1.49059968
H        3.55849963      26.90869075      -8.51843414      -0.97149697      -0.05559558      -1.42557850
H        2.21431391      26.23223981      -8.83961721       0.07201925       0.52889157       0.07217653
O      -18.09665521      19.00837130       1.92636219      -1.04798267      -0.96443508       0.35516940
H      -17.30342509      18.78575338       1.23622360       0.07876131      -0.11809898       0.13944620
H      -18.98382683      18.53818863       1.76715498      -0.46735901       0.17849243       0.22935497
O       11.71104183      17.57809419       7.05156659       0.42067944       0.10878549      -0.71613571
H       12.60657375      17.36480062       6.74803901       0.09077078       0.09904062       0.16956871
H       11.19465812      18.25954987       6.59154849      -0.27229018      -0.10821005       0.03588216
O       -7.22950532     -11.22574981       5.17417286      -0.26000825      -0.86910105      -0.38545485
H       -6.58892280     -11.24423438       4.52238708      -0.10884175       0.04501669      -0.35723457
H       -7.45380738     -12.05034155       5.67785593      -0.06242889       0.06427081       0.30848984
O      -24.15094333       3.39201410      10.69992723      -1.35796068      -1.08625094      -0.10660694
H      -24.85847085       4.10030441      10.50726256      -0.10348670      -0.22602015       0.05438640
H      -23.25574101       3.72385395      10.30519476       0.30765076      -0.00545898      -0.11566870
O      -11.42986010      -8.23166140      18.46912605      -0.25679875      -1.14009782       0.41949735
H      -10.65771377      -8.57311277      18.91909962       0.27433369      -0.30279840       0.30390127
H      -11.43405109      -8.26299123      17.55677172      -0.23888755       0.48221918      -0.26996201
O        8.59617681       7.33806367      16.90623506      -0.62826015       0.29059289      -0.81809683
H        9.58086454       7.30742042      16.84048147      -0.40067523      -0.10198321       0.28146688
H        8.17760280       6.88483210      16.20914305      -0.24087260       0.32245089      -0.04535262
O      -11.64172644      -0.48274890      20.43916609       0.51265966      -0.17813514       0.93311797
H      -12.50033139      -0.19987873      20.74096508       0.00036842       0.27010326      -0.16988920
H      -11.71893860      -0.59251577      19.40911077      -0.27127287      -0.11552809      -0.13940270
O       24.15799338       2.48517782      16.22623878      -0.96368003       0.70437310      -0.44767716
H       23.98263380       2.49285219      17.13839762       0.22055554      -0.05123447       0.20130707
H       24.02516652       1.62479075      15.64051362       0.16007379      -0.04892647      -0.30222491
O       -5.66553639     -17.94711624      -5.03547646       0.28270346       0.88307138      -0.84522357
H       -4.77906916     -17.83128523      -4.88653211      -0.07913656      -0.24173663      -0.56478433
H       -5.85667445     -18.66939955      -5.59409966      -0.23228863      -0.26459899      -0.17873840
O       29.45013970      -8.98141366      -6.14508995      -1.30841961       0.94496715      -0.27534116
H       30.30302553      -8.95057188      -6.71796193       0.11329439       0.19714468       0.30822992
H       29.13440397      -9.80397617      -5.94051597      -0.34909583      -0.09117876       0.25126470
O        8.81021394      -0.66490294       3.41598006      -0.34694907       0.42467608       0.51807806
H        8.32974384      -0.04524633       2.89954008       0.21803763       0.03133659       0.08444183
H        8.32452516      -1.49477633       3.63849143       0.24385610       0.11038425      -0.16955247
O      -19.78469585      -3.14206870      24.76320958      -0.45353655       1.00781366      -0.30254158
H      -20.08417571      -4.02390058      24.30223060       0.17753453      -0.27245541       0.08121264
H      -19.17283869      -3.41984252      25.61061867       0.14634226      -0.02373943       0.15775353
O        2.40589062      -5.79269027      -6.03207477       1.54016772       0.74398677       0.37357066
H        2.50903574      -5.64060341      -5.14203074      -0.30015447      -0.38237034      -0.26903622
H        1.87178208      -6.51612560      -6.23317680       0.04877295       0.27542275       0.08750985
O        9.85854427       8.27693322       7.95936301       0.88921393      -0.39534557       0.51888980
H       10.46406076       8.49715286       7.25572604      -0.29362303      -0.12138655      -0.15731476
H       10.08963786       7.48108757       8.39735835      -0.32964855      -0.17953403      -0.07567761
O        5.35980691       9.75437517      -4.82882518       0.49864605      -0.01047948      -0.46164087
H        6.16509582       9.09864635      -4.78368370      -0.00681192       0.02649281      -0.04526833
H        4.81514959       9.69761465      -4.06232502       0.08597317       0.08293701      -0.33668665
O       13.75441908      29.44228735      15.86918421      -0.80061502      -0.92169837      -0.12371122
H       12.91100163      29.10070417      16.09136969       0.01067279       0.29507822      -0.09485407
H       14.39592274      28.71815942      15.88736846      -0.03113872      -0.24378677      -0.10582349
O       -2.81869069       3.97888600       1.69990924      -0.65352799       0.70696905       0.31880346
H       -2.21039015       3.53026935       2.37535569       0.25036352      -0.52847949       0.30357428
H       -2.67438704       4.90497787       1.79407093      -0.10339017      -0.25006652      -0.26172473
O        7.82272072     -14.01811526      10.95239935       0.71397367       0.08659748      -0.49083259
H        6.80329232     -14.43167464      11.04502115      -0.40827800      -0.04645968      -0.24333592
H        8.18204160     -14.20335072      10.01322297      -0.07122693      -0.34100284      -0.09036069
O       -2.47703199      10.54482179      24.32793099      -1.66757116      -0.03534915      -1.70569733
H       -2.05333832      10.17970918      23.64441116      -0.00167668       0.23212163       0.29184084
H       -3.21722497      11.23013429      24.33554010       0.24910536      -0.00875246       0.33881671
O       20.05264370      21.74683653       1.55634256      -0.66815552       0.16559952       0.07430605
H       19.95227322      22.33515274       2.42660697      -0.08576994       0.33160307      -0.00843463
H       19.76976783      20.79527242       1.32921464      -0.14973296       0.22721010      -0.16574749
O       12.17120794      10.00675848     -15.90641187       1.03103162       0.04469361       0.76207240
H       12.68771702       9.25857592     -15.53918381      -0.11447964       0.03713005      -0.52910933
H       12.53661259      10.08207398     -16.94202145       0.10588228       0.08412727       0.00964014
O      -11.39496901      22.28176707       1.05395159       0.50793409      -0.16809731      -0.01466826
H      -11.76454728      21.29307035       1.16656222      -0.36851012      -0.19815086       0.02975308
H      -10.84479009      22.58831901       1.78767905      -0.15267120       0.13562998      -0.20818076
O        2.93938443     -15.03753792      16.10949675      -0.68027424      -0.74394334      -1.08781799
H        3.27523728     -15.76395970      16.71227168      -0.21069932       0.17844363       0.09519037
H        3.56660315     -14.31794330      15.97905655       0.16655157       0.09947633      -0.06563906
O        2.41215520      16.32271580       0.37426708      -1.15314513      -1.24269945      -0.13147994
H        1.93152326      16.24219339      -0.45687616       0.08626724       0.47756157       0.88159084
H        2.97239406      15.60040769       0.64691585       0.14204244       0.25582465       0.06114342
O       -5.71202862      -7.31998068       5.59882751      -1.58468284      -1.32658065       0.12616102
H       -5.28691078      -7.83676797       6.23078595       0.31394291       0.52868739       0.11329982
H       -4.94792829      -6.76736734       5.17669628       0.13628697      -0.11408625       0.13402772
O       -2.15701541       2.39537735       6.65581070       0.41626950       0.06559427       0.90775778
H       -2.14917474       3.39072804       6.81835486      -0.20891377      -0.11227285      -0.22740324
H       -1.84579697       1.77598300       7.41369564      -0.18656245       0.38774904      -0.68895649
O       13.17973549      -5.49193196      -1.46038475       0.35656044      -1.34205225      -0.11804083
H       13.92966675      -5.20089217      -1.93091673       0.26176466       0.07413703      -0.07781183
H       12.95021682      -6.49774927      -1.60278347       0.05996569      -0.41647892       0.39987194
O       11.82494112       4.89589159      22.73486200      -0.14293652      -0.08639354      -0.06446016
H       11.19998006       4.13479644      22.96012903       0.06795977       0.15636308      -0.08712497
H       11.93236126       4.77593176      21.79904489       0.10907105      -0.18219108       0.18971366
O        8.15939602      14.49136314      23.82484821      -1.18444427       0.03666932       1.37242412
H        9.03629379      14.92874291      23.83935760      -0.12277956      -0.22408947      -0.28676214
H        8.04829879      13.47907463      24.12907024      -0.02720393      -0.27625799      -0.00372175
O       -8.07403366       6.99695355      11.42103707       0.78877799      -1.18869895       0.57317583
H       -7.29260970       6.66084093      10.93277655       0.18636483       0.34462974      -0.32745086
H       -8.40940114       6.36008823      12.02560472      -0.28860347       0.37899536       0.15839645
192
Lattice="12.747497313155169 0.0 0.0 -5.29093525611246e-07 12.747497313155169 0.0 -5.29093525611246e-07 -5.29093525611246e-07 12.747497313155169" Properties=species:S:1:pos:R:3:momenta:R:3 step=90 time_fs=9.0 phase=equilibration pbc="T T T"
O       11.64359432       0.73180582     -16.48305679       1.36459020       0.17680136       0.63311640
H       12.16091282       1.02478094     -15.72889029       0.18715453       0.06645410      -0.37502749
H       10.91437333       0.12576621     -16.46775951       0.27111167      -0.00423887       0.09636505
O       26.37069192      24.78715757       4.92090264       0.33642913      -0.46319934       1.37439665
H       26.77396965      23.89462396       4.62017867      -0.11961328       0.39117640       0.09799359
H       25.61013485      25.11704093       4.41772915       0.16441729       0.15636111      -0.19839825
O        4.55321836      -0.31978365       6.60820003      -0.34359893      -0.49795253      -1.22049301
H        5.06197020      -1.08456311       6.88448190       0.46835091      -0.20094237      -0.13293461
H        4.23591241       0.17973559       7.38585521       0.18167649       0.02374734      -0.06775708
O       -2.85151929      -4.38177409       1.04206604      -0.04017234       0.88228761       1.07071505
H       -2.59446846      -3.74487916       0.34831762       0.14635228       0.14682920      -0.29533337
H       -3.74875303      -4.10646017       1.42430334      -0.04384309       0.21335488      -0.13398595
O        4.29524372      15.88362584      10.71628826       1.20568436       0.51482847      -0.64920722
H        4.34691874      16.70686606      11.13573158       0.17909506       0.37192957       0.02012650
H        5.02184890      15.80387782      10.13153789      -0.46660909       0.10943117      -0.10481171
O       -1.38074362       6.60193028       5.13760051       0.26574245      -1.05646084      -0.27508718
H       -1.57214658       6.35862937       4.28918845      -0.69579671       0.09807214       0.17290127
H       -0.51021782       7.01975593       5.21488382       0.14722544       0.07340555       0.09519573
O       22.82040705      12.32211518       5.78362310       0.38939483       0.67118600       0.09196370
H       23.21273415      13.15739313       6.08846450      -0.28172587      -0.49581393      -0.02204445
H       22.23013254      12.24868375       4.95087622      -0.29190428      -0.14206709       0.56494872
O       -1.05492218     -15.75382011       6.79734228      -1.01420582       0.64968530      -0.40933461
H       -0.57314767     -16.04373002       6.04772226       0.03446699      -0.04184307      -0.09830914
H       -1.48536606     -14.78376492       6.48043112      -0.11554784       0.12579790      -0.02036254
O       15.48719454     -17.90546247       9.68565312       0.57098931      -0.30418895       0.56283405
H       16.11194715     -18.47370678      10.24901398      -0.29021722       0.10172897      -0.19826250
H       15.58512247     -16.98012558       9.47436857      -0.10831933      -0.27450143      -0.14081413
O        3.28007614     -14.66322922     -13.35932046       0.77418409      -0.23473294      -0.35033376
H        4.25193285     -14.92763758     -13.19624647       0.06055908       0.34135469      -0.03309381
H        2.60716874     -15.06372684     -12.78376837      -0.07786097      -0.29414895      -0.13527146
O       -5.75843140       1.60446385       2.84951445      -0.26237920       1.00673047       0.12073957
H       -6.43070469       1.13027684       2.42860765       0.17072874      -0.07071469       0.20339473
H       -5.32632039       2.46915475       2.61688927      -0.00820199      -0.04930318       0.28370448
O       -5.36793735      16.08405059      25.93176549      -0.31378518       0.89495959      -1.48625005
H       -5.44983930      15.56857872      25.11312201      -0.29523555       0.49273180      -0.09494221
H       -4.34604439      16.29667831      26.16975603       0.60303646      -0.02250106       0.48592847
O        7.47062783     -15.69227980      -8.46434995       1.22541152       0.33593593       1.69754948
H        7.98016488     -16.51535830      -8.21300992       0.21978921       0.02821884      -0.00555449
H        6.72830388     -15.43134661      -8.06677959      -0.27186203       0.41226359       0.04528614
O       13.67154646       8.55803638      17.96573135       0.15634947       0.19817859       0.19505787
H       14.06482033       8.75193469      17.14518756      -0.18962206       0.00976894       0.59666432
H       14.24485593       7.94777596      18.44617901      -0.25965459       0.29660027      -0.11957682
O       -0.15302969       1.21964251      -1.21459988       0.16378242       0.68274911       0.75833787
H        0.76601078       1.44014888      -1.22419571      -0.44056356      -0.10265643      -0.04178589
H       -0.40689725       0.35230810      -0.79599026      -0.18669646       0.19823452      -0.34238643
O      -14.16512096      12.66428187      15.77471433       0.43806358       0.07422106      -0.25331621
H      -13.85910566      12.41867576      14.92223569       0.52556973      -0.02211395      -0.39331431
H      -14.94817834      12.13572633      16.14815861       0.48370168      -0.12372788       0.10265025
O      -16.39632725       5.91024910      12.32254819       1.96690911       0.12755044      -0.68728801
H      -16.94648502       5.89678403      11.55735244       0.10776979      -0.18553401      -0.04601514
H      -16.11543519       7.02021100      12.34560892      -0.07948011       0.50193077      -0.13780773
O       -9.95149172      32.91335965      -9.58729847      -0.46332562      -1.05508920      -0.47885753
H       -9.18075500      32.43325693      -9.32535648      -0.05524167       0.46803635      -0.20865793
H      -10.79028719      32.46316903      -9.93946650       0.10695210       0.38653451       0.16823591
O       34.76764613      11.47731672      21.37131614       1.09740761      -1.38060769      -0.70578379
H       34.76815051      11.82040262      20.44897509       0.05134748       0.50208150      -0.42286331
H       35.26619742      10.74936749      21.75780886       0.02587367       0.62867736       0.05227237
O       30.40790079     -12.65829065       2.14899182       0.53980343       0.89818176      -0.29862969
H       29.66919666     -12.12649220       2.58308573      -0.28086989       0.05075846       0.26368148
H       30.18314455     -12.60725016       1.21959103      -0.16844788      -0.00378572      -0.51948034
O       17.58546162       9.29591300      -7.43540219      -0.12540290      -1.05044538      -0.35067299
H       17.35676561       8.26538223      -7.75016630      -0.33457455      -0.04541106      -0.17672803
H       17.41004297       9.57043286      -6.55694470      -0.00971486       0.13279512       0.04642752
O       -5.13481261       2.59129286      32.19464004       1.66053759      -0.15343233       0.76340126
H       -5.82358284       2.06777284      31.79501158      -0.34960111      -0.42261871       0.13155320
H       -4.32502004       2.08134781      32.44902099       0.21644878       0.14217632       0.19195987
O        3.80269684       0.87927589      -0.23219019       1.45231180       0.49277739       0.18112794
H        3.43540970      -0.04305259      -0.37190998      -0.21434726       0.01589789      -0.00314546
H        4.19920621       0.99214861      -1.09118130       0.37192788       0.01234647      -0.34330064
O       23.21993945       3.22910449      11.66067053      -0.53155875       0.14734544       0.22753027
H       23.34343923       3.69898636      12.65366067       0.42613338       0.01740574       0.04913258
H       23.81338123       2.47881155      11.76429518      -0.20085491      -0.07267358       0.03630143
O       -1.42466038      31.83276120      15.03424284      -0.02104223       0.75467103       0.99358461
H       -2.09925425      32.37227938      14.61698580       0.02982382      -0.26778230       0.27087350
H       -0.58862392      31.78769674      14.66839434       0.35464719      -0.29870126       0.17739840
O        4.81543677      19.40347751       5.21291451      -1.03820507       0.31795498       0.32232604
H        4.09874288      18.85781848       5.69917271       0.24485596       0.13901987      -0.35467432
H        5.59904283      18.86175991       5.20719207       0.01707345      -0.31191698      -0.04389165
O      -10.16613527      10.50417669       9.49891170      -1.16733855       0.69657935       0.34866721
H      -10.80963689      10.90565796       8.77974901      -0.08578391      -0.14427044       0.34662161
H      -10.35981223      10.73744175      10.34067743       0.32947213      -0.20966739       0.41157459
O       17.69716713      17.76426893      26.14703919       0.26655586       0.28990679      -1.42164043
H       18.51646876      17.23863808      26.03588645      -0.28604412      -0.08939780       0.17356965
H       16.85587492      17.27566634      26.06212298      -0.12155239      -0.07869052       0.01652024
O        6.93808049      18.70101624      10.13588975      -0.10479717      -0.73007924      -0.07424450
H        7.26019234      19.30895210       9.48365356       0.15456175      -0.00499848       0.06707382
H        6.55200297      17.92649635       9.60068299      -0.15715440       0.11209173       0.37852565
O       -0.63574887     -13.80792084      13.26073165      -0.35359330      -0.33463951       0.01775333
H       -1.43467863     -14.12387564      12.81135977       0.03957430      -0.31292733       0.31098673
H       -0.11794787     -14.63267543      13.59288766      -0.14870406      -0.03271106      -0.33152196
O        1.13993059       6.10846350       1.10651238      -0.29134337      -2.02620159       0.28855372
H        1.68800958       5.17591819       1.16122644       0.28813946      -0.23573657       0.16562275
H        1.01174715       6.48447595       0.22226118       0.18860943       0.65500567       0.13641895
O        3.15915765       1.32106769       8.37187848       1.57620838      -0.07854186       0.84425694
H        2.06353317       1.11414179       8.31362579      -0.24444604       0.24808733       0.04898712
H        3.38655621       1.40375633       9.28934874       0.27073694      -0.34557404      -0.38172739
O      -18.83513967      28.82683335     -16.16805441       0.24406575       0.77156838      -0.65140829
H      -18.71322412      29.07692108     -17.14156377      -0.03572712       0.44692148      -0.16993233
H      -18.09052829      28.32013217     -15.57827262       0.14082111       0.11792656       0.45682397
O        2.88548279      26.87530057      -9.08360295      -0.11170111      -0.31740167       0.88220244
H        3.50405020      26.90671758      -8.62864471      -0.10079101       0.04090379      -0.82958579
H        2.21239603      26.27864596      -8.83191775      -0.15352195       0.40616337       0.08699460
O      -18.10234606      19.00140767       1.92766199      -0.98552960      -1.11526534       0.08841708
H      -17.31191371      18.77596788       1.26163773      -0.26282809      -0.07032992       0.38226261
H      -19.01743178      18.56172763       1.79019343      -0.23159412       0.31496483       0.24250136
O       11.71314093      17.57825443       7.04689727       0.37306940       0.11535028      -0.73326572
H       12.61315708      17.37708365       6.76397144       0.05645986       0.16270260       0.15899938
H       11.17288670      18.24587027       6.59466840      -0.16659048      -0.15991671       0.03127069
O       -7.23161234     -11.23074615       5.17254281      -0.47875215      -0.86327544      -0.11578804
H       -6.58991483     -11.24277223       4.47650536       0.06272894      -0.02209396      -0.56116879
H       -7.45620113     -12.03671430       5.70008991       0.00479769       0.20033926       0.15415497
O      -24.15822044       3.38618868      10.69835360      -1.24638870      -0.78437439      -0.29606855
H      -24.85740485       4.06962433      10.51484330       0.10723714      -0.39493612       0.10732700
H      -23.24060086       3.71761420      10.29987155      -0.01140293      -0.11981837       0.01395433
O      -11.43096632      -8.23841114      18.47204135      -0.17515976      -1.15955549       0.69763346
H      -10.63139018      -8.60178374      18.94463848       0.21889209      -0.27029531       0.20858773
H      -11.45663589      -8.21517882      17.52196561      -0.23260210       0.49508713      -0.39483596
O        8.59252479       7.33985170      16.90114876      -0.53768624       0.36398396      -0.67073281
H        9.53669724       7.29617588      16.86829278      -0.44017529      -0.12585164       0.29401781
H        8.15025554       6.91174873      16.19585865      -0.31391097       0.23542227      -0.21474441
O      -11.63824424      -0.48396809      20.44338485       0.49635429      -0.22022815       0.64688759
H      -12.50181640      -0.17186976      20.72414107      -0.03192212       0.30136709      -0.16254699
H      -11.74418118      -0.60216545      19.40960927      -0.25106375      -0.08325246       0.15696628
O       24.15135801       2.48889478      16.22173403      -0.96391373       0.53220836      -0.82020902
H       24.00043214       2.48502820      17.16852762       0.16690342      -0.10887705       0.39038266
H       24.04168894       1.63302136      15.62302993       0.19215475       0.21614861      -0.04718673
O       -5.66467024     -17.94096156      -5.04058316      -0.06290018       0.89702027      -0.90152274
H       -4.76498744     -17.84742206      -4.93780898       0.35152587      -0.10569265      -0.49837978
H       -5.88483232     -18.69904988      -5.61599833      -0.33000627      -0.29937356      -0.23008822
O       29.44232362      -8.97443783      -6.14745610      -0.97937207       1.19631519      -0.53247673
H       30.29591949      -8.93252550      -6.67732528      -0.22650824       0.16676376       0.50862203
H       29.09680853      -9.82477923      -5.91209368      -0.38755935      -0.29847211       0.31776011
O        8.80793989      -0.66273570       3.41910999      -0.28524226       0.29398565       0.53766377
H        8.34358357      -0.03917642       2.90668207       0.06657971       0.10200125       0.05607342
H        8.34760225      -1.47944686       3.62090702       0.21975434       0.17498337      -0.18228754
O      -19.78682457      -3.13657914      24.76079950      -0.43212793       0.74892851      -0.23788992
H      -20.06096085      -4.03656552      24.31804442       0.28394866       0.01041325       0.25691772
H      -19.16808902      -3.41722687      25.61338465      -0.06071061       0.07534744      -0.08505601
O        2.41591789      -5.78720603      -6.03057434       1.74213423       0.97711546       0.04303769
H        2.48386306      -5.67395683      -5.14611897      -0.20996127      -0.29966938       0.20141637
H        1.86258616      -6.50877305      -6.23099941      -0.23451718      -0.12587189      -0.05430795
O        9.86340774       8.27465475       7.96234083       0.78861796      -0.27515027       0.54059094
H       10.43633982       8.48536103       7.23915818      -0.26377899      -0.11513790      -0.18287407
H       10.06147752       7.45722173       8.39301467      -0.24342074      -0.29478004      -0.01545205
O        5.36385331       9.75346770      -4.83207662       0.88384914      -0.18834867      -0.66047225
H        6.15063035       9.11003141      -4.78765096      -0.28537149       0.21237937      -0.03844268
H        4.81721542       9.70386057      -4.08710476      -0.05210718       0.04937639      -0.15867057
O       13.74976983      29.43566036      15.86774980      -0.55932396      -0.95552418      -0.18867745
H       12.90187830      29.12682553      16.08278291      -0.19267341       0.25542522      -0.07039894
H       14.39206248      28.69501944      15.87622647      -0.05608736      -0.20020258      -0.11346245
O       -2.82216743       3.98185132       1.70225836      -0.51408531       0.26835254       0.45943505
H       -2.19546942       3.48655781       2.39272702       0.05168098      -0.35859538       0.05120574
H       -2.68091602       4.89069782       1.76957696      -0.02554179      -0.01620228      -0.23685437
O        7.82633032     -14.01755434      10.94864964       0.54286460      -0.04071605      -0.62296251
H        6.77939863     -14.42984386      11.01824979      -0.08358063       0.07135587      -0.29703936
H        8.16470070     -14.23327101      10.01606043      -0.27913427      -0.28118319       0.15280853
O       -2.48839651      10.54535901      24.31818547      -2.03232139       0.28743740      -1.22256361
H       -2.04190789      10.19332597      23.65281213       0.23884111       0.05359010      -0.11043267
H       -3.18621495      11.21909193      24.36362006       0.35531295      -0.18294645       0.24920929
O       20.04778648      21.74725584       1.55735035      -0.71435568       0.20227485       0.27427595
H       19.94359318      22.35412044       2.40980583      -0.07960331       0.06746829      -0.33491156
H       19.75577224      20.82510658       1.32081531      -0.12857697       0.38500794      -0.00690841
O       12.17749898      10.00668257     -15.90195446       1.11408792       0.06547630       0.51453421
H       12.67478997       9.26423633     -15.59284205      -0.11763410       0.04560054      -0.55971764
H       12.54009220      10.08713677     -16.92801725      -0.02851893       0.02852681       0.26501332
O      -11.39195439      22.27917239       1.05370866       0.34468805      -0.46479963      -0.07498068
H      -11.79260798      21.29051171       1.16947399      -0.21195235       0.15978946       0.03147616
H      -10.85816795      22.59867172       1.76993444      -0.11423463       0.09869658      -0.13477976
O        2.93534369     -15.04202789      16.10264302      -0.59988531      -0.83119784      -1.00306671
H        3.25190325     -15.73578646      16.71323364      -0.25754624       0.37081918      -0.05107180
H        3.57950006     -14.31286832      15.97321427       0.08469739      -0.02153682      -0.04133864
O        2.40517629      16.31490116       0.37390750      -1.06539070      -1.12808349       0.08161450
H        1.93597403      16.28637487      -0.37575134      -0.03291779       0.43526987       0.71345919
H        2.98541578      15.61985778       0.65273936       0.13400166       0.14287936       0.06127431
O       -5.72123420      -7.32704655       5.59844077      -1.46343227      -1.05641519      -0.18724532
H       -5.25035831      -7.79597265       6.25245837       0.42503627       0.30073580       0.33711026
H       -4.94442203      -6.78453419       5.19486158      -0.06566878      -0.23148981       0.22925143
O       -2.15427723       2.39603450       6.66161813       0.42753882       0.19649498       0.97908366
H       -2.16779958       3.36496385       6.79480609      -0.17257597      -0.38652790      -0.24576552
H       -1.86600809       1.82175036       7.34003368      -0.20395833       0.50351742      -0.75491273
O       13.18090986      -5.50127023      -1.46070050       0.19056315      -1.73871310      -0.01620360
H       13.96086997      -5.19409202      -1.94309690       0.35189177       0.04892711      -0.15169463
H       12.96095420      -6.51879947      -1.56425949       0.16734519      -0.02202728       0.38492724
O       11.82333349       4.89464952      22.73425736      -0.25320867      -0.25477007       0.09403838
H       11.21007532       4.15715531      22.95323299       0.12990776       0.28745770      -0.02913417
H       11.94529468       4.76114198      21.80713353       0.16896723      -0.11562984      -0.02387037
O        8.15172463      14.49048343      23.83278342      -1.25144444      -0.19186519       1.44732326
H        9.02140275      14.90226988      23.81076634      -0.15647590      -0.30078005      -0.28518707
H        8.04837355      13.46627765      24.12301384       0.03326957       0.02183800      -0.10507840
O       -8.06847338       6.98970744      11.42368865       0.94914024      -1.10302692       0.39768486
H       -7.27850286       6.69396370      10.90400574       0.09003538       0.33822064      -0.24957824
H       -8.43895975       6.38946994      12.04582203      -0.32148891       0.22905703       0.26215024
