192
Lattice="12.747016283933998 0.0 0.0 -5.290735601670261e-07 12.747016283933998 0.0 -5.290735601670261e-07 -5.290735601670261e-07 12.747016283933998" Properties=species:S:1:pos:R:3:momenta:R:3 step=100 time_fs=10.0 phase=production pbc="T T T"
O       11.65178775       0.73299454     -16.47899780       1.44192107       0.21948334       0.46299845
H       12.17957777       1.03077411     -15.76040348       0.21841862       0.06577245      -0.26392839
H       10.93670348       0.12285550     -16.45595378       0.18696978      -0.06209968       0.13428839
O       26.37180883      24.78263327       4.92893824       0.32684866      -0.66146906       1.31297379
H       26.75550013      23.94399741       4.63326029      -0.21965986       0.59897850       0.15937133
H       25.62816017      25.12907389       4.39936913       0.23010954       0.10676482      -0.16963957
O        4.55075038      -0.32296796       6.60047624      -0.37990159      -0.57414697      -1.20442717
H        5.10633214      -1.10082864       6.87356130       0.42223172      -0.09945488      -0.09905690
H        4.25495438       0.18030943       7.37896762       0.21312051      -0.01221868      -0.06814282
O       -2.85234830      -4.37557146       1.04852308      -0.24808086       1.09781212       1.01970137
H       -2.58253080      -3.73543384       0.32661381       0.09099470       0.02786423      -0.13119453
H       -3.73662443      -4.08836213       1.40384362       0.27855009       0.15586613      -0.27785168
O        4.30176805      15.88570412      10.71215927       0.96802465       0.40712617      -0.53003625
H        4.36519944      16.75380667      11.14452817       0.20023076       0.55085246       0.13878638
H        4.98810590      15.81050154      10.10976499      -0.21810304       0.04247292      -0.33895466
O       -1.37853680       6.59556309       5.13681863       0.45095942      -0.93415066       0.07576749
H       -1.64230994       6.36364888       4.29026103      -0.73893852       0.01593252      -0.13226025
H       -0.50023938       7.02394806       5.22200488       0.03728752       0.00791258       0.04830440
O       22.82150446      12.32541065       5.78329809       0.24083606       0.49709821      -0.11575717
H       23.18266286      13.11006517       6.08429308      -0.28878312      -0.40699558      -0.03737190
H       22.20920194      12.23743537       5.02076069      -0.14073901      -0.08255725       0.83635215
O       -1.06156199     -15.74825055       6.79473473      -1.14924032       0.96218464      -0.37763858
H       -0.56637159     -16.04749444       6.03309986       0.09084525      -0.04104840      -0.17603819
H       -1.49181659     -14.78307465       6.47981985      -0.01846698      -0.12254638       0.01259858
O       15.49024701     -17.90731956       9.68918342       0.57893099      -0.50969987       0.68080919
H       16.07651971     -18.45443392      10.22311644      -0.38693280       0.24822086      -0.29401800
H       15.57672196     -17.00026497       9.46127869      -0.04865207      -0.13293190      -0.12540599
O        3.28513873     -14.66442679     -13.36062608       0.90290371      -0.33590040      -0.23609168
H        4.24817547     -14.89291955     -13.20093191      -0.13043571       0.35726325      -0.07129758
H        2.60261898     -15.09066651     -12.79965273      -0.00730684      -0.26575037      -0.20410395
O       -5.75881609       1.61134262       2.85072365       0.05365082       1.21814530       0.31650305
H       -6.42305295       1.11964407       2.43947076      -0.02322203      -0.14660374       0.01924722
H       -5.33358718       2.45531138       2.64303092      -0.12928800      -0.19672369       0.24103325
O       -5.36900053      16.08911011      25.92186683      -0.10713047       0.96371700      -1.39274065
H       -5.47683650      15.61742716      25.10478438      -0.26411966       0.50765786      -0.08012027
H       -4.30073701      16.29122040      26.21293435       0.33261955      -0.07429103       0.42052695
O        7.47948253     -15.69061336      -8.45407911       1.68385157       0.04708849       1.56923660
H        7.99142491     -16.49997418      -8.21635243       0.02708572       0.26047910      -0.06529668
H        6.68401478     -15.38728188      -8.05151176      -0.57425941       0.46180363       0.22999117
O       13.67135381       8.55886715      17.96696859      -0.09274051       0.19397292       0.44392417
H       14.05239533       8.75955211      17.18525090      -0.03837388       0.17299864       0.18800905
H       14.22084384       7.97330731      18.43915871      -0.19325063       0.19528113       0.02840424
O       -0.15291022       1.22339244      -1.20975522      -0.16636547       0.58257512       0.78612917
H        0.73072142       1.42830395      -1.22667068      -0.23370637      -0.12809381      -0.01012544
H       -0.41846366       0.37930578      -0.83357875      -0.06371932       0.31744211      -0.41024016
O      -14.16246651      12.66389314      15.77303768       0.30074864      -0.04772163      -0.17319126
H      -13.80699059      12.41441193      14.88110035       0.51009601      -0.03611260      -0.37752079
H      -14.88597899      12.13022722      16.15130893       0.74806271       0.00576266      -0.01141733
O      -16.38303387       5.91136291      12.31827720       2.15419517       0.30659145      -0.56140799
H      -16.93887344       5.88063681      11.54779810       0.04013410      -0.13962220      -0.13188144
H      -16.12699925       7.05580271      12.33129783      -0.17108210       0.23436677      -0.14483068
O       -9.95504440      32.90574952      -9.59028380      -0.78629583      -0.97294564      -0.59540941
H       -9.18221975      32.47238164      -9.34383915       0.03923477       0.34488798      -0.17219926
H      -10.76633287      32.50330191      -9.91921280       0.32445483       0.43128968       0.21894589
O       34.77279855      11.46902993      21.36521280       0.96979670      -1.11096054      -1.08723900
H       34.77404660      11.86025809      20.42223991       0.09707472       0.30732494      -0.07117218
H       35.27323652      10.80709454      21.76006599       0.18184070       0.51470415       0.04332258
O       30.40949158     -12.65182897       2.14720925       0.33900581       1.05218678      -0.30725840
H       29.64822652     -12.12784423       2.60339068      -0.12163951      -0.09173258       0.14146993
H       30.16665317     -12.60642631       1.17120447      -0.13744339       0.01368317      -0.40842721
O       17.58389711       9.28807260      -7.43805549      -0.17354378      -1.38182812      -0.58260019
H       17.32779390       8.27523233      -7.76012091      -0.24542934       0.25472223      -0.03402163
H       17.40813070       9.58387250      -6.54586221      -0.01222405       0.14342099       0.15350358
O       -5.12406786       2.59000481      32.19826068       1.73799869      -0.25664416       0.79258588
H       -5.85286462       2.02854288      31.80986872      -0.22478456      -0.35555773       0.21451479
H       -4.31433249       2.09990069      32.46288596       0.00612580       0.23592922       0.11984426
O        3.81136770       0.88139869      -0.23141368       1.43926890       0.21176932       0.02147374
H        3.41602097      -0.03397249      -0.36774899      -0.17115419       0.18237187       0.08360537
H        4.23616482       0.99907013      -1.12376767       0.36077174       0.11547020      -0.27239280
O       23.21587298       3.23016916      11.66253045      -0.50939500       0.24000942       0.52215200
H       23.38148909       3.69643523      12.64748083       0.37018299      -0.06465969      -0.16536508
H       23.79383441       2.47157605      11.76614122      -0.17678560      -0.07965037       0.00837440
O       -1.42522744      31.83592532      15.04040297      -0.12917292       0.65235244       1.19317092
H       -2.09712071      32.34991692      14.63911931      -0.00449358      -0.15148788       0.18367513
H       -0.54332918      31.75763299      14.67948462       0.54020285      -0.29218177       0.07609655
O        4.80827300      19.40434738       5.21499196      -1.17458049       0.21487580       0.39282592
H        4.13165641      18.87671171       5.65892072       0.38951092       0.23323700      -0.43872187
H        5.59909252      18.82994741       5.20267432      -0.02979128      -0.30956255      -0.04678423
O      -10.17325286      10.50809029       9.49899091      -1.26998143       0.70765669      -0.15710516
H      -10.80734571      10.88522403       8.82574079       0.11038034      -0.25696054       0.58849201
H      -10.33104359      10.72078060      10.39412908       0.26113405      -0.13381989       0.65997067
O       17.69800180      17.76519667      26.13718025       0.19049344       0.24335319      -1.46616460
H       18.48437850      17.22979944      26.05289438      -0.33348118      -0.09377018       0.19138037
H       16.85075174      17.27151933      26.06339179       0.03727185       0.01156508       0.03143994
O        6.93676662      18.69509045      10.13483419      -0.22643132      -0.94482823      -0.13819187
H        7.27653723      19.30978041       9.48847101       0.18282603       0.02932615       0.04513966
H        6.54124263      17.94384338       9.64438864      -0.06667398       0.24248891       0.51295912
O       -0.63759836     -13.81027498      13.26051252      -0.25076012      -0.59624392       0.07749369
H       -1.42768970     -14.15360773      12.84260071       0.08340948      -0.30793626       0.32609988
H       -0.13889440     -14.62418669      13.55542441      -0.26987071       0.18902187      -0.41814684
O        1.13837845       6.09520945       1.10806116      -0.20307569      -2.20535382       0.21532342
H        1.70929270       5.16517064       1.17539526       0.14891495       0.01921209       0.12594221
H        1.03141907       6.54648946       0.23898438       0.21812031       0.61197025       0.22242494
O        3.16773528       1.32035216       8.37596693       1.24450107      -0.13948917       0.55457622
H        2.05485763       1.13891263       8.31964609       0.07103887       0.25973638       0.08113697
H        3.41510897       1.37158409       9.26091492       0.32730561      -0.31017146      -0.15827043
O      -18.83237961      28.83029446     -16.17173292       0.42330072       0.71190887      -0.74235825
H      -18.71319828      29.11222258     -17.14187874       0.02293292       0.29756069       0.15021690
H      -18.08772626      28.34009621     -15.54524267      -0.09890450       0.31377333       0.20501735
O        2.88389030      26.87276268      -9.07907919      -0.34824724      -0.17723818       0.50328581
H        3.52559321      26.91409121      -8.69088850       0.51480932       0.12669666      -0.47854244
H        2.18173580      26.30708364      -8.82067513      -0.46352966       0.20216085       0.13926293
O      -18.10755907      18.99339798       1.92733774      -0.94649009      -1.25553793      -0.15956139
H      -17.35315823      18.77080608       1.31038352      -0.58577947      -0.02467810       0.60926241
H      -19.02684455      18.59802488       1.81388664       0.02769842       0.44160262       0.24301606
O       11.71478835      17.57827094       7.04214290       0.30674076       0.09974360      -0.72164282
H       12.61781418      17.39502961       6.77796980       0.05519509       0.21723816       0.13022514
H       11.16106155      18.22798333       6.59667820      -0.07221352      -0.18603052       0.01080167
O       -7.23449091     -11.23544382       5.17194070      -0.50597785      -0.78938550      -0.06731233
H       -6.58267503     -11.24781154       4.41949089       0.03900810      -0.09098386      -0.55866564
H       -7.45338269     -12.01316094       5.70892131       0.04218699       0.25582260       0.04145776
O      -24.16436426       3.38190761      10.69566172      -1.00914646      -0.60685385      -0.43739882
H      -24.83928506       4.02710453      10.52651719       0.20774529      -0.43422738       0.13013955
H      -23.25675162       3.70040860      10.30733266      -0.34380340      -0.23005383       0.14804253
O      -11.43098457      -8.24544781      18.47601698       0.03355947      -1.23398377       0.78472033
H      -10.61852732      -8.62300811      18.95630649       0.02670540      -0.16657910       0.04079375
H      -11.47866232      -8.16617866      17.48740362      -0.22653904       0.49993206      -0.25728622
O        8.58833289       7.34198776      16.89676292      -0.76282138       0.41381364      -0.56735357
H        9.50347413       7.28205275      16.89598122      -0.20989701      -0.15931460       0.28582049
H        8.11711136       6.93131715      16.16775256      -0.34674454       0.18237285      -0.33232143
O      -11.63500164      -0.48536055      20.44575718       0.40220134      -0.23346796       0.37940777
H      -12.50409383      -0.14191383      20.70802533      -0.01672227       0.30944754      -0.14896058
H      -11.76624470      -0.60887885      19.43743581      -0.20487569      -0.05675737       0.42323030
O       24.14443737       2.49156216      16.21567973      -0.99926807       0.37069328      -0.90343965
H       24.01515001       2.47162958      17.20409568       0.16100311      -0.16166074       0.30785684
H       24.06065458       1.66588437      15.62974419       0.21411974       0.45171351       0.19174344
O       -5.66573837     -17.93535257      -5.04650886      -0.30733707       0.69258555      -1.09920372
H       -4.71703762     -17.85223326      -4.98506566       0.56960042      -0.01552823      -0.48346212
H       -5.91679456     -18.71712588      -5.63137246      -0.31767371      -0.06011348      -0.07056702
O       29.43544475      -8.96682436      -6.15074410      -0.97040836       1.11787665      -0.56631121
H       30.26274480      -8.91742286      -6.62279715      -0.38303804       0.13772784       0.57317274
H       29.06153043      -9.85049455      -5.88130917      -0.28975481      -0.18462738       0.29317401
O        8.80632386      -0.66096617       3.42235870      -0.12320743       0.29921117       0.56035714
H        8.34238163      -0.02455810       2.90950899      -0.07703189       0.19485379       0.00641522
H        8.36433808      -1.46587402       3.60385987       0.12150131       0.08016322      -0.16080826
O      -19.78861738      -3.13272266      24.75861016      -0.39067761       0.46265289      -0.16789832
H      -20.02810427      -4.02140696      24.35035864       0.37065168       0.29666534       0.42276976
H      -19.18304372      -3.40492226      25.59254195      -0.25915417       0.17437853      -0.32223401
O        2.42678925      -5.78069720      -6.03110001       1.78310356       1.01709923      -0.26935863
H        2.46730866      -5.69937425      -5.10521138      -0.13723054      -0.23794338       0.58793407
H        1.83153127      -6.53284627      -6.24153834      -0.34799560      -0.30414800      -0.14302932
O        9.86757470       8.27276567       7.96560094       0.69505684      -0.26383105       0.63046558
H       10.41234917       8.47406825       7.21929744      -0.22073136      -0.11038659      -0.21815954
H       10.04081660       7.42693551       8.39154705      -0.17820490      -0.29513282      -0.02222122
O        5.37013672       9.75152566      -4.83662043       1.18255042      -0.29417006      -0.87024407
H        6.11184264       9.13736078      -4.79052068      -0.46685629       0.32543270      -0.02086277
H        4.80457586       9.70643437      -4.09294823      -0.19537244       0.01118811       0.02362944
O       13.74667250      29.42846454      15.86579866      -0.29110397      -1.03084874      -0.24810304
H       12.87400108      29.14845227      16.07627940      -0.35277276       0.21344960      -0.05445745
H       14.38171714      28.67897301      15.86424679      -0.15099014      -0.10351187      -0.11936778
O       -2.82487524       3.98181659       1.70539725      -0.40210922      -0.21902240       0.58547584
H       -2.20003326       3.46088242       2.38536797      -0.14669523      -0.16254772      -0.19921455
H       -2.67867552       4.90246840       1.74787857       0.06769011       0.24731967      -0.20868283
O        7.82885501     -14.01766262      10.94399140       0.36751517      -0.16538636      -0.74920207
H        6.78579545     -14.41714158      10.98696274       0.22127141       0.17896672      -0.33441590
H        8.12798328     -14.25700342      10.04151563      -0.45776997      -0.21903205       0.36070650
O       -2.50124894      10.54707591      24.31113216      -2.13126166       0.35021206      -0.80206280
H       -2.00805646      10.19101719      23.62337900       0.43767615      -0.07876041      -0.45040522
H       -3.15530501      11.20128512      24.38242868       0.24024937      -0.13517324       0.15820860
O       20.04255530      21.74807451       1.55962032      -0.73595189       0.35297887       0.47828800
H       19.93552522      22.34705235       2.36252442      -0.07056519      -0.18540991      -0.61648078
H       19.74243020      20.86510027       1.32678946      -0.13755784       0.42331319       0.12129838
O       12.18386393      10.00724944     -15.89926676       1.10433858       0.26047112       0.14468215
H       12.66802203       9.25964717     -15.64265378       0.00176082      -0.16186540      -0.45124911
H       12.52935310      10.08824449     -16.88970305      -0.18869344       0.01363205       0.50531769
O      -11.39009018      22.27446624       1.05281862       0.12024139      -0.79731902      -0.20278790
H      -11.80452942      21.32290033       1.17253202      -0.03956163       0.52054664       0.03069956
H      -10.86471512      22.60712965       1.76361079      -0.02757591       0.09481426       0.00815128
O        2.93174369     -15.04628675      16.09577338      -0.55486737      -0.70845963      -1.06838179
H        3.22738889     -15.69626530      16.70578497      -0.22692466       0.39137923      -0.05702079
H        3.58158657     -14.32248982      15.97012520      -0.03656908      -0.18280051      -0.01080983
O        2.39924122      16.30778124       0.37580597      -0.81391019      -0.99704931       0.57277884
H        1.91911919      16.32588525      -0.32730920      -0.33331073       0.39012687       0.24946399
H        2.99880427      15.62649974       0.65890728       0.14010415       0.00822812       0.06359413
O       -5.72942297      -7.33271257       5.59648004      -1.25256063      -0.91248176      -0.33702369
H       -5.20741147      -7.77589160       6.29313148       0.42147351       0.12517695       0.46967109
H       -4.95941849      -6.80986679       5.21860734      -0.23588260      -0.28087588       0.24911996
O       -2.15198252       2.39767096       6.66641437       0.26790422       0.34856308       0.59554461
H       -2.18255132       3.32543456       6.77190320      -0.13389193      -0.34853028      -0.20972074
H       -1.87964269       1.86341605       7.27952749      -0.04862177       0.29865791      -0.41902459
O       13.18161872      -5.51270624      -1.46071222       0.23322275      -2.03325721      -0.01975115
H       13.99006275      -5.19370067      -1.95590521       0.22773630      -0.05578035      -0.09413791
H       12.98168929      -6.50221421      -1.52845765       0.26518417       0.34627520       0.34505378
O       11.82126467       4.89268921      22.73430910      -0.25072688      -0.30018321       0.17518289
H       11.22048826       4.18592621      22.95481083       0.07033686       0.28032157       0.08670904
H       11.96468113       4.75349964      21.79350227       0.23480134      -0.03595089      -0.21988736
O        8.14328633      14.48788459      23.84099937      -1.40722556      -0.48670752       1.52196276
H        9.00916518      14.87104604      23.78219184      -0.07240223      -0.32039802      -0.28251556
H        8.05399501      13.48236243      24.10701902       0.08676093       0.32025607      -0.20455770
O       -8.06187106       6.98285320      11.42521658       1.09007832      -1.05567091       0.25681712
H       -7.27502136       6.72609681      10.88375943      -0.02237179       0.32520917      -0.15863965
H       -8.47045458       6.40596938      12.07423223      -0.32149332       0.12931314       0.31471999
192
Lattice="12.746455727290156 0.0 0.0 -5.290502938831658e-07 12.746455727290156 0.0 -5.290502938831658e-07 -5.290502938831658e-07 12.746455727290156" Properties=species:S:1:pos:R:3:momenta:R:3 step=110 time_fs=11.0 phase=production pbc="T T T"
O       11.66027206       0.73442273     -16.47619308       1.48243017       0.25222484       0.21163499
H       12.20404234       1.03851482     -15.77684783       0.29736273       0.09595809      -0.08518691
H       10.94947486       0.11326891     -16.44010074       0.08933463      -0.13163292       0.17642763
O       26.37222543      24.77770635       4.93685167       0.16057682      -0.53031713       1.35837793
H       26.73390545      23.99850656       4.64671409      -0.17120978       0.48129399       0.09756905
H       25.65295728      25.13545189       4.38469359       0.29900210       0.04732144      -0.12725890
O        4.54840312      -0.32706135       6.59292362      -0.30840706      -0.77477764      -1.16110548
H        5.14071185      -1.09973117       6.86286771       0.27919566       0.13051644      -0.11928083
H        4.27690357       0.17758621       7.37244138       0.23930338      -0.04137924      -0.05538091
O       -2.85395613      -4.36795346       1.05423580      -0.26589140       1.30552962       0.83477274
H       -2.57692697      -3.74062883       0.32451591       0.02344431      -0.13876921       0.08945415
H       -3.69971294      -4.07437606       1.37268301       0.42299333       0.14292034      -0.33813021
O        4.30688463      15.88801619      10.70924633       0.77709229       0.61516106      -0.25255383
H        4.38567864      16.80031671      11.15472509       0.22391040       0.36751779       0.05069319
H        4.97729224      15.81242055      10.06632725      -0.01578665       0.02065401      -0.52574830
O       -1.37509394       6.58985451       5.13783633       0.63413482      -0.84486186       0.28774586
H       -1.71444364       6.36261458       4.26798892      -0.72911620      -0.02132851      -0.27989478
H       -0.50413681       7.02015808       5.22341943      -0.11234677      -0.07606728      -0.01359018
O       22.82176593      12.32678001       5.78218571       0.20832147       0.10538441      -0.11960938
H       23.15812132      13.08477551       6.08348697      -0.18350634      -0.07279317       0.03594829
H       22.19307701      12.23063774       5.10268976      -0.21865955      -0.05131833       0.79416007
O       -1.06879118     -15.74080818       6.79184201      -1.21071713       1.23272090      -0.49263616
H       -0.55832972     -16.04894797       6.01753004       0.05936144       0.00360300      -0.11581885
H       -1.48866485     -14.80689348       6.48259890       0.08433463      -0.38539610       0.05326261
O       15.49253680     -17.90995655       9.69281119       0.35542857      -0.57747683       0.60954888
H       16.04355164     -18.43074763      10.19796766      -0.23985022       0.19249320      -0.18247092
H       15.57491199     -17.00273705       9.44882495       0.02715506       0.06587716      -0.11995149
O        3.29070553     -14.66611083     -13.36116819       0.93414022      -0.41403504      -0.14253583
H        4.22832941     -14.85753512     -13.20838550      -0.25026321       0.34914376      -0.08755770
H        2.60578588     -15.11396920     -12.82232648       0.07190591      -0.22748077      -0.26788771
O       -5.75760914       1.61870526       2.85320741       0.22381163       1.15406520       0.52948049
H       -6.43367031       1.10297296       2.43285316      -0.18453742      -0.18026274      -0.14312412
H       -5.34747242       2.43863694       2.66098466      -0.14419521      -0.10751110       0.11891401
O       -5.36884710      16.09470875      25.91285281       0.08153714       1.09862010      -1.15222800
H       -5.50096843      15.66399002      25.09141669      -0.23593716       0.45421743      -0.18721675
H       -4.28027902      16.28114113      26.24917876       0.08225139      -0.11700865       0.34376859
O        7.48963770     -15.68980818      -8.44403204       1.64146880       0.05191588       1.60813051
H        7.98802071     -16.46807607      -8.22381171      -0.06752002       0.34485634      -0.08550694
H        6.62954323     -15.34511184      -8.02845480      -0.46848740       0.36155692       0.20154872
O       13.66907477       8.55982644      17.96971005      -0.44835656       0.24324398       0.69131055
H       14.05726299       8.78618018      17.17761096       0.14594859       0.37298060      -0.30661967
H       14.20894485       7.98164893      18.45360375      -0.03673751      -0.01386763       0.27930414
O       -0.15527979       1.22720569      -1.20509552      -0.60671846       0.71668838       0.69923736
H        0.72686971       1.41668432      -1.22641912       0.16941477      -0.10459429       0.01165338
H       -0.42259767       0.40453643      -0.87162440      -0.03706394       0.15725214      -0.35425764
O      -14.15956819      12.66286425      15.77053557       0.49753534      -0.07250432      -0.45931155
H      -13.76205364      12.41328774      14.85592718       0.38991055       0.03065331      -0.10503248
H      -14.81020949      12.13044640      16.14874880       0.74222263      -0.02774435      -0.00156894
O      -16.36868549       5.91353130      12.31444757       2.27029106       0.48437238      -0.52972159
H      -16.93549907       5.86926139      11.53366839       0.02565439      -0.08816653      -0.12914049
H      -16.14745464       7.06519600      12.31664552      -0.26224547      -0.03573205      -0.14372442
O       -9.95974007      32.89931010      -9.59355108      -0.84240814      -0.61585401      -0.58756726
H       -9.16956506      32.49566595      -9.35747808       0.21935528       0.15520769      -0.11440632
H      -10.73847493      32.53758156      -9.90077332       0.18651711       0.27222944       0.13153704
O       34.77645261      11.46308940      21.35590422       0.71229990      -0.66191632      -1.63170716
H       34.78424091      11.87789146      20.43573017       0.14268267       0.06724557       0.35738528
H       35.30226244      10.84459356      21.76787929       0.44816041       0.26451308       0.14232779
O       30.40957359     -12.64438439       2.14476010       0.13007202       1.18543183      -0.46753410
H       29.64261517     -12.14325160       2.60944718       0.02631877      -0.23193115      -0.01525745
H       30.15470135     -12.60320833       1.14509119      -0.07946863       0.04202027      -0.11953712
O       17.58181971       9.27830065      -7.44160436      -0.25732966      -1.65878016      -0.65070391
H       17.30778925       8.31453736      -7.75627820      -0.14789572       0.55913060       0.10536487
H       17.40722664       9.59583887      -6.53191656       0.01477784       0.10118028       0.09823948
O       -5.11350835       2.58789379      32.20156718       1.58875202      -0.38214179       0.73338822
H       -5.86345560       2.00100563      31.83578548       0.01141407      -0.20132281       0.34875989
H       -4.31971202       2.12484891      32.47086679      -0.08957206       0.25928623       0.08295639
O        3.82020499       0.88187695      -0.23219801       1.50202826      -0.03012842      -0.28684895
H        3.40301139      -0.00651332      -0.35674834      -0.09234773       0.37552795       0.13535830
H        4.26559327       1.01231366      -1.13822809       0.23775491       0.14972246      -0.01271600
O       23.21179703       3.23178960      11.66617056      -0.48157997       0.33292108       0.83756973
H       23.41293659       3.68650762      12.62007393       0.29132991      -0.13333286      -0.38998808
H       23.77753649       2.46227628      11.76426231      -0.13595402      -0.11127672      -0.04164155
O       -1.42535746      31.83802537      15.04746749       0.12667467       0.47854941       1.30430092
H       -2.10176435      32.34187664      14.65033548      -0.09462080       0.01974258       0.05666604
H       -0.49357991      31.72899629      14.68612337       0.42223191      -0.26045820       0.09476703
O        4.80142928      19.40481485       5.21692637      -0.92841793       0.23783519       0.28530490
H        4.16319312      18.89423674       5.62010648       0.20746353       0.10877886      -0.32128774
H        5.59115354      18.80242576       5.19717326      -0.13095252      -0.22700448      -0.06428840
O      -10.18056707      10.51188281       9.49722859      -1.21638796       0.66145247      -0.17701741
H      -10.79418485      10.85885413       8.88654363       0.09989670      -0.24611579       0.61744698
H      -10.30631080      10.70835176      10.45954392       0.24591878      -0.12227014       0.63943556
O       17.69780153      17.76602300      26.12692525      -0.00808597       0.30115770      -1.49855018
H       18.45420377      17.21598667      26.07028866      -0.25247470      -0.18762648       0.18564051
H       16.86128404      17.27625395      26.06623956       0.17987352       0.09381653       0.04992291
O        6.93497767      18.68836482      10.13355670      -0.23072622      -0.93009556      -0.11128329
H        7.29454702      19.31177919       9.49276838       0.19004334       0.02329054       0.05644095
H        6.53530300      17.96657198       9.69574532      -0.07189825       0.20028866       0.52327858
O       -0.63880360     -13.81381361      13.26056963      -0.16660860      -0.70605268       0.12076689
H       -1.42405222     -14.18256199      12.87010856      -0.04268125      -0.29877676       0.23012124
H       -0.16477682     -14.59980065      13.51377457      -0.21471608       0.24775729      -0.39882413
O        1.13734329       6.08096391       1.10896488      -0.11471527      -2.34596939       0.09237556
H        1.71640097       5.17977738       1.18545551      -0.00510005       0.28969485       0.07944833
H        1.05441465       6.60137852       0.26742599       0.25481811       0.51317457       0.36485392
O        3.17409544       1.31925961       8.37783806       0.87228528      -0.19518168       0.18341587
H        2.07758161       1.16443772       8.32869805       0.39796182       0.26440679       0.11132128
H        3.45097162       1.34334657       9.26054214       0.41116624      -0.26929817       0.15171122
O      -18.82841652      28.83322471     -16.17579838       0.59526552       0.65308994      -0.80069283
H      -18.70704622      29.13231840     -17.11158954       0.08809991       0.14404033       0.44098733
H      -18.10830139      28.37868265     -15.53728954      -0.33798884       0.50124259      -0.05495963
O        2.88017877      26.87072647      -9.07683752      -0.95965111      -0.12992599       0.05710697
H        3.60910610      26.92845972      -8.71751316       1.28362952       0.19209234      -0.02684308
H        2.12974247      26.32044862      -8.80484090      -0.54242879       0.12945555       0.16962514
O      -18.11300900      18.98473430       1.92613720      -1.14396699      -1.24882622      -0.12458806
H      -17.41399513      18.76590760       1.37123028      -0.58888069      -0.09279220       0.56459752
H      -19.01200409      18.64475283       1.83689651       0.23088298       0.51854707       0.22665421
O       11.71596537      17.57794391       7.03755886       0.24776698       0.03695512      -0.66267831
H       12.62385942      17.41767564       6.78826158       0.08342482       0.26184221       0.08525933
H       11.15668390      18.20975776       6.59520878      -0.01450631      -0.16253357      -0.04082467
O       -7.23683187     -11.23929740       5.17076484      -0.33895081      -0.60702230      -0.27347044
H       -6.58793802     -11.25983934       4.37467373      -0.17107966      -0.16682408      -0.33217185
H       -7.44814564     -11.98972049       5.70986358       0.05527643       0.19333435      -0.00431394
O      -24.16815582       3.37795534      10.69226614      -0.56890280      -0.67270732      -0.49642853
H      -24.82306031       3.99273293      10.53729049       0.06494030      -0.23558321       0.09282761
H      -23.30540165       3.67286197      10.32745820      -0.64280625      -0.32186772       0.26011412
O      -11.42964949      -8.25283835      18.47985882       0.22986133      -1.28471564       0.71714760
H      -10.62593514      -8.63315216      18.95081610      -0.18471852      -0.05046424      -0.13405271
H      -11.49938898      -8.11812173      17.47518086      -0.20669519       0.47334003       0.03145194
O        8.58211550       7.34419455      16.89250454      -1.15540711       0.39824346      -0.60476743
H        9.49614803       7.26457315      16.92250310       0.06081005      -0.19164262       0.27387400
H        8.08558118       6.94955832      16.13489879      -0.27323578       0.21347600      -0.29643515
O      -11.63249795      -0.48672423      20.44646227       0.24103007      -0.21118625       0.16904733
H      -12.50333268      -0.11193502      20.69476817       0.02003815       0.30624193      -0.09416188
H      -11.78187676      -0.61388491      19.48767988      -0.12190567      -0.05385631       0.58878198
O       24.13710563       2.49341075      16.20978451      -1.03981079       0.30452831      -0.74469338
H       24.03054368       2.45389964      17.22188182       0.17757710      -0.19699750       0.05943105
H       24.08101960       1.71742322      15.65663859       0.22189592       0.56660741       0.34484513
O       -5.66718527     -17.93099691      -5.05365062      -0.19122749       0.47550315      -1.29627331
H       -4.66660426     -17.85021118      -5.03234790       0.41100934       0.03765075      -0.49019474
H       -5.94545892     -18.70785815      -5.62841583      -0.27689707       0.23165134       0.12384831
O       29.42712517      -8.96043329      -6.15335163      -1.37844928       0.81387416      -0.33583118
H       30.22964359      -8.90447655      -6.57181378      -0.21856340       0.12292237       0.43805707
H       29.04125289      -9.85350453      -5.85673837      -0.08983431       0.13193538       0.19788180
O        8.80568231      -0.65871779       3.42562326       0.02715662       0.44505064       0.54059478
H        8.33054072      -0.00378020       2.90969154      -0.14033768       0.20952487       0.01683320
H        8.36980568      -1.46597932       3.58938783      -0.00155347      -0.08456418      -0.13569488
O      -19.78988899      -3.13047798      24.75688364      -0.29203173       0.27485853      -0.01296442
H      -19.98924891      -3.98275091      24.39559445       0.38136007       0.42798470       0.48480366
H      -19.21631188      -3.38267522      25.54900831      -0.42677831       0.28581899      -0.53056264
O        2.43715019      -5.77477091      -6.03287494       1.60980494       0.81436318      -0.33506971
H        2.45507506      -5.72230742      -5.04428470      -0.11777344      -0.24663994       0.58293218
H        1.80350438      -6.55628831      -6.25409379      -0.20362850      -0.15679790      -0.10926964
O        9.87120355       8.27045624       7.96951570       0.63370931      -0.38612090       0.75957381
H       10.39215402       8.46317258       7.19664414      -0.18715966      -0.10531627      -0.23479502
H       10.02488843       7.40360583       8.38572112      -0.14404767      -0.16063784      -0.09730387
O        5.37716130       9.74956416      -4.84220825       1.11802969      -0.16799744      -0.99794444
H        6.06937639       9.16458754      -4.79066974      -0.35065737       0.20213384       0.01568190
H        4.78091180       9.70551511      -4.08536766      -0.26943748      -0.01831519       0.10438606
O       13.74478939      29.42060512      15.86348080      -0.15857412      -1.10186688      -0.27193079
H       12.83640764      29.16686553      16.06980926      -0.38108785       0.19611845      -0.07033800
H       14.36158470      28.67188774      15.85184763      -0.24210481      -0.02587142      -0.11964224
O       -2.82680340       3.97920651       1.70936416      -0.25844501      -0.52595299       0.73555465
H       -2.22401177       3.45522243       2.35381263      -0.34664960       0.05091782      -0.44377461
H       -2.66866212       4.93215001       1.72822197       0.12589796       0.31733795      -0.19643109
O        7.82997186     -14.01834625      10.93899654       0.08300418      -0.24522993      -0.66818108
H        6.82290986     -14.39325161      10.95247185       0.54215801       0.30064065      -0.35494174
H        8.07844675     -14.27665036      10.07739843      -0.51691272      -0.21161545       0.31709908
O       -2.51374614      10.54827173      24.30582333      -1.91768353       0.14705365      -0.64526485
H       -1.96169152      10.18118468      23.57097381       0.46943538      -0.08285140      -0.54127612
H       -3.14323761      11.19653031      24.39314572      -0.00609356       0.06176310       0.08766525
O       20.03727622      21.74986540       1.56268464      -0.67565736       0.52380865       0.47805451
H       19.92731532      22.32214958       2.29784655      -0.09038991      -0.25232771      -0.63819728
H       19.72535195      20.89979920       1.34243430      -0.20795946       0.27713468       0.19239219
O       12.19010721      10.00906706     -15.89897679       1.10737039       0.45350456      -0.24880882
H       12.67441066       9.22986347     -15.67669715       0.12950891      -0.42788342      -0.26071960
H       12.50157766      10.09135572     -16.82927249      -0.36219957       0.07042706       0.69189412
O      -11.38942652      22.26770850       1.05122674      -0.04012508      -1.04089519      -0.29170917
H      -11.79985869      21.38786857       1.17525752       0.10928984       0.79176643       0.03015728
H      -10.86384444      22.61491186       1.76975341       0.02474856       0.07958708       0.10504363
O        2.92800485     -15.04928737      16.08789989      -0.64719304      -0.48585178      -1.28109657
H        3.20974841     -15.66446693      16.70628865      -0.12636672       0.22330504       0.10359049
H        3.57428388     -14.34433889      15.96905847      -0.09074414      -0.25301660      -0.00312961
O        2.39509450      16.30120523       0.38094539      -0.51053320      -0.92223025       1.08350604
H        1.87072009      16.36149748      -0.32673271      -0.63890750       0.35725867      -0.20620151
H        3.01096772      15.62155215       0.66417913       0.10195641      -0.08619202       0.03982545
O       -5.73597999      -7.33806293       5.59441561      -0.97042751      -0.96572443      -0.21712225
H       -5.17350220      -7.76747517       6.33697748       0.25010865       0.05026733       0.41247406
H       -4.98680437      -6.83575968       5.24030895      -0.30585770      -0.23776319       0.18520093
O       -2.15109568       2.40009307       6.66767837      -0.01633133       0.45930286      -0.10123712
H       -2.19434403       3.30776609       6.75413461      -0.11200304       0.01718259      -0.14672740
H       -1.87005195       1.86940087       7.26866378       0.25179520      -0.18700575       0.21499906
O       13.18303069      -5.52524818      -1.46090660       0.44107382      -2.05715292      -0.06468184
H       14.00011086      -5.20595571      -1.95894528      -0.02130761      -0.20560070       0.03672820
H       13.01006946      -6.45809472      -1.49765251       0.31637861       0.48328064       0.28089457
O       11.81955293       4.89076574      22.73413445      -0.12067807      -0.24790760       0.05772092
H       11.22001912       4.20794687      22.96861540      -0.07510033       0.16716178       0.21282814
H       11.98859603       4.75387098      21.76866943       0.25527613       0.04693451      -0.22953001
O        8.13378516      14.48326390      23.84951128      -1.56015656      -0.79588270       1.58711181
H        9.00710532      14.83903748      23.75392891       0.02886061      -0.32707476      -0.27438548
H        8.06445336      13.52819907      24.08115748       0.13429810       0.62300604      -0.30092028
O       -8.05465054       6.97601999      11.42616731       1.12446683      -1.08052473       0.23926319
H       -7.28141644       6.75644523      10.87168522      -0.10798656       0.30126153      -0.08356181
H       -8.49848322       6.41723653      12.10254242      -0.24818405       0.12188194       0.25860876
192
Lattice="12.745855902539938 0.0 0.0 -5.290253977499056e-07 12.745855902539938 0.0 -5.290253977499056e-07 -5.290253977499056e-07 12.745855902539938" Properties=species:S:1:pos:R:3:momenta:R:3 step=120 time_fs=12.0 phase=production pbc="T T T"
O       11.66886065       0.73594877     -16.47479912       1.49046111       0.24910348       0.00850221
H       12.23572248       1.04907385     -15.77672334       0.35420889       0.11632072       0.05836496
H       10.95506758       0.09873267     -16.42018564       0.05095344      -0.15367203       0.21485158
O       26.37115956      24.77439132       4.94542441      -0.11040457      -0.14408607       1.52874906
H       26.72456404      24.02601532       4.64834920       0.02524368       0.07090224      -0.07169460
H       25.68245425      25.13699174       4.37375373       0.31778300       0.01823496      -0.09915800
O        4.54660015      -0.33247305       6.58560301      -0.21192017      -0.98640338      -1.12524653
H        5.15982935      -1.07531309       6.84935779       0.12240391       0.36001515      -0.15018170
H        4.30078446       0.17268116       7.36812124       0.25238359      -0.05646475      -0.02383559
O       -2.85473586      -4.35944495       1.05853359       0.00108889       1.36694515       0.58986854
H       -2.57599203      -3.76048749       0.34162362       0.01209327      -0.25047041       0.23065722
H       -3.66565793      -4.05685499       1.34270011       0.21861221       0.22483962      -0.25272068
O        4.31120477      15.89199315      10.70796149       0.73007876       0.92317597      -0.03241317
H        4.40826085      16.81957565      11.15080843       0.24217598       0.03941797      -0.12268524
H        4.98007289      15.81456425      10.01116987       0.04465476       0.04484067      -0.56176712
O       -1.37100852       6.58435238       5.13924973       0.63352503      -0.86851972       0.20420445
H       -1.77998354       6.36115082       4.24516916      -0.59170059       0.00667739      -0.13813313
H       -0.51956432       7.00990191       5.21922293      -0.18382235      -0.11615701      -0.06581573
O       22.82232664      12.32549200       5.78159691       0.34462798      -0.32805461       0.02591379
H       23.14554548      13.09738888       6.09176786      -0.05662360       0.34030769       0.13853855
H       22.15838964      12.22558027       5.16906334      -0.48662771      -0.04206907       0.56209852
O       -1.07626649     -15.73169070       6.78785248      -1.23680643       1.49045804      -0.70969630
H       -0.55653204     -16.04459458       6.01270071      -0.02628795       0.07026626       0.02793907
H       -1.47471082     -14.85793439       6.49031487       0.19944309      -0.67298385       0.11297372
O       15.49297140     -17.91242103       9.69552152       0.01640668      -0.46723897       0.40613532
H       16.03247077     -18.41857860      10.19029938       0.03816659       0.03099182       0.04464865
H       15.58039177     -16.98850937       9.43796141       0.09638272       0.18419070      -0.08630633
O        3.29594847     -14.66802306     -13.36134379       0.79481667      -0.41943491      -0.13618913
H        4.20528920     -14.82516032     -13.21530806      -0.18285788       0.29191220      -0.05943963
H        2.61546680     -15.13435094     -12.84945123       0.12317602      -0.21101931      -0.29456082
O       -5.75599273       1.62486262       2.85681857       0.17475569       0.84217775       0.67186901
H       -6.45326684       1.08853931       2.41447502      -0.18789083      -0.08764998      -0.20994336
H       -5.35924758       2.43829399       2.66475641      -0.09774239       0.11208500      -0.04126997
O       -5.36749115      16.10116051      25.90547356       0.27829747       1.24582664      -0.85704958
H       -5.52208515      15.70392064      25.06477285      -0.20053783       0.38223912      -0.33115488
H       -4.28474096      16.26709046      26.27694433      -0.18021506      -0.15491331       0.24845370
O        7.49823559     -15.68786588      -8.43350401       1.24168721       0.38310479       1.68473898
H        7.98251501     -16.43922234      -8.22983264      -0.01466817       0.19358083      -0.03418665
H        6.59882374     -15.31855381      -8.01458078      -0.14547116       0.16176707       0.07230080
O       13.66494170       8.56107558      17.97342119      -0.63657769       0.29712858       0.73674397
H       14.07624713       8.82699680      17.13526436       0.22404740       0.43938419      -0.45517301
H       14.21054093       7.97381262      18.48721185       0.06489816      -0.10895318       0.39497818
O       -0.16010918       1.23237030      -1.20113168      -0.92934841       0.99405437       0.57539431
H        0.76131138       1.40744402      -1.22459709       0.49740963      -0.09242471       0.02418787
H       -0.42701798       0.40580164      -0.90125705      -0.05271477      -0.13150825      -0.25718466
O      -14.15461531      12.66220310      15.76563923       0.91568383       0.06942630      -0.90811592
H      -13.73084917      12.41969088      14.86113117       0.23351320       0.11228073       0.22982818
H      -14.74664556      12.11818222      16.15318724       0.53142368      -0.22828884       0.12001066
O      -16.35383821       5.91677346      12.31045686       2.30404693       0.66434122      -0.59288137
H      -16.93035877       5.86289363      11.52460372       0.07051902      -0.03804346      -0.03509570
H      -16.17627966       7.04820879      12.30224130      -0.34239843      -0.30606614      -0.13991866
O       -9.96407906      32.89541569      -9.59647551      -0.69319490      -0.14943224      -0.50305876
H       -9.13943546      32.49963422      -9.36542769       0.37167373      -0.03364697      -0.06213299
H      -10.73456957      32.54998846      -9.89464709      -0.12806995       0.00602510      -0.01905074
O       34.77844324      11.45949700      21.34379692       0.48748139      -0.39396551      -1.89131160
H       34.79845400      11.87536577      20.48269793       0.18244976      -0.07388208       0.55206900
H       35.35545755      10.86021825      21.78481071       0.65482526       0.09333411       0.20713014
O       30.40839607     -12.63619180       2.14118138      -0.04216508       1.28381457      -0.67387542
H       29.64932275     -12.17108728       2.60036061       0.13192088      -0.34514204      -0.16466606
H       30.14865022     -12.59707812       1.14874322      -0.01460003       0.07081355       0.19910940
O       17.57910660       9.26703867      -7.44506950      -0.34812313      -1.82658546      -0.56875070
H       17.29724462       8.38157900      -7.73949844      -0.06202817       0.78488477       0.21827528
H       17.41023333       9.60133979      -6.52998571       0.06585154       0.01726495      -0.07334253
O       -5.10450328       2.58527099      32.20421462       1.24558417      -0.41644987       0.61712983
H       -5.84935888       1.98955949      31.87485329       0.27104045      -0.03359788       0.48066898
H       -4.32552870       2.14671041      32.47804952      -0.01065562       0.17755197       0.10390475
O        3.82959395       0.88125640      -0.23489682       1.63097173      -0.11945340      -0.58740574
H        3.39610499       0.03520303      -0.34255932      -0.06429975       0.44373568       0.14967064
H        4.28142920       1.02741104      -1.12542165       0.09282461       0.16038678       0.27105535
O       23.20793974       3.23391649      11.67185058      -0.40927807       0.40175654       1.19678835
H       23.43506675       3.67076208      12.56946385       0.18020859      -0.18044659      -0.63719569
H       23.76470709       2.44965981      11.75571715      -0.10915436      -0.14338642      -0.12924095
O       -1.42323055      31.83888151      15.05489778       0.53752334       0.29649971       1.33717468
H       -2.11403597      32.35021986      14.64913213      -0.14242920       0.17091545      -0.05925664
H       -0.46751244      31.70495095      14.69871187       0.09993610      -0.19922284       0.18052134
O        4.79685718      19.40565594       5.21784733      -0.47441770       0.33824792       0.09094390
H        4.16522130      18.89229962       5.59917554      -0.17612013      -0.13745394      -0.09778031
H        5.57301704      18.78557902       5.18930884      -0.23292189      -0.09656339      -0.09257862
O      -10.18681625      10.51509152       9.49698429      -0.94668248       0.53413957       0.29507301
H      -10.79492069      10.84057117       8.93765603      -0.15511308      -0.10398576       0.41507066
H      -10.28108824      10.69441914      10.50927300       0.26298804      -0.15731033       0.36521750
O       17.69643021      17.76751302      26.11641546      -0.14207306       0.47172014      -1.52385339
H       18.43537371      17.19014156      26.08627545      -0.11295685      -0.32728962       0.16696262
H       16.87958635      17.28590697      26.07050368       0.18163303       0.10628373       0.06143683
O        6.93358108      18.68246192      10.13272910      -0.10171128      -0.67895541       0.00400548
H        7.31214047      19.31132860       9.49953021       0.17345245      -0.02109485       0.09572982
H        6.52299317      17.97483974       9.74145376      -0.18622465      -0.03361305       0.41156842
O       -0.63988042     -13.81713990      13.26063114      -0.22386615      -0.56739615       0.08922681
H       -1.43869806     -14.21035604      12.88450097      -0.25034475      -0.27926433       0.08139510
H       -0.17336554     -14.58372276      13.48011150       0.05826244       0.04012436      -0.27092595
O        1.13693083       6.06584113       1.10911278       0.00243287      -2.48737934      -0.02234695
H        1.70748312       5.22188168       1.19034473      -0.17755212       0.57939163       0.02069401
H        1.08078117       6.64503563       0.30979494       0.28543575       0.38735953       0.49958371
O        3.17822470       1.31785454       8.37781790       0.53485963      -0.24227741      -0.01122987
H        2.13263833       1.19036952       8.34039227       0.73707522       0.26976519       0.13614915
H        3.49343792       1.31866710       9.28410062       0.44752941      -0.23689754       0.29145148
O      -18.82342555      28.83555686     -16.17962697       0.72871460       0.53234850      -0.63838960
H      -18.69350686      29.14013795     -17.06223146       0.17822779       0.06740417       0.49254573
H      -18.15145300      28.43460534     -15.55414079      -0.55687977       0.66703300      -0.29793324
O        2.87201901      26.86850212      -9.07705926      -1.50380512      -0.18785396      -0.17111461
H        3.76376178      26.94804409      -8.70120847       1.71609502       0.22460050       0.26475656
H        2.08429016      26.33508156      -8.78867660      -0.36460266       0.21344468       0.14368534
O      -18.12008110      18.97687272       1.92633280      -1.42157090      -0.98523685       0.25401074
H      -17.45429782      18.74582753       1.40996023      -0.21235655      -0.31914776       0.19835434
H      -18.98936749      18.69343290       1.85682203       0.15802121       0.47882168       0.18003360
O       11.71681521      17.57704270       7.03343863       0.21302038      -0.06544381      -0.56851823
H       12.63295707      17.44428743       6.79387485       0.11241546       0.30059479       0.03724973
H       11.15610628      18.19605974       6.58719234       0.00935548      -0.09626361      -0.12056036
O       -7.23785993     -11.24170333       5.16789342      -0.10560127      -0.34358177      -0.58828399
H       -6.61650210     -11.27909006       4.35668869      -0.41692877      -0.23635342      -0.03166036
H       -7.44240184     -11.97734673       5.70963458       0.05410674       0.04181088       0.01208356
O      -24.16982324       3.37282092      10.68899742      -0.42103104      -0.98406980      -0.37021705
H      -24.83020407       3.98457416      10.54295217      -0.25711892       0.08159730       0.03237184
H      -23.36371590       3.64194585      10.35053582      -0.48073229      -0.28294241       0.18491855
O      -11.42732524      -8.26033433      18.48296937       0.32058443      -1.26521733       0.56038774
H      -10.65062315      -8.63333119      18.93005058      -0.30032657       0.02385015      -0.25664252
H      -11.51741803      -8.07425807      17.49231640      -0.17217181       0.41351848       0.33420376
O        8.57337824       7.34611294      16.88757032      -1.53959184       0.33575431      -0.75211363
H        9.51094500       7.24458394      16.94786090       0.22181694      -0.20644550       0.26266344
H        8.06580139       6.97408187      16.11284484      -0.11779937       0.29971044      -0.12897577
O      -11.63095671      -0.48780532      20.44662782       0.08763409      -0.13836393       0.26319707
H      -12.49948073      -0.08190123      20.68946068       0.04767389       0.31058260       0.00967346
H      -11.78931346      -0.62149430      19.53817340      -0.04933332      -0.11524320       0.39637421
O       24.12950647       2.49575281      16.20563224      -1.06572584       0.54699762      -0.32180471
H       24.04760952       2.43354079      17.21233360       0.19545200      -0.21606627      -0.24355931
H       24.10107264       1.76475020      15.68739746       0.21225351       0.35289776       0.26473029
O       -5.66728162     -17.92774885      -5.06189693       0.08351803       0.33025546      -1.45360426
H       -4.64025096     -17.84354482      -5.07952722       0.12161837       0.08079603      -0.47968866
H       -5.97073690     -18.67177815      -5.60800744      -0.25381173       0.47074016       0.27384618
O       29.41546453      -8.95607082      -6.15412184      -1.96873899       0.48636488      -0.01456661
H       30.22297775      -8.89215693      -6.53971724       0.11878687       0.12323297       0.21274387
H       29.04172999      -9.82359919      -5.84282763       0.11927326       0.45388976       0.08559385
O        8.80563536      -0.65531312       3.42856019       0.07314360       0.65006243       0.46322688
H        8.31741823       0.01220914       2.91554968      -0.10918314       0.10353281       0.11697464
H        8.36428314      -1.48038796       3.57620353      -0.09329359      -0.19386439      -0.13705825
O      -19.79046683      -3.12814913      24.75621466      -0.24277194       0.50741865       0.12200514
H      -19.95810309      -3.95333242      24.43251349       0.22381097       0.11864539       0.27034825
H      -19.25705533      -3.34870883      25.49694562      -0.36912961       0.38863040      -0.43273565
O        2.44628865      -5.77017890      -6.03426364       1.40592581       0.59841145      -0.21236687
H        2.44384250      -5.74727078      -4.99835101      -0.10939380      -0.26893106       0.35899618
H        1.79248370      -6.56226528      -6.26194580      -0.02427663       0.02076619      -0.05996158
O        9.87450995       8.26722895       7.97411708       0.59779626      -0.52906134       0.84730522
H       10.37421628       8.45276103       7.17436568      -0.17529000      -0.10075876      -0.20597474
H       10.01143624       7.39579809       8.37154833      -0.12195416      -0.00052073      -0.18104208
O        5.38270115       9.74885987      -4.84806863       0.72682413       0.10056058      -0.95588991
H        6.04915601       9.17060920      -4.78679753      -0.04120683      -0.08624246       0.06018544
H        4.75626366       9.70269058      -4.07839916      -0.20599567      -0.02725092       0.00237656
O       13.74304541      29.41240272      15.86111077      -0.23361564      -1.10146369      -0.24935560
H       12.80315849      29.18484723      16.05990319      -0.26851565       0.20364584      -0.12298699
H       14.33557370      28.66855089      15.83973050      -0.26244050      -0.03319183      -0.11290921
O       -2.82784425       3.97569269       1.71415283      -0.15607788      -0.48878172       0.81167751
H       -2.26466624       3.46843769       2.30191451      -0.44939091       0.18958489      -0.57467359
H       -2.65563297       4.95490597       1.70910228       0.13289256       0.11983026      -0.19379692
O        7.82884241     -14.01931185      10.93522652      -0.34390737      -0.28239543      -0.38249286
H        6.88755455     -14.35678729      10.92084123       0.77680234       0.43541553      -0.26712295
H        8.03528022     -14.29881657      10.09013111      -0.33403299      -0.26118762      -0.07670068
O       -2.52402323      10.54755660      24.30035375      -1.45600008      -0.22160441      -0.78182580
H       -1.92372557      10.17884972      23.52612704       0.28998236       0.05441695      -0.33139871
H       -3.15641429      11.21316808      24.39771516      -0.25731476       0.28271519       0.02903307
O       20.03266791      21.75225637       1.56468937      -0.50537636       0.56591868       0.16355250
H       19.91417031      22.30431411       2.24880492      -0.16759431      -0.06330037      -0.33100657
H       19.69818059      20.91372454       1.36311965      -0.33494320       0.02489782       0.23074528
O       12.19629599      10.01140234     -15.89983165       1.09485832       0.40336058      -0.16574973
H       12.68801984       9.18185564     -15.69391035       0.13338392      -0.50005778      -0.12193991
H       12.46259329      10.10299246     -16.76777759      -0.39547874       0.18749306       0.46008579
O      -11.38904228      22.26062014       1.04912094       0.03641026      -0.84128307      -0.38288715
H      -11.78848133      21.46097331       1.18039662       0.07384122       0.64885913       0.08970310
H      -10.86063566      22.61947286       1.78192974       0.02268313       0.03090871       0.13813165
O        2.92327497     -15.05106519      16.07853956      -0.86004168      -0.34756786      -1.51300800
H        3.20239236     -15.65340455      16.72625785      -0.02698785      -0.00715948       0.31834286
H        3.56743668     -14.36552493      15.96682838      -0.03065331      -0.17628201      -0.03170962
O        2.39252468      16.29488420       0.38863112      -0.32753298      -0.88868700       1.36825751
H        1.79994008      16.39401275      -0.35891269      -0.76688909       0.32130225      -0.38972525
H        3.01684191      15.60985434       0.66596724       0.01591936      -0.13253125      -0.00440068
O       -5.74107478      -7.34419690       5.59360596      -0.80312901      -1.16228386       0.05311154
H       -5.15969660      -7.76496369       6.37096202       0.02772939      -0.00754313       0.28891111
H       -5.01302936      -6.85172772       5.25120983      -0.21184010      -0.07959040       0.03119342
O       -2.15178004       2.40261416       6.66508714      -0.21506308       0.37329281      -0.57882915
H       -2.20393170       3.32764540       6.74320005      -0.08349770       0.36072470      -0.07100022
H       -1.83415980       1.83509176       7.31208696       0.45407787      -0.45736207       0.62110688
O       13.18597015      -5.53661371      -1.46131172       0.70587090      -1.68626868      -0.07712941
H       13.98488806      -5.23333244      -1.94873699      -0.25500447      -0.35150748       0.15796334
H       13.04001545      -6.42089651      -1.47422723       0.30293884       0.22199425       0.19850426
O       11.81881144       4.88920951      22.73265429       0.05965185      -0.19017759      -0.20087030
H       11.20561731       4.21845765      22.99241185      -0.19793408       0.06291732       0.28574914
H       12.01108098       4.76165390      21.75338684       0.20807829       0.11320971      -0.04059135
O        8.12355893      14.47762332      23.85810747      -1.63401730      -0.71620479       1.55436042
H        9.01215555      14.80545284      23.72679810       0.08148408      -0.34227937      -0.25995425
H        8.07837345      13.59045659      24.04929443       0.14691367       0.56294116      -0.30511015
O       -8.04759903       6.96890396      11.42734874       1.02764857      -1.12938901       0.33680220
H       -7.29327986       6.78342840      10.86525430      -0.12800217       0.25282812      -0.04709736
H       -8.51605676       6.43078490      12.12101013      -0.11366200       0.16553084       0.12472353
192
Lattice="12.745250973702861 0.0 0.0 -5.290002897680571e-07 12.745250973702861 0.0 -5.290002897680571e-07 -5.290002897680571e-07 12.745250973702861" Properties=species:S:1:pos:R:3:momenta:R:3 step=130 time_fs=13.0 phase=production pbc="T T T"
O       11.67747636       0.73736042     -16.47423678       1.50127072       0.22218283      -0.05417676
H       12.26878291       1.05943104     -15.76785884       0.31610923       0.08678348       0.08433177
H       10.96141765       0.08609761     -16.39711529       0.10429770      -0.09204333       0.24008591
O       26.36849712      24.77353759       4.95525857      -0.32581762       0.21493250       1.74699846
H       26.73692765      24.00961538       4.63220728       0.23971468      -0.35186849      -0.24321113
H       25.71027235      25.13833983       4.36343636       0.27163739       0.03814044      -0.11508694
O        4.54523254      -0.33895388       6.57842469      -0.18470448      -1.10540827      -1.11963339
H        5.16665251      -1.03349342       6.83377936       0.04727946       0.46319643      -0.15553930
H        4.32503137       0.16730078       7.36750594       0.24445225      -0.04748648       0.02145822
O       -2.85358152      -4.35117117       1.06171342       0.31899408       1.23274060       0.49723441
H       -2.56999724      -3.78335482       0.36137417       0.12702417      -0.19521809       0.13662977
H       -3.66293987      -4.02920561       1.32610082      -0.17560481       0.33827628      -0.08240680
O        4.31586458      15.89776957      10.70737786       0.88004716       1.19135959      -0.02728048
H        4.43212828      16.80697144      11.13026663       0.25061260      -0.27074347      -0.28085794
H        4.97885407      15.82053724       9.96302362      -0.09172566       0.09543671      -0.38712908
O       -1.36768436       6.57833076       5.13952387       0.39440186      -1.00616938      -0.04676265
H       -1.82584569       6.36417450       4.24574659      -0.34085820       0.06313000       0.16380708
H       -0.53495569       6.99955582       5.21034076      -0.10753412      -0.07565691      -0.11067508
O       22.82398341      12.32186419       5.78196894       0.55073573      -0.62336972       0.18071561
H       23.14254298      13.14543450       6.10825956      -0.00145098       0.61559187       0.19018702
H       22.09653427      12.22149055       5.21260367      -0.74398874      -0.02813122       0.35269893
O       -1.08367343     -15.72152275       6.78270270      -1.15866839       1.49260833      -0.81832087
H       -0.56218334     -16.03515580       6.02124304      -0.07287159       0.09084985       0.13565292
H       -1.45403971     -14.92744060       6.50181284       0.17216584      -0.66506226       0.10251117
O       15.49131436     -17.91365278       9.69677688      -0.30312930      -0.19285240       0.15336322
H       16.04928228     -18.42293346      10.20572637       0.31004990      -0.12936335       0.27211409
H       15.59116409     -16.97094397       9.43275115       0.13402780       0.13252741      -0.00387281
O        3.29993480     -14.66972520     -13.36174481       0.54918356      -0.35209016      -0.21147850
H        4.19732718     -14.80050832     -13.21763443       0.03823619       0.19595387       0.00199495
H        2.62822690     -15.15482450     -12.87732903       0.13369635      -0.23035061      -0.28399424
O       -5.75526295       1.62868158       2.86096688      -0.03587924       0.43285429       0.70930120
H       -6.46360243       1.09011068       2.39539192      -0.01077020       0.13295367      -0.16715951
H       -5.36610036       2.45963824       2.65303914      -0.05430225       0.31170402      -0.19018558
O       -5.36493938      16.10837518      25.89970694       0.46745627       1.34086589      -0.64482671
H       -5.53894289      15.73828861      25.02738319      -0.14676146       0.34865078      -0.38820889
H       -4.31510347      16.24967077      26.29468910      -0.44589944      -0.18433601       0.13988295
O        7.50397677     -15.68333950      -8.42261231       0.74136537       0.85351673       1.73211243
H        7.98679073     -16.43288831      -8.22847710       0.11204609      -0.08362792       0.05465067
H        6.60134713     -15.31286725      -8.01368476       0.20525322      -0.06122108      -0.06127118
O       13.66062831       8.56267709      17.97643363      -0.51873510       0.35133271       0.50017783
H       14.09295736       8.86552639      17.10236219       0.11190947       0.34326593      -0.16129412
H       14.21609241       7.96507017      18.52351885       0.04156155      -0.03784744       0.34518040
O       -0.16599423       1.23925906      -1.19784006      -0.92765753       1.25418718       0.48679804
H        0.81171067       1.39616146      -1.22144043       0.46710491      -0.14927734       0.04119309
H       -0.43164272       0.38167645      -0.92314425      -0.03472084      -0.33785444      -0.20272580
O      -14.14699473      12.66261585      15.75789851       1.32675460       0.26188927      -1.34360284
H      -13.71527182      12.43326072      14.89823084       0.08160941       0.16834420       0.52082251
H      -14.70589530      12.08396148      16.17156602       0.29893270      -0.45560813       0.27038552
O      -16.33892292       5.92122200      12.30591982       2.30060682       0.89066004      -0.69819928
H      -16.91980797       5.86050628      11.52635468       0.12524437      -0.01452648       0.07715141
H      -16.21196622       7.00440062      12.28858363      -0.39947643      -0.59000629      -0.12255121
O       -9.96695488      32.89410461      -9.59873899      -0.37155802       0.19199450      -0.37845343
H       -9.10285965      32.48960128      -9.37033176       0.32274876      -0.11451785      -0.05933401
H      -10.76131339      32.53624729      -9.90306108      -0.40970625      -0.24336447      -0.15466253
O       34.77952019      11.45629538      21.33188323       0.44112188      -0.53784650      -1.58095949
H       34.81684718      11.86906130      20.52745135       0.23178841      -0.02033434       0.34110394
H       35.41982593      10.86876210      21.80036820       0.65624554       0.13421730       0.09749816
O       30.40631901     -12.62754493       2.13622905      -0.13927759       1.32155760      -0.89735746
H       29.66237016     -12.20700826       2.57994561       0.13688741      -0.38368931      -0.22316819
H       30.14892199     -12.58859163       1.18221495       0.04607748       0.08748034       0.45516327
O       17.57617174       9.25586741      -7.44762776      -0.31147779      -1.60736469      -0.36969230
H       17.28965581       8.45241860      -7.71766648      -0.09970594       0.61025504       0.20157116
H       17.41826724       9.59836498      -6.54482550       0.11338342      -0.06588291      -0.22622834
O       -5.09771666       2.58276342      32.20612865       0.91183498      -0.33251162       0.51562412
H       -5.81223592       1.99224310      31.92510927       0.45813988       0.06668242       0.56948909
H       -4.31904106       2.15782649      32.48892417       0.14405544       0.05011702       0.15312839
O        3.84002114       0.88080662      -0.23914325       1.82449336       0.01538408      -0.76051096
H        3.38581439       0.07215335      -0.32825406      -0.16485582       0.28081336       0.14212199
H        4.28508185       1.04409767      -1.08849885       0.00719782       0.19119044       0.44788572
O       23.20462161       3.23623163      11.67957214      -0.32469619       0.37154594       1.43991599
H       23.44593636       3.65379546      12.49848336       0.07925915      -0.13084221      -0.74563501
H       23.75320688       2.43421487      11.73699738      -0.10510356      -0.17437098      -0.24557490
O       -1.41891401      31.83885135      15.06231774       0.81400409       0.20598831       1.29957372
H       -2.12476473      32.36854582      14.64002033      -0.05401525       0.21479279      -0.09709021
H       -0.47445697      31.68755290      14.71988169      -0.23858482      -0.12608978       0.26666429
O        4.79499765      19.40707851       5.21763596      -0.09809490       0.41077964      -0.06062376
H        4.12985380      18.86720976       5.59906180      -0.51546995      -0.33413372       0.08039027
H        5.54672887      18.78149266       5.17874735      -0.28821285       0.02298036      -0.11784524
O      -10.19102049      10.51736059       9.50020002      -0.57751705       0.36630249       0.89716560
H      -10.82644826      10.83878700       8.96464424      -0.50333619       0.07600601       0.15134047
H      -10.25442954      10.67657353      10.52780318       0.27134749      -0.19738361       0.02302089
O       17.69475240      17.77018077      26.10574692      -0.09808099       0.66118371      -1.54801140
H       18.42928894      17.15200903      26.10041028      -0.01154188      -0.42145110       0.14911329
H       16.89022022      17.29303514      26.07556475       0.03734153       0.04964039       0.06706829
O        6.93314622      18.67837829      10.13267169       0.06243606      -0.37062065       0.13322959
H        7.32699845      19.30481836       9.51075357       0.13761212      -0.09540345       0.14086743
H        6.49776941      17.95752912       9.77432236      -0.32036311      -0.29291544       0.27689666
O       -0.64185417     -13.81955849      13.26026069      -0.45007473      -0.46347460      -0.01402440
H       -1.46772440     -14.23316877      12.88716383      -0.31278784      -0.18795402       0.00278937
H       -0.15284207     -14.59137842      13.45968478       0.34927836      -0.19349204      -0.14182746
O        1.13710432       6.05010978       1.10868528       0.02594173      -2.48398669      -0.08769106
H        1.68481661       5.28726964       1.18973790      -0.23789884       0.69879747      -0.02597350
H        1.10957810       6.67675782       0.36275408       0.30582796       0.27910138       0.57101835
O        3.18066212       1.31615662       8.37754960       0.35816608      -0.28754824       0.08867271
H        2.22010367       1.21691261       8.35447194       1.02595203       0.27278527       0.16102014
H        3.53401766       1.29718562       9.30649495       0.37265721      -0.20086618       0.14261752
O      -18.81824777      28.83708661     -16.18188640       0.59188117       0.43609112      -0.37223431
H      -18.66927140      29.14677296     -17.02466769       0.30834199       0.11182771       0.22259241
H      -18.20715815      28.50122128     -15.58663086      -0.53421102       0.69018356      -0.32193755
O        2.86295138      26.86597189      -9.07738794      -1.38184007      -0.21471747      -0.07080515
H        3.91802683      26.96758221      -8.67617877       1.41987652       0.19647491       0.22822190
H        2.05945829      26.35973986      -8.77620956      -0.13708602       0.31464172       0.10690500
O      -18.12840152      18.97107472       1.92920803      -1.52062263      -0.61194076       0.69350609
H      -17.45080138      18.70067369       1.40801215       0.24078616      -0.58086408      -0.21434109
H      -18.98814132      18.73379839       1.87145243      -0.17602777       0.36183431       0.12098468
O       11.71750959      17.57546209       7.02990669       0.19572867      -0.17577417      -0.47729364
H       12.64353506      17.47456038       6.79519929       0.11006058       0.33759744      -0.00073014
H       11.15717676      18.18949538       6.57100825       0.02489306      -0.02332054      -0.20257492
O       -7.23763871     -11.24248024       5.16315442       0.03330028      -0.08915522      -0.84556044
H       -6.66526748     -11.30428441       4.36552814      -0.55696664      -0.29045804       0.18471340
H       -7.43679537     -11.98025173       5.71206014       0.05584667      -0.10626050       0.04085740
O      -24.17172709       3.36547898      10.68689956      -0.62972564      -1.32506085      -0.14849505
H      -24.86994483       4.00661140      10.54286179      -0.53785408       0.33699056      -0.01772879
H      -23.38723965       3.62020358      10.35836984      -0.01355198      -0.15222517      -0.02141837
O      -11.42512373      -8.26733080      18.48479884       0.18202464      -1.12405957       0.32248846
H      -10.67538297      -8.63149903      18.90324557      -0.17753096      -0.01436469      -0.25500934
H      -11.53154812      -8.03757661      17.53649602      -0.12866314       0.33071246       0.56290008
O        8.56282576       7.34761837      16.88170231      -1.71980605       0.27094909      -0.88476211
H        9.53127764       7.22490472      16.97180769       0.16636431      -0.18412613       0.24232780
H        8.06191272       7.00698185      16.10837936       0.03882869       0.37551236       0.04171800
O      -11.63032202      -0.48828119      20.44825127      -0.06501659      -0.01947674       0.59507851
H      -12.49192126      -0.05170352      20.69477665       0.10249952       0.30648512       0.11736154
H      -11.79151690      -0.63783609      19.55513077      -0.01015429      -0.22415179      -0.04078118
O       24.12172156       2.50024635      16.20439779      -1.09796619       0.96917285       0.14315244
H       24.06603424       2.41190302      17.17479256       0.20271309      -0.22526329      -0.47420164
H       24.12041236       1.78004507      15.70272309       0.21068251      -0.05026917       0.05511489
O       -5.66540955     -17.92476602      -5.07069731       0.46502582       0.41359121      -1.45808551
H       -4.64301735     -17.83302963      -5.12476239      -0.18736133       0.11636204      -0.45026567
H       -5.99705592     -18.62192311      -5.58032108      -0.31289617       0.48297630       0.24975604
O       29.40056680      -8.95306159      -6.15326290      -2.37435691       0.42241334       0.15875658
H       30.24752821      -8.87970434      -6.52788828       0.38737088       0.12088358       0.04055889
H       29.05784813      -9.77287068      -5.83678320       0.21175598       0.51219563       0.05575307
O        8.80555033      -0.65088556       3.43100247       0.02360139       0.75478645       0.39263347
H        8.30944050       0.01533209       2.93288848      -0.04792094      -0.03612239       0.23855387
H        8.35339195      -1.49911858       3.56132414      -0.10780430      -0.16712352      -0.16902289
O      -19.79149673      -3.12347400      24.75539617      -0.41890042       0.97463541      -0.03316756
H      -19.94368220      -3.96288322      24.44576671       0.05621803      -0.31891992       0.03034087
H      -19.27850475      -3.31056360      25.47294049      -0.07336281       0.38374026      -0.01259826
O        2.45424412      -5.76678533      -6.03494892       1.23175253       0.42564984      -0.09141156
H        2.43377340      -5.77373183      -4.97219556      -0.09350580      -0.27780450       0.16877062
H        1.79742764      -6.55351044      -6.26559545       0.12016166       0.14168320      -0.02251562
O        9.87762369       8.26341512       7.97894670       0.56833337      -0.55900950       0.82994772
H       10.35626420       8.44252625       7.15759335      -0.18587672      -0.10228709      -0.12365398
H       10.00063613       7.39925200       8.35132891      -0.08623858       0.05264154      -0.21411457
O        5.38539739       9.74987492      -4.85329136       0.24820068       0.36736582      -0.81714518
H        6.06048269       9.14678321      -4.77830659       0.25962218      -0.37802055       0.10957503
H        4.74352403       9.69946969      -4.08823111      -0.04460200      -0.03030849      -0.21349125
O       13.74030134      29.40451828      15.85899502      -0.46279310      -0.99695193      -0.19059424
H       12.78560804      29.20390937      16.04358831      -0.07223245       0.21489736      -0.19835844
H       14.31177126      28.65939734      15.82836502      -0.20130402      -0.14021564      -0.10509145
O       -2.82898546       3.97356219       1.71858649      -0.29143582      -0.11234938       0.62762523
H       -2.30214353       3.48371845       2.25128444      -0.29049667       0.09747057      -0.43114000
H       -2.64298556       4.95156446       1.69065666       0.12457377      -0.18476017      -0.18113872
O        7.82589395     -14.02020887      10.93315034      -0.36472064      -0.18937508      -0.14361667
H        6.96194467     -14.31155033      10.89802344       0.65154309       0.43746023      -0.20798736
H        8.01022672     -14.32599510      10.06458124      -0.19796457      -0.30470266      -0.40055739
O       -2.53158434      10.54481662      24.29397013      -1.08294399      -0.46714582      -0.91226392
H       -1.90557131      10.19075834      23.50521224       0.08258124       0.19645485      -0.07611079
H       -3.18881939      11.24618798      24.39579064      -0.37484421       0.36738267      -0.05041062
O       20.02922786      21.75446340       1.56430254      -0.31178482       0.46476541      -0.26931697
H       19.89191247      22.31086545       2.23666728      -0.27096731       0.22157897       0.08381595
H       19.65880546      20.90440830       1.38729804      -0.44280032      -0.17314166       0.27030488
O       12.20251778      10.01244036     -15.89864548       1.13093403       0.05814684       0.33833682
H       12.69427541       9.14015739     -15.70109393      -0.00704067      -0.31964313      -0.04730965
H       12.42649612      10.12833919     -16.74980886      -0.32882801       0.34635419      -0.13417357
O      -11.38741697      22.25605314       1.04645309       0.34745008      -0.26124077      -0.46552461
H      -11.79064096      21.50051361       1.19462844      -0.15361222       0.14332631       0.21139298
H      -10.86003108      22.61799855       1.79438143      -0.02781638      -0.04219223       0.10883584
O        2.91721840     -15.05246302      16.06805942      -1.04810780      -0.37144186      -1.61734815
H        3.20230004     -15.66025051      16.76273408       0.01377924      -0.11102277       0.40817479
H        3.56910900     -14.37617074      15.96118499       0.06468177      -0.06195935      -0.06619462
O        2.39026176      16.28880304       0.39691238      -0.40636557      -0.83218456       1.29441296
H        1.73145150      16.42077201      -0.38901013      -0.60192612       0.23538127      -0.18657757
H        3.01311033      15.59502246       0.66288718      -0.08862905      -0.15819166      -0.05894645
O       -5.74548190      -7.35172554       5.59460501      -0.72272277      -1.40063241       0.35771937
H       -5.16732959      -7.76830543       6.39256014      -0.18772083      -0.06646698       0.15826681
H       -5.02540763      -6.84923213       5.24507319      -0.05067207       0.11996760      -0.14682538
O       -2.15319289       2.40437238       6.66078798      -0.24381885       0.23353095      -0.63555571
H       -2.20976912       3.36875230       6.73867889      -0.03464198       0.42946561      -0.02211379
H       -1.78732793       1.79024069       7.37675457       0.46882948      -0.40153826       0.64043681
O       13.19001241      -5.54520207      -1.46144589       0.76740813      -1.19819544       0.03655808
H       13.95805969      -5.26962545      -1.93319014      -0.22442169      -0.36990485       0.12558075
H       13.06630873      -6.42169384      -1.45809245       0.24133267      -0.26937673       0.13725582
O       11.81905556       4.88782981      22.72956345       0.18654385      -0.19831966      -0.44011943
H       11.18343267       4.22273617      23.01982372      -0.22835116       0.04696481       0.28739639
H       12.02693741       4.77469740      21.76037597       0.12737249       0.15529176       0.20185203
O        8.11315409      14.47405281      23.86613656      -1.60756653      -0.17636391       1.42227307
H        9.02161890      14.77299675      23.70085098       0.11059023      -0.30108078      -0.24914703
H        8.08955677      13.61969865      24.02290831       0.07946531      -0.00608421      -0.20373296
O       -8.04147104       6.96155505      11.42935384       0.83566315      -1.14763228       0.49681760
H       -7.30288194       6.80394335      10.85965191      -0.06388228       0.17037950      -0.06531434
H       -8.51928718       6.44858292      12.12539790       0.03697918       0.19961475      -0.01808458
192
Lattice="12.744653254945224 0.0 0.0 -5.28975481045448e-07 12.744653254945224 0.0 -5.28975481045448e-07 -5.28975481045448e-07 12.744653254945224" Properties=species:S:1:pos:R:3:momenta:R:3 step=140 time_fs=14.0 phase=production pbc="T T T"
O       11.68627478       0.73864690     -16.47366850       1.55115852       0.21323246       0.00008178
H       12.29294644       1.06421240     -15.76261146       0.18105691       0.00704377      -0.00470613
H       10.97604642       0.08254395     -16.37236308       0.20906142       0.02290661       0.24981361
O       26.36498535      24.77412098       4.96620120      -0.38701184       0.29411782       1.86214427
H       26.76392964      23.96514216       4.60424794       0.30692962      -0.46879316      -0.29863041
H       25.73321610      25.14180974       4.35053972       0.23216937       0.05230556      -0.14175261
O        4.54359264      -0.34568623       6.57113266      -0.30416066      -1.06811422      -1.15806378
H        5.17437999      -0.99246759       6.81977973       0.14472607       0.34267118      -0.12062545
H        4.34680156       0.16486470       7.37222121       0.20102926       0.00239090       0.08166144
O       -2.85087389      -4.34400521       1.06486288       0.47438904       1.04923965       0.56295586
H       -2.54962171      -3.79574565       0.36467902       0.28334204      -0.06497470      -0.06530123
H       -3.69621278      -3.99185925       1.32518723      -0.46209033       0.40858304       0.04568803
O        4.32171502      15.90480212      10.70628106       1.08617268       1.29530182      -0.19132434
H        4.45678471      16.77033659      11.09785141       0.26318394      -0.41544142      -0.34802716
H        4.95940485      15.83169147       9.93753932      -0.30118185       0.14626799      -0.12657823
O       -1.36623544       6.57130311       5.13820461       0.06065743      -1.17893534      -0.28989230
H       -1.84600531       6.37275845       4.27602134      -0.08214310       0.11555677       0.44393904
H       -0.53768757       6.99608238       5.19714962       0.05262317       0.01264811      -0.15576933
O       22.82680424      12.31734687       5.78318117       0.68512501      -0.60327553       0.28643234
H       23.13883113      13.20505034       6.12439961      -0.07250498       0.56300762       0.12763862
H       22.01769856      12.21926335       5.24205670      -0.80092956      -0.00295407       0.29073905
O       -1.09007058     -15.71273327       6.77766030      -0.92762632       1.08814943      -0.69042058
H       -0.56686710     -16.02890343       6.03477390      -0.00814031       0.00965611       0.13089146
H       -1.44995998     -14.96911128       6.50548297      -0.11962255      -0.15053285      -0.03555216
O       15.48808932     -17.91312529       9.69666823      -0.47217549       0.06780718      -0.00983447
H       16.08653899     -18.43835727      10.23827966       0.43038729      -0.17363070       0.37140654
H       15.60414413     -16.96424881       9.43708689       0.14398991      -0.01819090       0.10277497
O        3.30244134     -14.67089069     -13.36275197       0.33152286      -0.25017788      -0.32190704
H        4.21283867     -14.78574430     -13.21354401       0.27477068       0.09426588       0.06740638
H        2.64006310     -15.17887352     -12.90261906       0.10782625      -0.28135291      -0.24431330
O       -5.75579151       1.63037640       2.86513546      -0.20155731       0.19234404       0.68526488
H       -6.45376223       1.11443695       2.38251550       0.19889792       0.35819866      -0.09707592
H       -5.37154425       2.49313659       2.62955671      -0.07812917       0.33781148      -0.27413635
O       -5.36125873      16.11596047      25.89480716       0.65244702       1.36686732      -0.57674175
H       -5.54933161      15.77216656      24.99158340      -0.06817996       0.36818837      -0.30052328
H       -4.37104265      16.23021636      26.30134659      -0.70782907      -0.19616419       0.01835385
O        7.50676446     -15.67607481      -8.41140169       0.31153114       1.23929691       1.79500582
H        8.00200420     -16.45137997      -8.21927462       0.18947744      -0.28111266       0.11728994
H        6.63776786     -15.32866381      -8.02540637       0.53668382      -0.27097676      -0.18095489
O       13.65750975       8.56449260      17.97785579      -0.28199473       0.36662458       0.24321904
H       14.09534335       8.89151911      17.10496065      -0.05056518       0.19507885       0.23266828
H       14.21450433       7.96907698      18.54954835      -0.06695207       0.13658802       0.19819902
O       -0.17101671       1.24731610      -1.19492634      -0.69980219       1.34982024       0.45474137
H        0.84323309       1.37719078      -1.21613390       0.16036260      -0.23855645       0.06731565
H       -0.43213280       0.34615479      -0.94255420       0.03353669      -0.35180803      -0.20656961
O      -14.13754929      12.66418511      15.74843423       1.47174128       0.42910913      -1.41498058
H      -13.70889074      12.44778164      14.95072890       0.06795685       0.12023684       0.50709328
H      -14.68342527      12.03170615      16.20215720       0.17629263      -0.57466375       0.35200750
O      -16.32402824       5.92732276      12.30072262       2.30496822       1.19501520      -0.80236639
H      -16.90642530       5.85642467      11.53591291       0.11840027      -0.08234333       0.11081811
H      -16.25043594       6.93320377      12.27932116      -0.39134696      -0.85178101      -0.04262190
O       -9.96769087      32.89414547      -9.60026992      -0.05839739       0.28039949      -0.28402190
H       -9.08327106      32.47844632      -9.37786451       0.04976693      -0.07057672      -0.10801087
H      -10.80595636      32.50363600      -9.92087134      -0.45825585      -0.36373938      -0.19711084
O       34.78097168      11.45128588      21.32293701       0.57960186      -0.93771644      -0.98874838
H       34.84090218      11.87266298      20.54317592       0.29782354       0.11141848      -0.00555955
H       35.47287875      10.89113319      21.79665486       0.44570729       0.34723807      -0.16399583
O       30.40427547     -12.61899310       2.13041890      -0.02128022       1.25552155      -0.90634633
H       29.66671547     -12.23987119       2.56475206      -0.05011001      -0.27537317      -0.03666557
H       30.15306377     -12.57964684       1.22370301       0.05432062       0.08129412       0.30961587
O       17.57384463       9.24680799      -7.44900269      -0.15798153      -1.17896501      -0.21113006
H       17.27315097       8.49178990      -7.70186181      -0.23902109       0.16586868       0.10148275
H       17.42996089       9.58914983      -6.56937641       0.13866834      -0.09911313      -0.25030931
O       -5.09233301       2.58135092      32.20769690       0.81087073      -0.06139938       0.50283219
H       -5.76702973       1.99597207      31.97991303       0.42477846      -0.02092246       0.57292457
H       -4.29676971       2.15646974      32.50502242       0.30457136      -0.06970369       0.20715426
O        3.85142852       0.88147213      -0.24357300       1.92471743       0.20617069      -0.63676408
H        3.36135227       0.08675980      -0.31504362      -0.33343972       0.02236992       0.12646273
H        4.28779460       1.06661046      -1.04804049       0.07663762       0.28031710       0.33400028
O       23.20154160       3.23767424      11.68748905      -0.33398212       0.11053068       1.26004709
H       23.45242717       3.65276366      12.43821469       0.09444016       0.14256075      -0.42135923
H       23.74157147       2.41544230      11.70682529      -0.11733629      -0.20025728      -0.36009237
O       -1.41355512      31.83861936      15.06936118       0.85933625       0.22019811       1.23188263
H       -2.12073920      32.38563344      14.63132169       0.14485920       0.15569391      -0.05943645
H       -0.51063699      31.67706699      14.74811120      -0.46394706      -0.06443763       0.31210883
O        4.79441372      19.40854594       5.21696008      -0.09358803       0.33384092      -0.04794532
H        4.07453794      18.83331630       5.60823302      -0.55301510      -0.29645015       0.07855662
H        5.51907153      18.78604057       5.16623149      -0.25938351       0.07388232      -0.13132009
O      -10.19311002      10.51866803       9.50687043      -0.29022482       0.23373524       1.38239983
H      -10.88908190      10.85253517       8.96927216      -0.76015607       0.19949726      -0.02080611
H      -10.22769224      10.65530736      10.51324665       0.26568796      -0.22621328      -0.30170629
O       17.69390210      17.77367124      26.09494469       0.11008195       0.71670822      -1.57145128
H       18.42643131      17.11094700      26.11289952      -0.05691041      -0.37958099       0.13182389
H       16.88464943      17.29371775      26.08096467      -0.12709018      -0.01441939       0.06802686
O        6.93350974      18.67585480      10.13337837       0.13694472      -0.20498826       0.24659772
H        7.33875015      19.29160595       9.52467974       0.11625881      -0.14847296       0.14348583
H        6.46219120      17.92053804       9.79654874      -0.38520578      -0.41594330       0.20436338
O       -0.64532158     -13.82202940      13.25919434      -0.66728602      -0.59922594      -0.12525870
H       -1.49377599     -14.24418066      12.88674099      -0.19995014      -0.05170633       0.01255720
H       -0.11137985     -14.61287914      13.44875153       0.45730358      -0.21296097      -0.08606295
O        1.13649066       6.03549678       1.10808869      -0.25082261      -2.14716619      -0.07711691
H        1.67118620       5.34379111       1.18613709      -0.00040085       0.41717301      -0.04465933
H        1.14055474       6.70069011       0.41805350       0.33361349       0.22728009       0.55224906
O        3.18362313       1.31430399       8.37834531       0.78002581      -0.28736560       0.31568927
H        2.31301527       1.24143268       8.37040788       0.75660349       0.21946975       0.16699454
H        3.56421932       1.27988443       9.30803453       0.24992808      -0.14857675      -0.10970308
O      -18.81506000      28.83840289     -16.18303310       0.12122955       0.44840962      -0.28990992
H      -18.63080319      29.16090305     -17.02140190       0.46126285       0.20897403      -0.17295267
H      -18.24352404      28.56107386     -15.60571857      -0.18948172       0.54424529      -0.04153232
O        2.85486863      26.86339734      -9.07713536      -1.14806754      -0.20021779       0.01548681
H        4.03821821      26.98254055      -8.65813089       0.99961433       0.12453956       0.09387765
H        2.05652765      26.39233141      -8.76607401       0.05429595       0.36237542       0.10258224
O      -18.13642136      18.96732652       1.93420830      -1.31099747      -0.35894994       0.90551795
H      -17.41595270      18.63496455       1.37637757       0.37876145      -0.71307108      -0.36909233
H      -19.02207510      18.76229036       1.88027604      -0.52057920       0.24687701       0.06404967
O       11.71811474      17.57329427       7.02683941       0.17904297      -0.25324865      -0.42228586
H       12.65183215      17.50838307       6.79382191       0.06559846       0.37288361      -0.01643542
H       11.16065633      18.18872679       6.54807477       0.06313514       0.01717647      -0.25458768
O       -7.23720893     -11.24178749       5.15759929      -0.02950727       0.13909341      -0.83128162
H       -6.71653081     -11.33502683       4.38343610      -0.46131595      -0.35631094       0.14174498
H       -7.43013842     -11.99529226       5.71608072       0.07821097      -0.20377340       0.04014792
O      -24.17592383       3.35691273      10.68600402      -1.12909012      -1.36093216       0.00052307
H      -24.91903087       4.03882570      10.54048107      -0.43325745       0.27964139      -0.01221417
H      -23.36739846       3.61218830      10.34625123       0.36176961      -0.01491057      -0.20292256
O      -11.42427700      -8.27329426      18.48553018      -0.08728131      -0.95099085       0.24435107
H      -10.67920933      -8.63778265      18.88070020       0.09983182      -0.12851324      -0.18700108
H      -11.54167394      -8.00804827      17.59183984      -0.09284902       0.27730815       0.53693515
O        8.55196780       7.34882661      16.87540279      -1.65116666       0.24489651      -0.87739250
H        9.53722848       7.20881701      16.99270374      -0.05026275      -0.13666867       0.19831473
H        8.06995721       7.04428202      16.11483311       0.11515598       0.38053376       0.07170959
O      -11.63072768      -0.48799252      20.45187520      -0.25164875       0.10105663       0.86259707
H      -12.47684517      -0.02286723      20.70929506       0.20317827       0.27932879       0.18948218
H      -11.79031124      -0.66461464      19.53155397       0.02373847      -0.31510956      -0.37747952
O       24.11375557       2.50743077      16.20513052      -1.12772051       1.39724172       0.26921935
H       24.08403154       2.38891915      17.13014795       0.18638069      -0.24881681      -0.35946792
H       24.14040428       1.75551752      15.69657437       0.22544330      -0.43113546      -0.15606975
O       -5.66081634     -17.92055220      -5.07904859       0.94052219       0.70209380      -1.32950428
H       -4.67659987     -17.81940620      -5.16618383      -0.49504722       0.14545930      -0.40323801
H       -6.03436460     -18.58307076      -5.56429796      -0.46757373       0.27807616       0.05945422
O       29.38426563      -8.94940145      -6.15206556      -2.41277422       0.66987014       0.09784643
H       30.28815818      -8.86841844      -6.52715766       0.41557686       0.09838941      -0.00333332
H       29.07623352      -9.73248842      -5.82759160       0.18065268       0.27543228       0.14236639
O        8.80505724      -0.64634796       3.43320393      -0.04312295       0.68257534       0.39317017
H        8.30581569       0.00730167       2.95999908      -0.03205545      -0.11020500       0.30603292
H        8.34466483      -1.50906522       3.54251254      -0.05577742      -0.02618045      -0.21393744
O      -19.79381796      -3.11617015      24.75333186      -0.63683274       1.28990214      -0.26548449
H      -19.94488045      -4.01186415      24.43685576      -0.09459381      -0.63842893      -0.17711058
H      -19.26883132      -3.27241757      25.49342207       0.24477568       0.41096236       0.44813421
O        2.46126967      -5.76433710      -6.03460970       1.09766600       0.28643370       0.12168019
H        2.42565767      -5.80043955      -4.96687264      -0.06923793      -0.27323766      -0.07220259
H        1.81454091      -6.53568204      -6.26586154       0.22926936       0.21380710       0.01113489
O        9.88053009       8.25988553       7.98338091       0.52631903      -0.44551172       0.72978477
H       10.33689317       8.43201266       7.15028545      -0.19989442      -0.10399433      -0.02081403
H        9.99438436       7.40054679       8.33117675      -0.02926431      -0.03905327      -0.18230285
O        5.38571511       9.75211939      -4.85771502       0.00107055       0.46966188      -0.70940697
H        6.09241790       9.10187371      -4.76548637       0.35155845      -0.49032391       0.14253904
H        4.74630842       9.69551345      -4.11824630       0.09284243      -0.04369812      -0.38910911
O       13.73607274      29.39748177      15.85727984      -0.68752982      -0.84590483      -0.12894761
H       12.78749072      29.22339455      16.01965780       0.11116299       0.20819878      -0.27577153
H       14.29534751      28.63790357      15.81768310      -0.12811823      -0.26707671      -0.09903371
O       -2.83143440       3.97395862       1.72147900      -0.57071172       0.27957060       0.32969354
H       -2.31748032       3.48321549       2.22094827      -0.01360806      -0.12043429      -0.17847580
H       -2.63040200       4.92213807       1.67376441       0.13806788      -0.37468333      -0.16513958
O        7.82467793     -14.02018734      10.93195938       0.14254688      -0.03139641      -0.13995531
H        7.00040900     -14.27510849      10.87732695       0.10280659       0.28337414      -0.21170627
H        7.99266935     -14.35411564      10.02054738      -0.16739723      -0.26280244      -0.42654414
O       -2.53755156      10.54133861      24.28694173      -0.92747751      -0.47379957      -1.00398584
H       -1.90723707      10.21560619      23.50880682      -0.11848143       0.32093942       0.17149688
H       -3.22186854      11.27600954      24.38467618      -0.27875894       0.22718409      -0.15640539
O       20.02673182      21.75566565       1.56139897      -0.22389715       0.24676685      -0.62208967
H       19.86011624      22.34277557       2.26109088      -0.35405591       0.42748457       0.38303793
H       19.61355051      20.88446543       1.41668107      -0.44406259      -0.17638376       0.33885057
O       12.20914487      10.01105752     -15.89424404       1.22554933      -0.34942595       0.81075422
H       12.68435837       9.12158319     -15.70333461      -0.18620054      -0.04027589      -0.02851182
H       12.39676604      10.16837344     -16.78966763      -0.27744137       0.46589336      -0.64293376
O      -11.38362232      22.25533256       1.04335392       0.69506635       0.32922296      -0.52414620
H      -11.81798034      21.48673715       1.22193046      -0.40016459      -0.36625589       0.34569490
H      -10.86569329      22.60875526       1.80196454      -0.09896097      -0.12659256       0.04879806
O        2.91044456     -15.05451624      16.05762265      -1.08882859      -0.54029068      -1.50700926
H        3.20200665     -15.66614955      16.79622421      -0.02700290       0.00363093       0.26280203
H        3.57787515     -14.37843524      15.95312594       0.10603660      -0.01164962      -0.08009905
O        2.38718953      16.28321593       0.40438445      -0.56067687      -0.73337554       1.14682674
H        1.68418606      16.43759799      -0.39399719      -0.36511461       0.12398053       0.07952635
H        2.99984176      15.57678374       0.65437529      -0.17807817      -0.20439913      -0.11488315
O       -5.74925773      -7.36055071       5.59738836      -0.57180097      -1.56635002       0.62244198
H       -5.19555497      -7.77602088       6.39992499      -0.39555669      -0.08955111      -0.01177619
H       -5.02582343      -6.83088634       5.22507142       0.00829238       0.22264879      -0.23432759
O       -2.15437417       2.40546197       6.65716608      -0.17338423       0.18761766      -0.43549821
H       -2.20976648       3.40109659       6.73753458       0.03510307       0.19759272       0.00328739
H       -1.74618380       1.76275701       7.42929379       0.37104633      -0.15605851       0.43977379
O       13.19373153      -5.55104678      -1.46054038       0.62852156      -0.82652265       0.23981402
H       13.94711655      -5.30148787      -1.92831803       0.02548649      -0.28570179      -0.03447869
H       13.08540750      -6.47195583      -1.44653234       0.16873932      -0.73390712       0.09928599
O       11.81977227       4.88617275      22.72539951       0.20982201      -0.27242327      -0.53289096
H       11.16303932       4.23018248      23.04429458      -0.16819285       0.12057841       0.22898911
H       12.03516118       4.79072180      21.78770682       0.05880982       0.17339381       0.35066836
O        8.10329673      14.47420803      23.87330667      -1.46458047       0.42021106       1.28220118
H        9.02937736      14.74547896      23.67652025       0.03584902      -0.25590638      -0.22265735
H        8.09245052      13.58633762      24.00730379      -0.00893839      -0.62673572      -0.10146462
O       -8.03654343       6.95431914      11.43228869       0.66094872      -1.08541024       0.61579557
H       -7.30364727       6.81556380      10.85070022       0.04317545       0.07428688      -0.10797926
H       -8.50955349       6.46683538      12.11872116       0.14125092       0.16432994      -0.08719674
192
Lattice="12.74403483707439 0.0 0.0 -5.289498131921006e-07 12.74403483707439 0.0 -5.289498131921006e-07 -5.289498131921006e-07 12.74403483707439" Properties=species:S:1:pos:R:3:momenta:R:3 step=150 time_fs=15.0 phase=production pbc="T T T"
O       11.69549996       0.73998458     -16.47261902       1.64554782       0.24215990       0.07605493
H       12.30233532       1.06052459     -15.76803740       0.02819411      -0.07823429      -0.11754798
H       11.00033008       0.09002794     -16.34709457       0.28969567       0.12184404       0.25267573
O       26.36155948      24.77410141       4.97725377      -0.29245287       0.05293334       1.79457260
H       26.78823838      23.92854679       4.57894837       0.19796508      -0.21496869      -0.19615026
H       25.75454726      25.14538820       4.33630606       0.23437154       0.04475472      -0.14344321
O        4.54088845      -0.35182656       6.56368041      -0.50748963      -0.92815807      -1.14721327
H        5.19741537      -0.97035377       6.80976564       0.33452669       0.10767809      -0.08047608
H        4.36345983       0.16719425       7.38097131       0.14687418       0.03636367       0.08900356
O       -2.84817082      -4.33748344       1.06863807       0.31333448       1.04346779       0.68225501
H       -2.51751307      -3.79801394       0.35242630       0.35320301      -0.00226856      -0.15779418
H       -3.73903386      -3.95364482       1.32959003      -0.35526235       0.34977777       0.02060225
O        4.32856974      15.91149278      10.70381896       1.18527938       1.09213407      -0.43588757
H        4.48382893      16.73619973      11.06767791       0.29888426      -0.21313876      -0.22768569
H        4.92248386      15.84612732       9.93396480      -0.42229127       0.15291841       0.02353924
O       -1.36649616       6.56338705       5.13587141      -0.12334159      -1.27565236      -0.33843555
H       -1.84501763       6.38448528       4.32497808       0.07420852       0.11884096       0.51238593
H       -0.52644422       7.00047935       5.17927763       0.16103661       0.07589598      -0.20734318
O       22.82972955      12.31363164       5.78468432       0.59897697      -0.40490780       0.28094115
H       23.12455048      13.24824033       6.13082318      -0.19698311       0.33051263       0.00984326
H       21.94780718      12.22025777       5.27422547      -0.58190678       0.03603724       0.38756775
O       -1.09492998     -15.70679849       6.77375103      -0.68446277       0.62269108      -0.48147925
H       -0.56227751     -16.03259206       6.04438123       0.10025840      -0.09822841       0.07188645
H       -1.47897772     -14.95247901       6.49322086      -0.46256051       0.44739115      -0.20240989
O       15.48452654     -17.91149097       9.69615976      -0.41533528       0.15111967       0.02618536
H       16.12358065     -18.44863629      10.27012527       0.31491968      -0.03161300       0.26564678
H       15.61736053     -16.97291703       9.45170300       0.14272445      -0.16914844       0.20376816
O        3.30394233     -14.67144218     -13.36437335       0.23820823      -0.17032416      -0.40814961
H        4.24647750     -14.78010066     -13.20408755       0.38744121       0.01193464       0.10665473
H        2.64893146     -15.20817489     -12.92367824       0.08054355      -0.33084487      -0.20383644
O       -5.75680918       1.63153241       2.86909518      -0.18491319       0.25946820       0.65801438
H       -6.42798003       1.15646487       2.37438064       0.29316673       0.48138900      -0.08477984
H       -5.38356942       2.51772290       2.60232776      -0.18463715       0.13936812      -0.26847761
O       -5.35635760      16.12354744      25.88998181       0.84867736       1.35416944      -0.60166545
H       -5.55136978      15.80923334      24.96935752       0.02093353       0.41083169      -0.12000882
H       -4.45309155      16.21045494      26.29492925      -0.96706027      -0.18901330      -0.12156629
O        7.50788086     -15.66727734      -8.39987885       0.26960357       1.31464496       1.80033136
H        8.01845292     -16.47869542      -8.20682176       0.13310909      -0.25870757       0.12097557
H        6.69700831     -15.36059259      -8.04435216       0.60910150      -0.36881347      -0.18132296
O       13.65584263       8.56635972      17.97777310      -0.05883292       0.37805506       0.02603111
H       14.08202094       8.90246438      17.14516075      -0.20124858       0.04225255       0.59159913
H       14.20185624       7.99089941      18.56020152      -0.17093678       0.31077453       0.04519163
O       -0.17457847       1.25526654      -1.19203991      -0.46627134       1.23299851       0.47123107
H        0.84175898       1.35002724      -1.20821760      -0.18910074      -0.31454572       0.09372054
H       -0.42366941       0.31968134      -0.96475720       0.14330137      -0.16777671      -0.25367197
O      -14.12828730      12.66632850      15.73986859       1.27305812       0.43755215      -1.07205051
H      -13.69640377      12.45229422      14.98754153       0.19009861      -0.02860934       0.23709972
H      -14.66354194      11.97873997      16.23305292       0.24905583      -0.45842264       0.26863026
O      -16.30902939       5.93470692      12.29505407       2.32793805       1.19279516      -0.82962989
H      -16.89727962       5.84250523      11.54375287       0.04629896      -0.19224870       0.05097094
H      -16.28467798       6.84936671      12.27976289      -0.32509362      -0.75496738       0.05656379
O       -9.96741844      32.89401910      -9.60158009      -0.06931373       0.18305707      -0.31474708
H       -9.09221300      32.47314226      -9.39020092      -0.22581470      -0.01276371      -0.14967384
H      -10.83865324      32.46801599      -9.93621256      -0.18200290      -0.31299025      -0.11133689
O       34.78333577      11.44371179      21.31765098       0.72699044      -1.32741051      -0.42377282
H       34.87167129      11.88976704      20.52503908       0.36686873       0.24625041      -0.33206849
H       35.50253308      10.93466103      21.76674785       0.21133844       0.53948926      -0.41424628
O       30.40341727     -12.61101228       2.12533987       0.21778282       1.14924835      -0.70004625
H       29.64736080     -12.25528883       2.58028909      -0.30550961      -0.04442503       0.37462940
H       30.15467298     -12.57154956       1.23263952       0.00501244       0.07397926      -0.13347482
O       17.57271876       9.24058412      -7.44977905       0.06551773      -0.73050945      -0.18533176
H       17.23937864       8.47981598      -7.69879745      -0.43218087      -0.38313913      -0.04001414
H       17.44296263       9.58086543      -6.58699063       0.14387117      -0.05317015      -0.09802311
O       -5.08665471       2.58182507      32.20941369       1.01603486       0.24280868       0.58206619
H       -5.73388750       1.98371374      32.03240068       0.23524801      -0.24217812       0.53379515
H       -4.26354915       2.14706328      32.52461057       0.33120720      -0.09631010       0.21161477
O        3.86297736       0.88296068      -0.24662866       1.87078048       0.25406805      -0.35755756
H        3.32377706       0.08146105      -0.30429591      -0.40202165      -0.08578031       0.08944303
H        4.30113070       1.09869345      -1.02748497       0.19620965       0.37274863       0.08626070
O       23.19828634       3.23698676      11.69357041      -0.35625919      -0.29076568       0.90151600
H       23.46423853       3.68336284      12.42012154       0.17592955       0.47918127       0.05591245
H       23.72648167       2.39761827      11.66677654      -0.17644474      -0.14511394      -0.43968954
O       -1.40894328      31.83867647      15.07622760       0.57276120       0.30973949       1.26497459
H       -2.09588904      32.39493232      14.62759871       0.35778971       0.06920522      -0.00399130
H       -0.55368068      31.67016267      14.77523686      -0.36478977      -0.05528550       0.23938121
O        4.79275237      19.40921270       5.21677231      -0.39905345       0.19703216       0.07505026
H        4.02944711      18.81285248       5.61004609      -0.35106705      -0.09696600      -0.04143491
H        5.49867355      18.79082273       5.15317938      -0.14095330       0.02726311      -0.12913282
O      -10.19423642      10.51948408       9.51546170      -0.29788587       0.22086920       1.47819505
H      -10.96335042      10.87178257       8.96725803      -0.71232248       0.17840096       0.03073809
H      -10.20195725      10.63224798      10.47304295       0.25078285      -0.23020254      -0.46742591
O       17.69442814      17.77694523      26.08397770       0.32540903       0.60693972      -1.58660935
H       18.41283704      17.07986157      26.12344545      -0.21217704      -0.23153947       0.10965779
H       16.86708764      17.29039365      26.08619473      -0.19339938      -0.02307357       0.06473174
O        6.93380662      18.67353112      10.13464471       0.03981572      -0.30141082       0.31936809
H        7.35024106      19.27608255       9.53567130       0.13353366      -0.14075455       0.08090095
H        6.42639485      17.88162666       9.81636518      -0.31974252      -0.33100595       0.22623350
O       -0.64972270     -13.82600169      13.25752645      -0.76337004      -0.92837004      -0.20466149
H       -1.50361549     -14.24239952      12.88976876       0.00481176       0.07101359       0.06615514
H       -0.07053199     -14.62444635      13.43926251       0.36064523      -0.02122288      -0.10149198
O        1.13356643       6.02337424       1.10776969      -0.69583267      -1.70983503       0.00048730
H        1.68981870       5.36215766       1.18126017       0.39529544      -0.04309561      -0.05320132
H        1.17480897       6.72237553       0.46835897       0.37161155       0.23443121       0.47309323
O        3.19097282       1.31255053       8.38067893       1.69865988      -0.26323794       0.56150309
H        2.34884036       1.25801407       8.38475627      -0.06807586       0.12061241       0.13139899
H        3.58387557       1.26898360       9.28557130       0.17088193      -0.07121360      -0.31925365
O      -18.81520066      28.84007274     -16.18460236      -0.44560856       0.56630095      -0.53121772
H      -18.57934016      29.18304483     -17.05099247       0.55996032       0.25317656      -0.38987829
H      -18.23727756      28.60223889     -15.58751906       0.29247843       0.33680009       0.39326953
O        2.84960855      26.86113279      -9.07632420      -0.47324314      -0.10108778       0.09215018
H        4.09673425      26.98645908      -8.66876401       0.16601612      -0.02743178      -0.36064137
H        2.06254641      26.42357401      -8.75278746       0.03198358       0.28394231       0.17530835
O      -18.14219411      18.96427653       1.93936202      -0.86399146      -0.36938300       0.76764009
H      -17.39070091      18.56790616       1.34862869       0.08465027      -0.62003613      -0.16527379
H      -19.08183755      18.78185242       1.88436065      -0.68014363       0.18503614       0.02577612
O       11.71854869      17.57078498       7.02395642       0.14228343      -0.27820911      -0.41275964
H       12.65425936      17.54542970       6.79206122      -0.00413939       0.40409248      -0.01087250
H       11.16959815      18.18944723       6.52232186       0.13696283       0.00722571      -0.25915985
O       -7.23732117     -11.23983178       5.15304219      -0.11342489       0.30306542      -0.53646165
H       -6.74799013     -11.37376482       4.38753437      -0.16946010      -0.45500935      -0.06439042
H       -7.42029065     -12.01581210       5.71700942       0.11839858      -0.20888030      -0.03084638
O      -24.18298632       3.34878236      10.68565498      -1.49273037      -1.21647237       0.03085001
H      -24.94760970       4.05724288      10.54008332      -0.17636603       0.10024520       0.01490481
H      -23.32324360       3.61457042      10.32171029       0.46052966       0.04804697      -0.26304739
O      -11.42504008      -8.27835763      18.48653198      -0.32521670      -0.84457351       0.40553845
H      -10.65540220      -8.65541169      18.86431968       0.36316637      -0.23351658      -0.13886113
H      -11.54903624      -7.98100493      17.63160913      -0.07191537       0.27648307       0.27165285
O        8.54201521       7.35004175      16.86968416      -1.44741288       0.27464312      -0.69660909
H        9.51943720       7.19786644      17.00807175      -0.30304848      -0.08042891       0.13103378
H        8.08020120       7.07764997      16.11453453       0.09050133       0.30135823      -0.08545868
O      -11.63237208      -0.48711768      20.45626709      -0.46942120       0.16240836       0.83988243
H      -12.44975071       0.00137436      20.72704823       0.34269387       0.21276507       0.18299057
H      -11.78564717      -0.69581320      19.49236230       0.06027091      -0.30766008      -0.34365019
O       24.10558490       2.51679121      16.20545382      -1.15036804       1.63378859       0.04336581
H       24.09984604       2.36236472      17.10992683       0.16275777      -0.29707333      -0.03157848
H       24.16214327       1.70336942      15.67560612       0.24208385      -0.57284857      -0.21462492
O       -5.65389760     -17.91447206      -5.08649487       1.13819218       0.97368380      -1.17711117
H       -4.73030707     -17.80250818      -5.20350571      -0.53502024       0.18979252      -0.37673103
H       -6.08772037     -18.56629322      -5.56850821      -0.62687614       0.05935272      -0.14278035
O       29.36898317      -8.94366378      -6.15186847      -2.05822983       1.06858223      -0.14844078
H       30.31379919      -8.86014100      -6.52269292       0.09958184       0.06192311       0.10479303
H       29.08884732      -9.72205207      -5.80612953       0.10597184      -0.07659473       0.29908276
O        8.80433822      -0.64275278       3.43569457      -0.03568985       0.46247630       0.48516537
H        8.29939124      -0.00201006       2.98918323      -0.10625764      -0.05947158       0.28159903
H        8.34238603      -1.50342126       3.51952385       0.01649843       0.13397976      -0.25155977
O      -19.79718887      -3.10845750      24.74998718      -0.73394827       1.10771307      -0.38208563
H      -19.95639183      -4.07026229      24.41624251      -0.13438160      -0.48987342      -0.17498160
H      -19.23666251      -3.22881809      25.54709821       0.32825253       0.47488933       0.58198371
O        2.46744605      -5.76276626      -6.03283393       0.94682937       0.12641957       0.36082271
H        2.42040623      -5.82586330      -4.98640999      -0.03323349      -0.25056574      -0.33271857
H        1.84217900      -6.51060914      -6.26272370       0.34226743       0.30033829       0.04573200
O        9.88310511       8.25726684       7.98718016       0.46576730      -0.27820995       0.64523708
H       10.31715568       8.42202037       7.15159633      -0.18847492      -0.08830165       0.04425428
H        9.99442181       7.38888385       8.31600209       0.04113344      -0.19328465      -0.11999769
O        5.38569334       9.75421585      -4.86173599       0.13539205       0.34158200      -0.70389137
H        6.11957829       9.05851471      -4.75151835       0.18135176      -0.36051677       0.13340849
H        4.75722708       9.68963136      -4.15896290       0.10625486      -0.07000060      -0.41659701
O       13.73092715      29.39125457      15.85583629      -0.73012467      -0.72881228      -0.09648219
H       12.80194335      29.24056789      15.98895052       0.16963199       0.16738441      -0.33429161
H       14.28340206      28.60707524      15.80762134      -0.11676126      -0.31823592      -0.09103987
O       -2.83589209       3.97613500       1.72246475      -0.93033118       0.44522783       0.02912212
H       -2.30391583       3.45862469       2.21654479       0.28271376      -0.37590174       0.08137313
H       -2.61423378       4.88715582       1.65775010       0.19933731      -0.29573477      -0.16540522
O        7.82719893     -14.01946954      10.92982253       0.79118436       0.02705760      -0.40361225
H        6.97800560     -14.25564977      10.85504029      -0.54249973       0.10891855      -0.23564727
H        7.97553102     -14.37233684       9.99004150      -0.17680824      -0.11706432      -0.16831064
O       -2.54292748      10.53820694      24.27934636      -0.87892379      -0.36652138      -1.07870415
H       -1.92793771      10.25163699      23.53559091      -0.29967229       0.42231689       0.39047023
H       -3.24039330      11.28682917      24.36299266      -0.10001836      -0.00021408      -0.26341314
O       20.02419354      21.75552266       1.55711286      -0.31343764       0.08035820      -0.68721851
H       19.82369868      22.38434560       2.30126802      -0.35560519       0.39983185       0.38356526
H       19.57414591      20.87389158       1.45346267      -0.33235444      -0.00354873       0.41530864
O       12.21654865      10.00744780     -15.88814128       1.38575110      -0.63074580       0.82621109
H       12.65721525       9.13253975     -15.70761826      -0.34865859       0.26361618      -0.07940954
H       12.36857770      10.21285858     -16.85548341      -0.30506025       0.42792637      -0.61963797
O      -11.37825712      22.25721585       1.03998828       0.82099887       0.55263224      -0.54248964
H      -11.86093052      21.43924803       1.25975038      -0.44648727      -0.50505506       0.41253954
H      -10.87781569      22.59126441       1.80451285      -0.15718197      -0.20800960       0.00975212
O        2.90380709     -15.05763303      16.04820530      -1.01262001      -0.70156002      -1.30292986
H        3.19591192     -15.65542573      16.80919936      -0.09523084       0.20312329       0.01544339
H        3.58691868     -14.37927222      15.94466833       0.07052773      -0.03024227      -0.07529176
O        2.38310074      16.27829632       0.41094631      -0.73687327      -0.60957560       0.99614652
H        1.66055653      16.44316349      -0.37400765      -0.11720487       0.00640437       0.32708652
H        2.97862353      15.55329818       0.64064071      -0.25178196      -0.26292768      -0.16490509
O       -5.75168251      -7.37000783       5.60155147      -0.29417746      -1.61356060       0.80845960
H       -5.24363421      -7.78305116       6.38771709      -0.59274671      -0.05452075      -0.23756697
H       -5.02878381      -6.81044357       5.20345355      -0.09567383       0.16842532      -0.18607432
O       -2.15511739       2.40664353       6.65482175      -0.10184600       0.23896941      -0.22335299
H       -2.20252438       3.40302994       6.73849720       0.11124455      -0.15809455       0.02277245
H       -1.71506386       1.75966501       7.46142596       0.26496481       0.09264363       0.22611889
O       13.19641564      -5.55556293      -1.45841086       0.45622283      -0.82537172       0.42255991
H       13.96022311      -5.32615211      -1.93886682       0.23894394      -0.23698191      -0.17315688
H       13.10032435      -6.55046553      -1.43912724       0.16671282      -0.77572631       0.04650008
O       11.82031087       4.88402550      22.72137995       0.13966648      -0.34502534      -0.37355514
H       11.15077745       4.24680310      23.06125300      -0.07088350       0.22494005       0.13972546
H       12.03886882       4.80701616      21.81909022       0.03859705       0.16107984       0.27330367
O        8.09449504      14.47710788      23.87970076      -1.27183099       0.65284676       1.19101041
H        9.02428976      14.71986851      23.65624129      -0.14278397      -0.26417270      -0.16449458
H        8.08848600      13.51010241      23.99841102      -0.05562658      -0.81603823      -0.07408299
O       -8.03234154       6.94777708      11.43553035       0.60361501      -0.92123951       0.59495948
H       -7.29436656       6.81772907      10.83825169       0.13172680      -0.02344428      -0.12955133
H       -8.49378781       6.47659206      12.11151585       0.16080950       0.02721111      -0.02885789
192
Lattice="12.743346798550698 0.0 0.0 -5.289212556863162e-07 12.743346798550698 0.0 -5.289212556863162e-07 -5.289212556863162e-07 12.743346798550698" Properties=species:S:1:pos:R:3:momenta:R:3 step=160 time_fs=16.0 phase=production pbc="T T T"
O       11.70531968       0.74164375     -16.47123153       1.75710827       0.31807419       0.06118131
H       12.29933682       1.05025939     -15.78131523      -0.05851560      -0.12096218      -0.15094481
H       11.02855845       0.10377141     -16.32108949       0.28546271       0.14488418       0.26651454
O       26.35879227      24.77202710       4.98759380      -0.14522208      -0.29615809       1.65598825
H       26.79784059      23.92441595       4.56742227       0.02503417       0.16037951      -0.03186676
H       25.77632454      25.14781089       4.32248457       0.24122461       0.03148967      -0.13289470
O        4.53703649      -0.35705767       6.55664037      -0.64156912      -0.79422320      -1.00922298
H        5.23636842      -0.96893688       6.80244976       0.44256452      -0.05412002      -0.06995784
H        4.37560536       0.16986775       7.38550829       0.11093973       0.00935352      -0.00210012
O       -2.84693529      -4.33045195       1.07297830       0.04343310       1.18486878       0.73184719
H       -2.48363802      -3.79881181       0.33864230       0.32688815      -0.03220760      -0.10446783
H       -3.75946369      -3.92530913       1.32677749      -0.06337834       0.22462659      -0.07925404
O        4.33540671      15.91632030      10.70015111       1.08860943       0.75744282      -0.53692164
H        4.51482338      16.73351856      11.05652382       0.34327159       0.18746817       0.01928724
H        4.88335374      15.85747011       9.93157051      -0.34600829       0.08949554      -0.10490744
O       -1.36705905       6.55521304       5.13409690      -0.04225543      -1.25306716      -0.11473960
H       -1.83587111       6.39298984       4.36614223       0.09603366       0.05393089       0.30275543
H       -0.50997798       7.00817744       5.15590462       0.15376259       0.07772774      -0.26800842
O       22.83164629      12.31112771       5.78599488       0.41899416      -0.19464682       0.24954957
H       23.09871732      13.26830557       6.12606416      -0.30342220       0.09838330      -0.09850468
H       21.90423552      12.22482371       5.31711594      -0.28393451       0.06950703       0.49355122
O       -1.09862176     -15.70287262       6.77078677      -0.57101667       0.45494730      -0.40377609
H       -0.54996589     -16.04367090       6.05002713       0.12902367      -0.12517925       0.06738538
H       -1.53296441     -14.89273484       6.46815443      -0.59114785       0.66592209      -0.28070728
O       15.48153395     -17.90978126       9.69621541      -0.28680564       0.06018045       0.17513188
H       16.14345145     -18.44052717      10.28657974       0.10621977       0.18037878       0.07931645
H       15.63083474     -16.99189887       9.47477799       0.15567196      -0.21119842       0.27251949
O        3.30539930     -14.67161469     -13.36625473       0.32045590      -0.15501116      -0.42919571
H        4.28092615     -14.78090688     -13.19289974       0.29252143      -0.04147285       0.10096210
H        2.65667627     -15.24053915     -12.94200972       0.08836720      -0.34297779      -0.19239702
O       -5.75708135       1.63381817       2.87310041       0.01773738       0.53110080       0.71387853
H       -6.40229781       1.20360838       2.36171564       0.19909994       0.46953322      -0.19228739
H       -5.40793559       2.51713768       2.57873403      -0.32124313      -0.15034255      -0.20838065
O       -5.35110185      16.13087080      25.88440537       0.67673761       1.31218860      -0.79132977
H       -5.54495813      15.85043284      24.96578066       0.10214828       0.44733872       0.06483318
H       -4.54568019      16.19319645      26.28023985      -0.84274210      -0.13945021      -0.11025839
O        7.51039575     -15.65898436      -8.38872701       0.75042432       1.07325380       1.66596518
H        8.02326344     -16.49396215      -8.19628233      -0.04015956      -0.04952292       0.08083507
H        6.74219026     -15.39397793      -8.05389380       0.27045020      -0.31586802       0.00068545
O       13.65494291       8.56819515      17.97674811      -0.05335009       0.35907423       0.01062608
H       14.05925297       8.90215662      17.20920397      -0.21105416      -0.00720661       0.66487101
H       14.18248483       8.02578329      18.55908806      -0.18969252       0.39117182      -0.02560027
O       -0.17678580       1.26215618      -1.18900698      -0.27124035       1.02944338       0.49408967
H        0.80751028       1.31624913      -1.19774990      -0.49272370      -0.37364335       0.11953126
H       -0.40417003       0.31543620      -0.99193771       0.25269525       0.08002887      -0.30293192
O      -14.12077463      12.66804156      15.73398608       0.92205696       0.33491096      -0.56683741
H      -13.66890408      12.43938028      14.99324245       0.35836334      -0.22462654      -0.09842024
H      -14.63025652      11.94588944      16.24955871       0.42153308      -0.19312243       0.08182405
O      -16.29372603       5.94040590      12.28938293       2.36868099       0.71383325      -0.80804429
H      -16.89527253       5.81988383      11.54481465      -0.01368445      -0.25829991      -0.00415252
H      -16.31305035       6.79902046      12.28769755      -0.28280809      -0.22306061       0.11673270
O       -9.96804899      32.89301323      -9.60330489      -0.34462225       0.07681040      -0.42381315
H       -9.12201074      32.47057092      -9.40498443      -0.36764926      -0.01761550      -0.15772457
H      -10.83646398      32.44141815      -9.94003701       0.21920902      -0.19328323       0.02378313
O       34.78597679      11.43434134      21.31486113       0.70733711      -1.45807741      -0.20048958
H       34.90802360      11.91633376      20.48254979       0.40937415       0.27945777      -0.45759196
H       35.51672020      10.98951724      21.71852549       0.16601930       0.56314682      -0.51865122
O       30.40341069     -12.60336524       2.12165543       0.25903893       1.14696082      -0.46769198
H       29.61183656     -12.25044355       2.63137348      -0.33220845       0.09124245       0.59939601
H       30.15115345     -12.56336834       1.20316422      -0.04018366       0.08441261      -0.40783488
O       17.57269673       9.23642099      -7.45073413       0.22097790      -0.49880620      -0.26297104
H       17.18969169       8.42389498      -7.70610737      -0.55264643      -0.71281811      -0.10334024
H       17.45611929       9.57778384      -6.58711182       0.14633609      -0.00489372       0.07891695
O       -5.07881871       2.58382314      32.21168426       1.46204938       0.43133782       0.72763213
H       -5.72128863       1.94775591      32.08074854       0.02545484      -0.48644330       0.49714348
H       -4.23949057       2.14179526      32.54001890       0.13166617       0.00469232       0.13067288
O        3.87372294       0.88405151      -0.24804054       1.68612078       0.09324963      -0.12582372
H        3.28898794       0.07837253      -0.29816454      -0.28454712       0.05117384       0.03436052
H        4.32369026       1.13768207      -1.02913000       0.25907549       0.42121488      -0.10258874
O       23.19487850       3.23394597      11.69760083      -0.33434648      -0.60584051       0.65912364
H       23.48366229       3.73971849      12.44098190       0.23597023       0.63465475       0.32835376
H       23.70400555       2.39034356      11.62265703      -0.25669034       0.00893195      -0.43947938
O       -1.40660452      31.83913264      15.08358499       0.16942246       0.38637972       1.41618640
H       -2.05336640      32.39743432      14.62768577       0.49163773       0.03333261       0.00899078
H       -0.57517312      31.66189909      14.79088529      -0.06019158      -0.08214913       0.09166085
O        4.78890218      19.40904415       5.21735905      -0.77054508       0.08858499       0.20733215
H        4.00716164      18.81261181       5.59948194      -0.09690297       0.11213493      -0.16863689
H        5.49152261      18.78798379       5.14078421      -0.00716667      -0.06369998      -0.11925569
O      -10.19619899      10.52042905       9.52303519      -0.54029149       0.27385746       1.09398807
H      -11.01852214      10.88276329       8.97923730      -0.40922995       0.05076683       0.23475414
H      -10.17810693      10.61088334      10.43230572       0.22599185      -0.18922002      -0.30311216
O       17.69580045      17.77908991      26.07281875       0.40700389       0.39460160      -1.58729070
H       18.38326698      17.06461912      26.13141332      -0.36708047      -0.06512111       0.08214024
H       16.84954332      17.29010584      26.09080355      -0.13051798       0.04822805       0.05804573
O        6.93305177      18.66987868      10.13622048      -0.17158441      -0.57250320       0.37040983
H        7.36483353      19.26337561       9.53800047       0.17467665      -0.09769279      -0.02539407
H        6.40239837      17.85846119       9.84110142      -0.15677044      -0.11519596       0.29395835
O       -0.65454273     -13.83204144      13.25535476      -0.81095714      -1.27738419      -0.26646795
H       -1.49229558     -14.22948857      12.89848500       0.22080403       0.17346633       0.12484489
H       -0.04273343     -14.61465199      13.42720335       0.20757851       0.20394584      -0.13108781
O        1.12797573       6.01358276       1.10805238      -1.07444657      -1.41103594       0.11136082
H        1.74542961       5.33895892       1.17542196       0.71563319      -0.38606404      -0.06798212
H        1.21298006       6.74659209       0.50989445       0.41251989       0.26865860       0.38432922
O        3.20376124       1.31090550       8.38395045       2.43035169      -0.25340734       0.60147194
H        2.30338975       1.26590294       8.39543331      -0.77768076       0.05291599       0.10414497
H        3.60004765       1.26579911       9.25167953       0.17873699       0.00427361      -0.32324942
O      -18.81798122      28.84250762     -16.18833871      -0.72890324       0.73383960      -0.97454426
H      -18.52392115      29.20224013     -17.08201345       0.53776974       0.15462433      -0.21703761
H      -18.19126011      28.62758118     -15.53416620       0.58538107       0.23602819       0.63877044
O        2.84874953      26.85949774      -9.07525495       0.20554894       0.04333574       0.08633403
H        4.07448721      26.97405405      -8.72546696      -0.55168755      -0.18845870      -0.75965846
H        2.05923831      26.44303815      -8.72942532      -0.09112402       0.14608662       0.29515704
O      -18.14583749      18.96062697       1.94332907      -0.70025765      -0.49684096       0.55821458
H      -17.39779088      18.51357691       1.34509823      -0.24185446      -0.47186377       0.09327313
H      -19.14183939      18.79880258       1.88595546      -0.51983462       0.19316261       0.01233655
O       11.71859055      17.56814242       7.02099845       0.07210393      -0.27153054      -0.42862695
H       12.65038606      17.58513904       6.79102035      -0.05376042       0.42891383      -0.00441742
H       11.18679715      18.18713652       6.49807868       0.22834757      -0.03674601      -0.22822778
O       -7.23789104     -11.23709846       5.15056316      -0.20944029       0.37784462      -0.20407865
H       -6.74949845     -11.42257087       4.37081602       0.10490657      -0.55382543      -0.25860071
H       -7.40593000     -12.03156035       5.70744761       0.17001015      -0.11863395      -0.16189656
O      -24.19103057       3.34185525      10.68500014      -1.51765218      -0.97076779      -0.06898282
H      -24.95082537       4.05765879      10.54241201       0.08246830      -0.08810253       0.04536744
H      -23.28668222       3.61748232      10.29911792       0.23091310       0.00496366      -0.17310393
O      -11.42674852      -8.28304229      18.48887749      -0.39044045      -0.84865092       0.69699761
H      -10.61253981      -8.67967351      18.84920196       0.46390464      -0.25368138      -0.16804957
H      -11.55477620      -7.95281754      17.64106059      -0.05936227       0.29167863      -0.05424771
O        8.53319680       7.35150623      16.86522957      -1.30429924       0.33560252      -0.46095435
H        9.47965690       7.19217038      17.01629984      -0.47752903      -0.03183673       0.05815274
H        8.08567242       7.10144252      16.09431073       0.03065661       0.19458726      -0.31356851
O      -11.63520071      -0.48612093      20.45973484      -0.63781893       0.13737647       0.63644228
H      -12.41036315       0.01870236      20.74168465       0.43235837       0.15060822       0.14139590
H      -11.77772981      -0.72236955      19.46913669       0.08612519      -0.23305559      -0.10052565
O       24.09720912       2.52649483      16.20361372      -1.14989523       1.53520777      -0.35514361
H       24.11343902       2.33058036      17.12062136       0.14340256      -0.35028164       0.24747796
H       24.18422756       1.65592265      15.66118028       0.23397260      -0.36381417      -0.04360609
O       -5.64716135     -17.90714721      -5.09307902       0.89920582       1.05462551      -1.07701745
H       -4.76918983     -17.77961643      -5.24077038      -0.23871435       0.26289839      -0.40060035
H       -6.15306438     -18.56522034      -5.58830596      -0.69381652      -0.02032480      -0.24200499
O       29.35609289      -8.93550084      -6.15326623      -1.64340989       1.39833531      -0.39918347
H       30.30162822      -8.85552984      -6.50540240      -0.30833460       0.02263040       0.23706021
H       29.09492168      -9.74401490      -5.76947042       0.06255800      -0.35216622       0.43106605
O        8.80389952      -0.64059864       3.43888866       0.06001387       0.24480259       0.61617384
H        8.28249897      -0.00121132       3.01284981      -0.23369043       0.08454155       0.20447424
H        8.34584822      -1.48622987       3.49392618       0.05305392       0.18988528      -0.26516080
O      -19.80045609      -3.10246020      24.74658259      -0.67602399       0.80009559      -0.28569578
H      -19.96670371      -4.10209148      24.40376998      -0.09829373      -0.16986395      -0.05449157
H      -19.21089881      -3.18032957      25.59305811       0.17285133       0.51423812       0.38267181
O        2.47270911      -5.76212859      -6.02951112       0.83615370       0.00918911       0.62263471
H        2.41994291      -5.84751375      -5.03001982       0.03418092      -0.19204040      -0.55072992
H        1.87882699      -6.47843963      -6.25842036       0.37821157       0.31613621       0.01124865
O        9.88521418       8.25547996       7.99067511       0.39484109      -0.18128683       0.65189805
H       10.30034199       8.41481626       7.15611286      -0.13989215      -0.04627014       0.04727226
H       10.00128960       7.36424786       8.30623752       0.10862903      -0.28136638      -0.07911102
O        5.38732824       9.75520315      -4.86620414       0.51543815       0.15155770      -0.85724418
H        6.12460816       9.03348137      -4.73968696      -0.07326930      -0.13904400       0.10186703
H        4.76069268       9.68033770      -4.19260285      -0.05228690      -0.11215165      -0.25524125
O       13.72619583      29.38536033      15.85441202      -0.53503776      -0.68734310      -0.09203553
H       12.81383467      29.25211305      15.95351685       0.06443789       0.09901463      -0.37319467
H       14.26852330      28.57693665      15.79856321      -0.18384269      -0.24948788      -0.07569288
O       -2.84247247       3.97856316       1.72187345      -1.23572956       0.38074464      -0.16146278
H       -2.26516971       3.41287116       2.23328043       0.47856071      -0.52435092       0.23357876
H       -2.59015290       4.86812614       1.64111503       0.29505953      -0.08766686      -0.17270783
O        7.83296436     -14.01862001      10.92583795       1.11293873      -0.02233213      -0.70011842
H        6.90343778     -14.24919763      10.83107537      -0.87388027       0.03807827      -0.23194557
H        7.95812410     -14.37534481       9.98672244      -0.16416342       0.03488600       0.09680676
O       -2.54838743      10.53593311      24.27152680      -0.98567746      -0.17047980      -0.99193379
H       -1.96100846      10.29450199      23.57685768      -0.33787507       0.44979562       0.42875648
H       -3.24088694      11.27435803      24.33113550       0.08431916      -0.24231132      -0.36156413
O       20.02065642      21.75472081       1.55331235      -0.49105835       0.05473644      -0.50317271
H       19.79133200      22.41257641       2.32831721      -0.27939418       0.19383237       0.16054723
H       19.54784402      20.88247667       1.49665151      -0.18494599       0.19932870       0.46737234
O       12.22471727      10.00297192     -15.88322695       1.45535758      -0.58127001       0.47268887
H       12.61939261       9.16427976     -15.71618224      -0.38198400       0.33489455      -0.10314403
H       12.33468250      10.24679175     -16.89757547      -0.37546216       0.26870594      -0.24903638
O      -11.37293491      22.25898050       1.03671927       0.68197073       0.37622068      -0.50982575
H      -11.89632059      21.39889778       1.29844145      -0.27469956      -0.26930365       0.37102563
H      -10.89415595      22.56667324       1.80493118      -0.17973438      -0.26428147       0.01577625
O        2.89781669     -15.06143040      16.03994043      -0.88747199      -0.78571876      -1.11945526
H        3.18341445     -15.62606072      16.79816186      -0.15368286       0.36739336      -0.20937612
H        3.58946176     -14.38451580      15.93695693      -0.01862854      -0.09753289      -0.06648715
O        2.37788370      16.27405422       0.41657117      -0.92095350      -0.48926307       0.84305150
H        1.66095395      16.43725753      -0.33121645       0.12563941      -0.10832320       0.54516870
H        2.95083073      15.52415714       0.62236932      -0.31455955      -0.31458819      -0.20914512
O       -5.75228566      -7.37941118       5.60647728      -0.02638234      -1.55603949       0.85117288
H       -5.30816594      -7.78612203       6.35505375      -0.70899037      -0.03580601      -0.38581860
H       -5.04617055      -6.79992295       5.19029916      -0.26913165       0.03429226      -0.07428241
O       -2.15538070       2.40800496       6.65372753      -0.01955014       0.21004534      -0.01986039
H       -2.18804759       3.37257440       6.74136745       0.18130321      -0.42322616       0.04598522
H       -1.69452793       1.78021080       7.47248288       0.15443914       0.32779175       0.00983938
O       13.19809189      -5.56135985      -1.45532543       0.34369830      -1.17000917       0.54134282
H       13.98841439      -5.34880291      -1.95957724       0.32989988      -0.24103991      -0.23845818
H       13.11840985      -6.60809369      -1.43804961       0.22072735      -0.39433573      -0.02767698
O       11.82021949       4.88153256      22.71884753       0.04398224      -0.36943731      -0.03835570
H       11.14726299       4.27257285      23.06942438       0.00057832       0.29763401       0.05868922
H       12.04279278       4.82108331      21.83275886       0.05907820       0.13197221       0.01399317
O        8.08679783      14.47969242      23.88561006      -1.11107606       0.41457216       1.15863136
H        9.00077701      14.69188388      23.64261390      -0.31236201      -0.29084904      -0.09031779
H        8.08174270      13.44264468      23.98813063      -0.07225004      -0.52836186      -0.11247331
O       -8.02806809       6.94238205      11.43816155       0.66285448      -0.71477134       0.44803690
H       -7.27967809       6.81038930      10.82631909       0.14574218      -0.11770409      -0.09083242
H       -8.47878392       6.46984200      12.11406943       0.13625545      -0.16004804       0.09709927
192
Lattice="12.742565325112896 0.0 0.0 -5.288888201010228e-07 12.742565325112896 0.0 -5.288888201010228e-07 -5.288888201010228e-07 12.742565325112896" Properties=species:S:1:pos:R:3:momenta:R:3 step=170 time_fs=17.0 phase=production pbc="T T T"
O       11.71565036       0.74384636     -16.47030599       1.83389760       0.41467637      -0.11398465
H       12.29318523       1.03887758     -15.79113507      -0.03484771      -0.10140913      -0.04959720
H       11.05207608       0.11565417     -16.29245539       0.20141344       0.08915418       0.30437329
O       26.35668157      24.76766875       4.99697632      -0.02507493      -0.61482240       1.50039280
H       26.79014699      23.95602358       4.57215404      -0.14243967       0.50261793       0.13039256
H       25.79868037      25.14832263       4.31056633       0.24988344       0.01045300      -0.10254135
O        4.53287210      -0.36175036       6.55071135      -0.59508223      -0.75844460      -0.78534516
H        5.27678442      -0.97534105       6.79367107       0.36469379      -0.05478414      -0.10901102
H        4.38511001       0.16796644       7.37819098       0.09139616      -0.04995776      -0.14032276
O       -2.84721362      -4.32233692       1.07731694      -0.18353058       1.37553285       0.69370446
H       -2.45519384      -3.80573295       0.33474947       0.24854562      -0.11942500       0.03288669
H       -3.75102626      -3.90959359       1.31406324       0.23003848       0.09295687      -0.17851842
O        4.34130758      15.91914744      10.69629310       0.92990937       0.51950055      -0.48971986
H        4.54999717      16.76815673      11.06895436       0.37875626       0.50219775       0.22717853
H        4.85680310      15.86135344       9.90877527      -0.19751994       0.01427835      -0.34333779
O       -1.36646269       6.54742117       5.13411694       0.22983758      -1.14498701       0.23217751
H       -1.82779258       6.39327487       4.37956024       0.06239924      -0.04153712      -0.03084285
H       -0.50036588       7.01260870       5.12634582       0.02847270       0.01341385      -0.33161716
O       22.83215447      12.30981880       5.78712670       0.19554117       0.01500508       0.23957398
H       23.06350733      13.26604929       6.11121760      -0.38667999      -0.12946767      -0.19768592
H       21.89062826      12.23204464       5.36874322       0.03622618       0.09232818       0.56764460
O       -1.10222187     -15.69855757       6.76756414      -0.64097892       0.66807156      -0.52631746
H       -0.54009426     -16.05249961       6.05919803       0.06809536      -0.07291921       0.13174034
H       -1.58490908     -14.83679809       6.44272705      -0.45791859       0.43086516      -0.22066965
O       15.47918695     -17.90901386       9.69730752      -0.17282664      -0.18554696       0.37968542
H       16.14234777     -18.41150875      10.28423372      -0.10540563       0.38846905      -0.11257597
H       15.64681284     -17.00690352       9.50227026       0.19592553      -0.09818780       0.29801572
O        3.30766300     -14.67175685     -13.36801515       0.48703348      -0.19085250      -0.40692786
H        4.29942931     -14.78624478     -13.18389834       0.08424931      -0.08611828       0.06372047
H        2.66702650     -15.27198780     -12.96051841       0.13240315      -0.31593685      -0.20676193
O       -5.75587238       1.63775565       2.87770917       0.24764202       0.74554916       0.86040360
H       -6.39133910       1.24607306       2.33440845       0.01161775       0.39819214      -0.36946204
H       -5.44406555       2.49144234       2.56091138      -0.40796010      -0.32987071      -0.16557828
O       -5.34808013      16.13784328      25.87720709       0.16052179       1.28947170      -1.02799627
H       -5.53148188      15.89306214      24.97534592       0.16080727       0.43680027       0.13054097
H       -4.60538824      16.18208948      26.27542407      -0.33802615      -0.06565240       0.07051655
O        7.51666909     -15.65245547      -8.37860930       1.43621806       0.75500596       1.46016538
H        8.00912472     -16.48526461      -8.19047842      -0.23123122       0.19583730       0.02988371
H        6.74247399     -15.41851814      -8.04055938      -0.25640843      -0.20742118       0.26208246
O       13.65297839       8.56969658      17.97629372      -0.35046590       0.29774199       0.22024336
H       14.04544262       8.90583667      17.26019064      -0.03387253       0.11952923       0.35603366
H       14.16742319       8.06138501      18.55818652      -0.08412644       0.32649941       0.05730409
O       -0.17836897       1.26785149      -1.18588415      -0.30916327       0.87340183       0.49285752
H        0.75598127       1.27905159      -1.18508703      -0.47489493      -0.36853080       0.13615462
H       -0.37694912       0.33171725      -1.02260132       0.27840641       0.21335704      -0.31816263
O      -14.11520736      12.66889619      15.73085774       0.63498209       0.19049413      -0.17807347
H      -13.62678198      12.40800096      14.97034822       0.47009674      -0.39114170      -0.31870201
H      -14.58018591      11.93996243      16.24712410       0.57955196       0.08006678      -0.10484649
O      -16.27812456       5.94242343      12.28355386       2.38166098       0.07547736      -0.85897289
H      -16.89595904       5.79207050      11.54414709      -0.01505916      -0.30820894       0.01267907
H      -16.33900602       6.81044509      12.30149782      -0.27160405       0.45583022       0.18875319
O       -9.97079135      32.89131682      -9.60573434      -0.75124877       0.04406666      -0.55763970
H       -9.15735355      32.46328434      -9.41876682      -0.34656495      -0.10255166      -0.13319689
H      -10.79555239      32.42659754      -9.93063305       0.58758293      -0.07747530       0.15025590
O       34.78765539      11.42527754      21.31159398       0.51704910      -1.22276684      -0.50167213
H       34.94521787      11.93538534      20.44678551       0.38783924       0.09900445      -0.20171223
H       35.53885694      11.03773368      21.66849074       0.36173733       0.42330794      -0.46362310
O       30.40263315     -12.59527982       2.11908329       0.08037672       1.23894602      -0.36218914
H       29.58607615     -12.24255727       2.68401462      -0.15213473       0.03897623       0.45385258
H       30.14475496     -12.55321399       1.16516958      -0.04244905       0.10706314      -0.32279512
O       17.57304848       9.23272403      -7.45220545       0.20200777      -0.59632208      -0.37365281
H       17.13515978       8.35187881      -7.71433185      -0.50410866      -0.67259721      -0.05138172
H       17.46992449       9.57780193      -6.57360560       0.16119309       0.01285172       0.17501514
O       -5.06833285       2.58650617      32.21457723       1.80413111       0.45949689       0.84688031
H       -5.72395229       1.89291172      32.12656772      -0.05001694      -0.59784920       0.48989449
H       -4.23880037       2.14849729      32.54576616      -0.11309835       0.13099863       0.03164261
O        3.88328435       0.88395635      -0.24846961       1.52182838      -0.09543687      -0.05093165
H        3.27013333       0.09350813      -0.29785023      -0.09528755       0.25885306      -0.03021421
H        4.34808758       1.17890480      -1.04250368       0.22776270       0.41442022      -0.14300219
O       23.19168036       3.22980831      11.70097853      -0.23540492      -0.62292949       0.72221590
H       23.50360653       3.79740254      12.47043259       0.18410863       0.51683996       0.24154146
H       23.67512103       2.39828572      11.58103195      -0.29439892       0.13962561      -0.39944825
O       -1.40646971      31.83953468      15.09206960      -0.12600351       0.36212030       1.65794658
H       -2.00405017      32.40104879      14.62477424       0.49992181       0.09728150      -0.06381083
H       -0.56483314      31.65044527      14.79113914       0.26123036      -0.11098623      -0.06381719
O        4.78281847      19.40797555       5.21870098      -1.10180083      -0.05973071       0.33099831
H        4.01087507      18.83248178       5.57661951       0.17824364       0.31755597      -0.29161719
H        5.49424302      18.77761064       5.12939905       0.05465126      -0.11370751      -0.10709123
O      -10.19982136      10.52165071       9.52742041      -0.85133207       0.33739180       0.51529169
H      -11.03948510      10.87970954       9.01254224      -0.02691744      -0.10233686       0.46119141
H      -10.15683194      10.59492748      10.41845053       0.19881133      -0.12379867       0.04194007
O       17.69709690      17.77976753      26.06149840       0.34574173       0.19780330      -1.57986635
H       18.34209763      17.06330355      26.13642940      -0.42864434       0.03982997       0.05462693
H       16.84108159      17.29916743      26.09435329      -0.02563986       0.16161486       0.04707925
O        6.93091921      18.66436274      10.13797113      -0.37504065      -0.83874825       0.39439527
H        7.38271120      19.25395792       9.53030779       0.19362673      -0.08089879      -0.11062191
H        6.39578341      17.85738553       9.87228990       0.02836785       0.11110547       0.35546296
O       -0.65939979     -13.83991880      13.25281499      -0.75270497      -1.53566085      -0.28153418
H       -1.46418939     -14.20889970      12.91104271       0.31191859       0.21274790       0.13168014
H       -0.02959735     -14.58415295      13.41243298       0.07205432       0.39126701      -0.15171065
O        1.12086110       6.00480385       1.10893201      -1.14794675      -1.38429483       0.18566789
H        1.81955138       5.29676191       1.16724432       0.73959274      -0.40489350      -0.10211391
H        1.25443793       6.77249610       0.54512453       0.43410000       0.25842898       0.35364186
O        3.21905361       1.30922904       8.38668440       2.48589994      -0.27248001       0.44254062
H        2.21910224       1.26990286       8.40568565      -0.81704324       0.03802454       0.12093275
H        3.61902895       1.26919165       9.22635936       0.21515433       0.06636568      -0.17398391
O      -18.82110805      28.84557068     -16.19412580      -0.60068547       0.82329369      -1.17364666
H      -18.47431592      29.20870021     -17.08857160       0.45216770       0.01476233       0.06062447
H      -18.13340756      28.64908565     -15.47323198       0.51794719       0.25759645       0.53248096
O        2.85100753      26.85849362      -9.07426439       0.52475762       0.15470863       0.06039173
H        4.00354127      26.94959169      -8.80405598      -0.85157385      -0.26802312      -0.82295628
H        2.04914570      26.45088218      -8.69571951      -0.07958952       0.06338776       0.37203995
O      -18.14907053      18.95593429       1.94601276      -0.73129001      -0.65333385       0.35876553
H      -17.43460623      18.47421131       1.36638813      -0.52857421      -0.31235233       0.34195809
H      -19.17577969      18.81799328       1.88673939      -0.18921070       0.22416347       0.00576867
O       11.71804516      17.56540526       7.01790461      -0.01563336      -0.27415268      -0.43464743
H       12.64431071      17.62660514       6.79008385      -0.04242631       0.44137677      -0.00740955
H       11.21196140      18.18064050       6.47690647       0.29254866      -0.06679462      -0.20284147
O       -7.23905020     -11.23402661       5.14941179      -0.29438982       0.38663780      -0.12272019
H       -6.73354125     -11.47835066       4.34238332       0.17925266      -0.59012826      -0.27631237
H       -7.38636780     -12.03740142       5.68543102       0.21797945      -0.02179819      -0.27626964
O      -24.19865372       3.33649236      10.68352869      -1.43954330      -0.71067940      -0.19943767
H      -24.92927569       4.03994856      10.54780830       0.32319213      -0.26715071       0.07888906
H      -23.27755403       3.61443166      10.28802160      -0.07753849      -0.06487234      -0.03796704
O      -11.42803067      -8.28800649      18.49293780      -0.23019632      -0.93514621       0.97069261
H      -10.57206687      -8.69988000      18.82627282       0.32023596      -0.15688220      -0.28883308
H      -11.55908609      -7.92458385      17.62248722      -0.04004068       0.26358290      -0.26999233
O        8.52452132       7.35335262      16.86192040      -1.39659148       0.41394664      -0.30328704
H        9.43170044       7.18978695      17.01818642      -0.45961379      -0.01502355       0.00751648
H        8.08604333       7.11523604      16.05277536      -0.00401447       0.10263851      -0.50264010
O      -11.63855950      -0.48559595      20.46161054      -0.66336029       0.00545490       0.37422512
H      -12.36897886       0.03325200      20.75336470       0.37484322       0.16307519       0.13248757
H      -11.76791780      -0.74061095      19.47120747       0.09951043      -0.13994795       0.16953282
O       24.08872608       2.53517413      16.19966111      -1.12935812       1.33215994      -0.55534295
H       24.12495543       2.29525115      17.14874794       0.12218881      -0.35978782       0.30054583
H       24.20452142       1.63403447      15.66570478       0.21153839      -0.08347957       0.15201355
O       -5.64278621     -17.90001613      -5.09944619       0.38364307       0.87567296      -1.11991049
H       -4.77371917     -17.74884771      -5.28182322       0.13963272       0.34755479      -0.45068001
H       -6.21565727     -18.55974177      -5.60876937      -0.56910814       0.14276847      -0.15968815
O       29.34488491      -8.92614427      -6.15564563      -1.48415804       1.40596676      -0.45192258
H       30.25585733      -8.85450612      -6.47821805      -0.54436643      -0.01003376       0.29388633
H       29.10093644      -9.77953607      -5.72655748       0.11525635      -0.32874783       0.41089768
O        8.80411838      -0.63934644       3.44279873       0.18109766       0.18287655       0.71503967
H        8.25386441       0.01411495       3.02942579      -0.33039802       0.21607180       0.15053068
H        8.34961857      -1.47134450       3.46813579       0.02590429       0.09438931      -0.25774119
O      -19.80327525      -3.09811382      24.74357631      -0.63787864       0.56617766      -0.19531678
H      -19.97322443      -4.10405201      24.40253805      -0.06072576       0.11738406       0.05913118
H      -19.20038693      -3.12900006      25.61952271       0.01588108       0.53074562       0.18913156
O        2.47784460      -5.76146391      -6.02472831       0.91657832       0.13369410       0.75736134
H        2.42765432      -5.86210563      -5.08473089       0.12506440      -0.12214144      -0.50835218
H        1.90791641      -6.45697463      -6.26453927       0.19131043       0.08228595      -0.15777984
O        9.88683124       8.25373496       7.99446586       0.33216027      -0.25289571       0.75590278
H       10.28937809       8.41252853       7.15881203      -0.07007859       0.01111118       0.01380709
H       10.01371010       7.33890904       8.29770334       0.15422032      -0.19853040      -0.09550920
O        5.39149203       9.75495493      -4.87175946       0.94053779      -0.03865078      -1.03902840
H        6.10481106       9.03057303      -4.73147988      -0.32276063       0.09046104       0.05912575
H        4.74492007       9.66655383      -4.20683609      -0.25883188      -0.15709061      -0.05070514
O       13.72301305      29.37933611      15.85285836      -0.22447432      -0.68832398      -0.09704065
H       12.81012567      29.25633678      15.91450399      -0.12909299       0.02579760      -0.40787505
H       14.24492247      28.55732714      15.79128177      -0.28097946      -0.11585513      -0.05328476
O       -2.85010502       3.97979637       1.72085078      -1.25891054       0.06728300      -0.09860657
H       -2.22068010       3.36656282       2.25247834       0.38354259      -0.37453915       0.12171632
H       -2.55655370       4.86811897       1.62441394       0.38728065       0.08041796      -0.16439266
O        7.83860039     -14.01842037      10.91994961       0.84104301      -0.19454605      -0.99294434
H        6.82728738     -14.24120968      10.81159555      -0.64881233       0.11532270      -0.14610645
H        7.94444000     -14.36463477      10.00487694      -0.09785202       0.16231133       0.27227193
O       -2.55510221      10.53497249      24.26489125      -1.25229961       0.04833602      -0.66014944
H       -1.98591024      10.33530740      23.60701788      -0.15140384       0.39439094       0.18956386
H       -3.22540135      11.24017806      24.29014159       0.20570370      -0.41777085      -0.44608159
O       20.01583803      21.75383158       1.55091008      -0.67629400       0.10768081      -0.23880728
H       19.76789829      22.41894291       2.33134260      -0.17293391      -0.03503167      -0.09730055
H       19.53546685      20.90862233       1.54328866      -0.05095112       0.34681307       0.48574454
O       12.23264548       9.99982381     -15.88058261       1.35172040      -0.20677094       0.06703653
H       12.58602057       9.18673798     -15.72425602      -0.27185941       0.10182672      -0.07658325
H       12.29467315      10.26302317     -16.90206250      -0.42644659       0.07438342       0.13578133
O      -11.36878078      22.25908770       1.03343172       0.43626977       0.09870524      -0.55268272
H      -11.91214704      21.38561772       1.33087823      -0.06548420       0.02153607       0.29358913
H      -10.90938542      22.53867431       1.81081006      -0.13806227      -0.27588024       0.12090718
O        2.89243467     -15.06531780      16.03228709      -0.83095576      -0.75882940      -1.09414019
H        3.16726731     -15.58734243      16.77240404      -0.16031762       0.36713733      -0.24965202
H        3.58351205     -14.39560098      15.92907222      -0.08813104      -0.13243253      -0.08271025
O        2.37154326      16.27034245       0.42126731      -1.08090168      -0.40441682       0.71077328
H        1.68437108      16.42052694      -0.26874661       0.34153505      -0.20917004       0.71920205
H        2.91684145      15.49135088       0.59972287      -0.38087438      -0.33139394      -0.25532484
O       -5.75180834      -7.38792486       5.61066756       0.02578630      -1.34617170       0.58114174
H       -5.37432789      -7.79519576       6.32321799      -0.62784334      -0.19009516      -0.20580721
H       -5.07963716      -6.80264908       5.18792427      -0.40943240      -0.08835458       0.02305534
O       -2.15508698       2.40823709       6.65372844       0.07323480      -0.14442952       0.14635523
H       -2.16745460       3.33216807       6.74756242       0.23638916      -0.33940010       0.09458240
H       -1.68468830       1.82253609       7.46283837       0.04572972       0.53864866      -0.19695787
O       13.19946384      -5.56918348      -1.45183658       0.39375826      -1.48128053       0.54730269
H       14.01724116      -5.37372230      -1.98150375       0.25291657      -0.28115281      -0.19685238
H       13.14154519      -6.62662551      -1.44435702       0.26791702       0.00217704      -0.10251322
O       11.81966540       4.87908825      22.71823882       0.03270661      -0.31680378       0.27385349
H       11.14681219       4.30158397      23.07146535      -0.01166158       0.28845981       0.02053973
H       12.04897145       4.83221991      21.81902109       0.07886133       0.10362052      -0.25430929
O        8.07951120      14.48051341      23.89123253      -1.14369858       0.14141360       1.15792534
H        8.96895553      14.66281194      23.63466927      -0.28539394      -0.27846101      -0.05323351
H        8.07344166      13.40481567      23.97402044      -0.08931884      -0.23749117      -0.14528592
O       -8.02317895       6.93810678      11.43964965       0.76886683      -0.55293031       0.27130290
H       -7.26790927       6.79459660      10.82144162       0.07577216      -0.19398019       0.01233257
H       -8.46539399       6.44570575      12.12773455       0.13758918      -0.31512790       0.18325468
192
Lattice="12.741689035567084 0.0 0.0 -5.288524491088305e-07 12.741689035567084 0.0 -5.288524491088305e-07 -5.288524491088305e-07 12.741689035567084" Properties=species:S:1:pos:R:3:momenta:R:3 step=180 time_fs=18.0 phase=production pbc="T T T"
O       11.72622892       0.74660619     -16.47066914       1.86941360       0.49490891      -0.37610653
H       12.29315077       1.03176577     -15.78639458       0.05589555      -0.03935182       0.12942131
H       11.06552271       0.12027410     -16.25935187       0.09170067       0.00744191       0.35111839
O       26.35485222      24.76161639       5.00549880      -0.00693741      -0.75134935       1.41569310
H       26.77034376      24.01224699       4.58982494      -0.18987215       0.62139157       0.21423318
H       25.82081719      25.14751810       4.30212596       0.23034354       0.02025151      -0.06858760
O        4.52937541      -0.36646873       6.54610190      -0.43034308      -0.79652846      -0.58105956
H        5.30326856      -0.97677346       6.77955004       0.17629019       0.03105571      -0.17269653
H        4.39298065       0.16037631       7.35805934       0.07599927      -0.10058662      -0.25191705
O       -2.84869649      -4.31305073       1.08131936      -0.34224634       1.53561787       0.63584223
H       -2.43517192      -3.82141906       0.34510516       0.16168449      -0.20125099       0.17234012
H       -3.71563081      -3.90605965       1.29241881       0.46770943      -0.01502602      -0.25697791
O        4.34657885      15.92134841      10.69288410       0.91863046       0.61537957      -0.37797611
H        4.58581179      16.81583366      11.09193231       0.34847484       0.42589257       0.21725874
H        4.84112170      15.86020730       9.86885715      -0.13846924      -0.00207393      -0.42178543
O       -1.36400984       6.54033188       5.13622649       0.52664125      -1.02179507       0.55389758
H       -1.82361328       6.38444900       4.36015400       0.02502530      -0.12578633      -0.34699852
H       -0.50525541       7.00926971       5.09088829      -0.12465880      -0.06951894      -0.38696721
O       22.83102406      12.30972461       5.78824681      -0.04703574       0.22606727       0.26167532
H       23.02087378      13.24076994       6.08678060      -0.45390465      -0.37055509      -0.29464835
H       21.90882762      12.24101935       5.42614083       0.36089734       0.10914077       0.61118142
O       -1.10641299     -15.69258418       6.76346504      -0.75228019       0.92238011      -0.64848281
H       -0.53631650     -16.05604740       6.07428179       0.01414359      -0.02594762       0.17904801
H       -1.62176338     -14.80694046       6.42445375      -0.30398018       0.16926765      -0.14809396
O       15.47726778     -17.90972067       9.69955003      -0.13015722      -0.42452166       0.54595935
H       16.12309415     -18.36421636      10.26512571      -0.23917804       0.53552282      -0.24146626
H       15.66738690     -17.00744015       9.53114926       0.24817932       0.06034364       0.30762218
O        3.31094610     -14.67210722     -13.36948057       0.65426517      -0.25508086      -0.36850245
H        4.29620740     -14.79559675     -13.17920038      -0.14344555      -0.12547435       0.01291388
H        2.68273323     -15.29937504     -12.98085639       0.19478326      -0.26600549      -0.22804593
O       -5.75358751       1.64210942       2.88344083       0.33571896       0.65661315       1.07187411
H       -6.39949054       1.27982153       2.28993340      -0.18083964       0.29265873      -0.52696297
H       -5.48157378       2.46407364       2.54325346      -0.34384095      -0.17228289      -0.20564318
O       -5.34870107      16.14470257      25.86859936      -0.45688009       1.31435302      -1.16239770
H       -5.51425778      15.93176974      24.98185832       0.18005293       0.37436926       0.01429211
H       -4.60492117      16.17858119      26.29422350       0.32056314       0.01525547       0.34376099
O        7.52644765     -15.64719037      -8.36961040       1.84147927       0.66569490       1.29776346
H        7.98081526     -16.45926579      -8.18822262      -0.31258397       0.27219058       0.01381067
H        6.69774709     -15.43417046      -8.00472873      -0.59942198      -0.14930011       0.43831344
O       13.64863329       8.57069639      17.97721060      -0.75894653       0.21943001       0.47463724
H       14.05290423       8.92742018      17.27152063       0.20551039       0.33714041      -0.09437499
H       14.16604907       8.08579443      18.57105260       0.07710327       0.18500507       0.23520479
O       -0.18115261       1.27310542      -1.18289170      -0.62539389       0.89793319       0.44915501
H        0.72894632       1.24698004      -1.17121468      -0.04678371      -0.28741858       0.14869725
H       -0.35439534       0.34837653      -1.05209307       0.17598590       0.09914179      -0.28331656
O      -14.11061735      12.66872567      15.72898619       0.59839785       0.04786052      -0.15518339
H      -13.58122078      12.36553020      14.93854949       0.41203871      -0.43803863      -0.25994135
H      -14.51832658      11.95641676      16.22995620       0.64741732       0.24293094      -0.20052942
O      -16.26247525       5.94112834      12.27711356       2.33830921      -0.29691330      -0.97197106
H      -16.89548010       5.75773680      11.54625857       0.00543404      -0.39152520       0.05174481
H      -16.36304506       6.87926197      12.32441160      -0.23885450       0.90241501       0.30258445
O       -9.97558147      32.88966362      -9.60871997      -0.97552736       0.20304720      -0.60518478
H       -9.18540146      32.44471540      -9.42927278      -0.22835860      -0.24070055      -0.09354257
H      -10.72982240      32.41721556      -9.91294440       0.67525832      -0.11084865       0.17119417
O       34.78775192      11.41802559      21.30565556       0.30295429      -0.88650612      -0.95256756
H       34.97788819      11.93227194      20.44402844       0.32788341      -0.14442683       0.17383977
H       35.58469095      11.06945659      21.62646024       0.62384534       0.24566672      -0.37104065
O       30.40036137     -12.58650468       2.11665441      -0.14305197       1.33848860      -0.38909457
H       29.57837189     -12.24314677       2.71640848       0.03731335      -0.07870619       0.19883208
H       30.14049276     -12.54123799       1.14562012       0.00083886       0.11968296      -0.06155957
O       17.57262745       9.22751097      -7.45431828       0.05097775      -0.88938209      -0.46435605
H       17.09322151       8.29963139      -7.71309469      -0.32974807      -0.38094680       0.06483933
H       17.48529396       9.57794873      -6.55495600       0.17826090      -0.00435276       0.17944494
O       -5.05673156       2.58873269      32.21772608       1.80153556       0.30646438       0.88581700
H       -5.72318490       1.83904751      32.17279243       0.08138856      -0.47332898       0.50402783
H       -4.25653411       2.16505350      32.54355101      -0.22000796       0.19594502      -0.01765930
O        3.89212997       0.88298572      -0.24895970       1.46617409      -0.17739840      -0.13187035
H        3.26943576       0.12746890      -0.30447888       0.07615813       0.42481402      -0.10888781
H        4.36427645       1.21605627      -1.05197179       0.09933029       0.34054787      -0.03616419
O       23.18890784       3.22642916      11.70523681      -0.16087831      -0.36792926       0.93718087
H       23.51476111       3.83609305      12.48187016       0.07532884       0.27190724       0.00253113
H       23.64658182       2.41225644      11.54301842      -0.24149284       0.12279707      -0.36679559
O       -1.40759303      31.83926397      15.10195138      -0.23100900       0.25189452       1.88375096
H       -1.95755711      32.41393319      14.61186670       0.44908848       0.21527163      -0.18220652
H       -0.52845092      31.63697777      14.77826870       0.44592380      -0.11295829      -0.16370818
O        4.77511462      19.40575610       5.22062680      -1.24475506      -0.21010008       0.39198997
H        4.03802666      18.86953659       5.54378885       0.33681419       0.43563966      -0.35108944
H        5.49862305      18.76600725       5.11945013       0.03191799      -0.08558328      -0.08920086
O      -10.20532896      10.52322029       9.52822608      -1.14697083       0.40132744      -0.00714707
H      -11.02254044      10.86137686       9.06754146       0.33263821      -0.24916348       0.66699631
H      -10.13763657      10.58517685      10.43817575       0.18250157      -0.06337638       0.35944734
O       17.69750029      17.77953689      26.05000205       0.16889813       0.15702554      -1.58493484
H       18.30368881      17.06505467      26.13906700      -0.30105401      -0.00696020       0.03948482
H       16.83994322      17.31889802      26.09660721       0.00767972       0.26163203       0.03717806
O        6.92777089      18.65746450      10.13964359      -0.46582126      -0.94889777       0.37262703
H        7.39960003      19.24272783       9.51781885       0.15197571      -0.13566952      -0.11734665
H        6.40562852      17.87506964       9.90789344       0.16493451       0.24902067       0.37857262
O       -0.66332662     -13.84855451      13.25037655      -0.52920248      -1.53427877      -0.20402206
H       -1.44199281     -14.19025883      12.91799389       0.09069422       0.13291839       0.00751264
H       -0.02408276     -14.54119574      13.39718627       0.07898750       0.43303791      -0.13269539
O        1.11432473       5.99544698       1.11004509      -0.94245105      -1.52600513       0.19161372
H        1.88077274       5.26735869       1.15504824       0.50848347      -0.18315861      -0.14566979
H        1.29640963       6.79357087       0.58106287       0.42495599       0.17207586       0.39343648
O        3.23293673       1.30736305       8.38810171       2.09542369      -0.30485426       0.19593066
H        2.15721012       1.27371649       8.41769614      -0.44545156       0.04107653       0.13521757
H        3.64308661       1.27844820       9.21989690       0.29128123       0.12445872       0.06621654
O      -18.82260961      28.84880003     -16.20033135      -0.30514373       0.87456131      -1.20400163
H      -18.43391406      29.20166787     -17.06848250       0.34857719      -0.11564678       0.32521030
H      -18.09218415      28.67464638     -15.43257880       0.30041793       0.30477113       0.27714127
O        2.85445906      26.85777159      -9.07320448       0.66736766       0.20426683       0.09124071
H        3.90827322      26.91992046      -8.88097867      -1.12588402      -0.29458620      -0.75843637
H        2.04951683      26.45488488      -8.65852313       0.11057782       0.06790469       0.36802661
O      -18.15264001      18.95017385       1.94755640      -0.86261094      -0.78419202       0.20476299
H      -17.49681898      18.44973413       1.41011680      -0.75203448      -0.17832734       0.53695153
H      -19.17453600      18.83974095       1.88665531       0.19306402       0.24577550      -0.00645080
O       11.71692484      17.56241544       7.01481116      -0.07796868      -0.31167518      -0.41144172
H       12.64283570      17.66809331       6.78875207       0.03933748       0.42985684      -0.00828368
H       11.23966596      18.17351427       6.45641132       0.27562131      -0.04475987      -0.21567317
O       -7.24026289     -11.23098044       5.14783591      -0.24139356       0.35477897      -0.30686306
H       -6.71818104     -11.53312353       4.32346264       0.11472979      -0.53677647      -0.08579382
H       -7.36376419     -12.03642828       5.65492366       0.22731052       0.00679228      -0.32525626
O      -24.20541090       3.33262239      10.68115066      -1.27762417      -0.50052623      -0.33083777
H      -24.88657515       4.00665171      10.55617229       0.49083391      -0.38403967       0.10222121
H      -23.29954872       3.60414018      10.29087461      -0.40908425      -0.14067350       0.11132825
O      -11.42800623      -8.29329416      18.49787288      -0.02140583      -0.95458632       1.00403938
H      -10.55188080      -8.70782939      18.79000715       0.07479975      -0.01743936      -0.42629098
H      -11.56002161      -7.90421165      17.59491234       0.00977003       0.12287944      -0.22598041
O        8.51443515       7.35560108      16.85889543      -1.73598600       0.47738181      -0.34876127
H        9.39430592       7.18700224      17.01664124      -0.27309596      -0.03794062      -0.00985528
H        8.08670443       7.12218973      15.99999985       0.04928811       0.06230183      -0.51432768
O      -11.64162487      -0.48613789      20.46159382      -0.58789811      -0.19541560       0.08162971
H      -12.33913407       0.05255863      20.76593775       0.21304910       0.23832473       0.15749404
H      -11.75687811      -0.74922790      19.49984059       0.10948924      -0.03847956       0.44041844
O       24.08023610       2.54239705      16.19520050      -1.09496517       1.07145109      -0.51056263
H       24.13387517       2.26238892      17.16923539       0.09406509      -0.30291022       0.12306418
H       24.22209583       1.63908877      15.68794269       0.18265935       0.18450266       0.32085124
O       -5.64167260     -17.89419898      -5.10628139      -0.10939959       0.62655019      -1.22707619
H       -4.74488356     -17.70984718      -5.32756178       0.40300393       0.42161423      -0.48716344
H       -6.26045351     -18.53285041      -5.61706640      -0.35590469       0.37900600      -0.02164935
O       29.33324668      -8.91765366      -6.15750319      -1.71521324       1.12908841      -0.25630225
H       30.20264955      -8.85569681      -6.45131304      -0.44461482      -0.02366404       0.22821298
H       29.11563970      -9.79847285      -5.69311894       0.23240054      -0.04641036       0.25222442
O        8.80476783      -0.63789658       3.44703115       0.20311283       0.30018908       0.72329015
H        8.22081959       0.03627757       3.04484461      -0.31363367       0.20993911       0.18743534
H        8.34897445      -1.46896047       3.44335905      -0.02726718      -0.04310731      -0.24619282
O      -19.80565179      -3.09496434      24.74108246      -0.57399826       0.40148144      -0.05263236
H      -19.97617844      -4.08049569      24.41171005      -0.03028773       0.34913780       0.16005559
H      -19.20620231      -3.07726659      25.62518429      -0.16518428       0.52284212      -0.04257880
O        2.48379208      -5.75949657      -6.02011765       1.06770247       0.37062100       0.57097704
H        2.44329101      -5.87239054      -5.11726596       0.19799336      -0.10240197      -0.13299055
H        1.91408419      -6.46356849      -6.28875573      -0.05114272      -0.21408667      -0.34425795
O        9.88803955       8.25105079       7.99898234       0.28504252      -0.44322628       0.89055396
H       10.28548257       8.41586315       7.15786141       0.00384131       0.06791390      -0.01955225
H       10.02930951       7.32851444       8.28539230       0.17782353       0.00143980      -0.14648213
O        5.39783307       9.75348859      -4.87803997       1.19403018      -0.20652687      -1.08494018
H        6.06267715       9.04865075      -4.72760154      -0.50960469       0.27204135       0.01594674
H        4.71358526       9.64926075      -4.20632215      -0.34704198      -0.17728398       0.02256822
O       13.72148774      29.37317107      15.85118171       0.00572798      -0.64903247      -0.09124820
H       12.78836363      29.25393885      15.87179495      -0.28098296      -0.02899566      -0.44688186
H       14.21341847      28.54883014      15.78613425      -0.33360792      -0.03584516      -0.03063892
O       -2.85730154       3.97896187       1.72054798      -1.13772520      -0.21528624       0.03270355
H       -2.19331651       3.34251248       2.25418832       0.17469376      -0.11467939      -0.08216600
H       -2.51581234       4.87873055       1.60985335       0.43325870       0.11054771      -0.12552574
O        7.84242007     -14.01892611      10.91267855       0.58898268      -0.25395526      -1.06742005
H        6.77212646     -14.22588559      10.80127838      -0.49384161       0.17444192      -0.05044309
H        7.93956319     -14.34459082      10.03099983       0.01845538       0.20452659       0.21385040
O       -2.56313159      10.53468958      24.26042269      -1.38754156       0.05443675      -0.24714765
H       -1.98784360      10.36967594      23.60773993       0.11475946       0.32516018      -0.14609827
H       -3.20713893      11.19933526      24.24167342       0.12764667      -0.36307368      -0.51124031
O       20.00985119      21.75354517       1.55025884      -0.81275896       0.32115716       0.06502201
H       19.75561675      22.40277915       2.30869423      -0.04884452      -0.26681954      -0.36739809
H       19.53296955      20.94235751       1.59026359       0.01063812       0.34350607       0.47869555
O       12.23959586       9.99940243     -15.88041404       1.18385055       0.29855629      -0.36948144
H       12.56619514       9.17899914     -15.72845698      -0.11733387      -0.25197544      -0.03169781
H       12.25076024      10.25962357     -16.86830364      -0.45191144      -0.12864291       0.53332498
O      -11.36610861      22.25728593       1.02977313       0.18432185      -0.18558100      -0.60687869
H      -11.90783910      21.39962873       1.35492243       0.13426743       0.29184526       0.19749527
H      -10.91899376      22.51063995       1.82907554      -0.07537593      -0.26569649       0.25090164
O        2.88694970     -15.06857094      16.02395991      -0.90838015      -0.62925106      -1.28434994
H        3.15411560     -15.55970054      16.75626010      -0.09714827       0.15356461      -0.02654991
H        3.57432932     -14.40495560      15.91724889      -0.08434041      -0.06569365      -0.14340787
O        2.36485087      16.26681982       0.42579401      -0.98547702      -0.39227155       0.83314961
H        1.71850211      16.39648134      -0.19998107       0.30048259      -0.24903275       0.63134848
H        2.87624623      15.45852967       0.57259292      -0.44787017      -0.31644310      -0.30057546
O       -5.75169810      -7.39498801       5.61266777      -0.15420913      -1.13812857       0.20291095
H       -5.42689453      -7.82562615       6.32052414      -0.45338363      -0.45040739       0.17165833
H       -5.12034754      -6.81243946       5.19125221      -0.40058601      -0.09692555       0.03509900
O       -2.15418678       2.40554803       6.65463512       0.17430124      -0.68366486       0.30167859
H       -2.14191080       3.31268536       6.75939015       0.28449817      -0.04577061       0.15778336
H       -1.68558464       1.88433414       7.43288480      -0.06948364       0.73177389      -0.41206409
O       13.20141612      -5.57877038      -1.44856409       0.55087606      -1.76142903       0.47749539
H       14.03287815      -5.40296409      -1.99571443       0.07837205      -0.32400194      -0.09143153
H       13.16828864      -6.60755070      -1.45743533       0.29507845       0.37158984      -0.16444977
O       11.81933802       4.87709506      22.71887202       0.14415110      -0.22165828       0.39955312
H       11.14119923       4.32616910      23.07169418      -0.09525739       0.21605754       0.02122201
H       12.05520648       4.84092735      21.78557581       0.05629208       0.08391847      -0.36278357
O        8.07130676      14.47951626      23.89680440      -1.36417850      -0.14248274       1.19581365
H        8.95074929      14.63720278      23.62740603      -0.05626304      -0.22098379      -0.06791422
H        8.06287044      13.39365436      23.95700044      -0.11892543       0.02228402      -0.16830652
O       -8.01768376       6.93448794      11.44019388       0.82789878      -0.48821922       0.18450308
H       -7.26495632       6.77248645      10.82794981      -0.02505900      -0.24613392       0.13536597
H       -8.44854164       6.41073379      12.14429227       0.20871236      -0.37454627       0.15116623
192
Lattice="12.740747025222154 0.0 0.0 -5.288133503302767e-07 12.740747025222154 0.0 -5.288133503302767e-07 -5.288133503302767e-07 12.740747025222154" Properties=species:S:1:pos:R:3:momenta:R:3 step=190 time_fs=19.0 phase=production pbc="T T T"
O       11.73689286       0.74971253     -16.47245275       1.88555337       0.52518839      -0.57956514
H       12.30156782       1.03083021     -15.76459142       0.12310522       0.01575343       0.27918351
H       11.06997755       0.11863765     -16.22234641       0.03125329      -0.02648642       0.37792152
O       26.35248045      24.75556663       5.01403510      -0.15760330      -0.57929704       1.50784390
H       26.75709611      24.06068805       4.60783459      -0.00857660       0.35755966       0.13921266
H       25.83793133      25.15112926       4.29575734       0.15590470       0.09930192      -0.05432976
O        4.52703442      -0.37160677       6.54242022      -0.21966090      -0.89770416      -0.48523101
H        5.30961118      -0.96880165       6.75895670      -0.03613404       0.12796694      -0.23974089
H        4.39891541       0.15026385       7.33131942       0.04842994      -0.09128468      -0.26233702
O       -2.85053211      -4.30328047       1.08503651      -0.27615366       1.49817264       0.61195868
H       -2.42141549      -3.84201955       0.36483840       0.13625938      -0.20996799       0.20506216
H       -3.66876854      -3.90762202       1.26629485       0.42214184       0.00644720      -0.25958676
O        4.35227216      15.92480200      10.69001627       1.05559276       0.89979687      -0.31413356
H        4.61552938      16.84113622      11.10497356       0.26432997       0.10765182       0.05859231
H        4.82597321      15.86042317       9.83165423      -0.17559399       0.03515638      -0.30264869
O       -1.36009696       6.53382642       5.13988419       0.67977056      -0.95456131       0.72534045
H       -1.82084769       6.36907711       4.31575510       0.04523684      -0.17159044      -0.52257014
H       -0.52223747       6.99942688       5.05050993      -0.20771924      -0.11192507      -0.43300367
O       22.82872799      12.31049845       5.78963448      -0.08786591       0.25757485       0.33999512
H       22.97354395      13.19745878       6.05489927      -0.45198471      -0.41471871      -0.31880966
H       21.94935303      12.25058212       5.48319524       0.40883445       0.08422163       0.52628785
O       -1.11137355     -15.68501075       6.75876107      -0.89869969       1.16798745      -0.71077014
H       -0.53575036     -16.05618845       6.09137836       0.00575611      -0.00708697       0.17036786
H       -1.64431758     -14.80049356       6.41258544      -0.16225088      -0.05554779      -0.08633328
O       15.47493957     -17.91126052       9.70221004      -0.29131646      -0.46868005       0.51844216
H       16.10148096     -18.31099172      10.24292925      -0.13515726       0.48863083      -0.15616126
H       15.69215169     -16.99332771       9.56040209       0.27455442       0.20024451       0.30166815
O        3.31515112     -14.67279878     -13.37064138       0.78164326      -0.31970942      -0.33593965
H        4.27190647     -14.80825179     -13.17935393      -0.33546006      -0.15525583      -0.03240925
H        2.70440260     -15.32178351     -13.00258446       0.25116958      -0.22036033      -0.23350934
O       -5.75139288       1.64513344       2.89019751       0.20085900       0.34943557       1.15835813
H       -6.42090843       1.30446237       2.23685998      -0.23029818       0.23180661      -0.51924401
H       -5.50769819       2.46302116       2.51947201      -0.19885953       0.15578266      -0.27668895
O       -5.35235930      16.15174828      25.85969702      -0.81443699       1.37288356      -1.08524471
H       -5.49599334      15.96329650      24.97212230       0.18547045       0.29741386      -0.17875364
H       -4.55123212      16.18234081      26.33399533       0.72301263       0.08494380       0.48632904
O        7.53715830     -15.64143175      -8.36120123       1.73296647       0.87844821       1.27197495
H        7.95127063     -16.43695341      -8.18524903      -0.26397067       0.13020008       0.04014379
H        6.63736043     -15.44838005      -7.95972333      -0.55114863      -0.18193544       0.43677090
O       13.64194469       8.57121021      17.97932837      -1.05228665       0.16253697       0.61860154
H       14.08089439       8.96740311      17.24563292       0.36438621       0.46935451      -0.35580131
H       14.17909019       8.09840840      18.59892154       0.19703149       0.10537533       0.34096989
O       -0.18597905       1.27889059      -1.18023681      -0.92143760       1.01534712       0.38750430
H        0.74586577       1.22199219      -1.15559671       0.36333093      -0.22480453       0.17040848
H       -0.34231196       0.34902949      -1.07737586       0.07414218      -0.08118130      -0.23795556
O      -14.10527329      12.66802543      15.72594744       0.83880078       0.06779509      -0.50353289
H      -13.54854374      12.32452928      14.92364864       0.22883218      -0.37203939      -0.01011027
H      -14.45726945      11.97718621      16.21182700       0.55548760       0.15405412      -0.11222339
O      -16.24731293       5.93904639      12.26981811       2.19800635      -0.16542090      -1.10415614
H      -16.89029189       5.71742054      11.55543517       0.08556219      -0.40276904       0.16925891
H      -16.38246213       6.96516927      12.35657581      -0.18555932       0.77355080       0.35461788
O       -9.98081451      32.88959030      -9.61156658      -0.94107718       0.58344011      -0.54334738
H       -9.19758394      32.41081844      -9.43500332      -0.02374822      -0.40373682      -0.03481308
H      -10.67376554      32.39389425      -9.90014357       0.41952420      -0.33766267       0.06246788
O       34.78675865      11.41253623      21.29714028       0.26391394      -0.66675592      -1.25681148
H       35.00356049      11.90757366      20.47497328       0.25157816      -0.31902156       0.45442385
H       35.65006616      11.08594674      21.59137060       0.71714072       0.12665172      -0.33000529
O       30.39654671     -12.57704012       2.11402387      -0.36125125       1.44125509      -0.40833904
H       29.58921483     -12.25732454       2.72075680       0.22952021      -0.23269846      -0.10587407
H       30.14058269     -12.52822611       1.15380351       0.04340526       0.12829963       0.22308568
O       17.57116141       9.22060055      -7.45660592      -0.10401667      -1.13141939      -0.44420529
H       17.06856857       8.27707253      -7.70112305      -0.14941971      -0.06791083       0.16642556
H       17.50201614       9.57403869      -6.54151138       0.19004302      -0.06768038       0.07113561
O       -5.04613981       2.58989120      32.22067604       1.48569605       0.13909807       0.83893750
H       -5.70567844       1.80385729      32.21961664       0.26704874      -0.23740669       0.50101432
H       -4.27234956       2.18283402      32.54095131      -0.06747725       0.15692979       0.02987335
O        3.90099624       0.88199706      -0.25014204       1.54214127      -0.09023699      -0.25801683
H        3.28113515       0.17213628      -0.31951969       0.14286441       0.46205127      -0.20293375
H        4.36585520       1.24411497      -1.04790583      -0.06022903       0.23580420       0.11935367
O       23.18627814       3.22512531      11.71087191      -0.14161850       0.03133612       1.18158207
H       23.51483368       3.84854598      12.46861846      -0.03774252      -0.01426790      -0.25529205
H       23.62678509       2.41835142      11.50750645      -0.12462220      -0.00093452      -0.34580744
O       -1.40850310      31.83798056      15.11272669      -0.05822791       0.09440133       1.96102217
H       -1.91572419      32.43772596      14.58781867       0.41361277       0.31349017      -0.28118964
H       -0.48801639      31.62599871      14.76122171       0.33467149      -0.05463125      -0.14389611
O        4.76767462      19.40304390       5.22244654      -1.00735752      -0.17557324       0.30530811
H        4.06322602      18.90603914       5.51324851       0.12887013       0.30564323      -0.24202089
H        5.49891727      18.75977215       5.11126182      -0.01735754      -0.00831192      -0.07127810
O      -10.21161433      10.52475321       9.52671743      -1.06140129       0.31978617      -0.18134938
H      -10.98647399      10.83481934       9.13459919       0.30689854      -0.24678965       0.68262806
H      -10.12002737      10.58079432      10.48171146       0.16022689      -0.01168884       0.51505301
O       17.69662891      17.77944106      26.03828217      -0.01689387       0.25097517      -1.60730662
H       18.28473641      17.05618268      26.14090679      -0.05441180      -0.15414356       0.03939063
H       16.83685509      17.34610189      26.09825145      -0.05863443       0.31401529       0.03829016
O        6.92463033      18.65064441      10.14112277      -0.35742117      -0.77581898       0.36098133
H        7.40961183      19.22283832       9.50827641       0.06011350      -0.24892354      -0.05754445
H        6.42213389      17.89587945       9.94207069       0.15612288       0.16295406       0.32413352
O       -0.66590156     -13.85629353      13.24846549      -0.34460139      -1.30208994      -0.10180804
H       -1.45117145     -14.18252826      12.90850512      -0.27717887       0.00338921      -0.18177864
H       -0.00793733     -14.50380241      13.38599265       0.26637019       0.29591794      -0.07573175
O        1.10916328       5.98533319       1.11104180      -0.71099586      -1.61788434       0.15632838
H        1.91819607       5.26009353       1.13902059       0.26241497       0.04001663      -0.17989627
H        1.33636930       6.80341786       0.62268299       0.39425034       0.03653370       0.46282699
O        3.24438936       1.30530761       8.38798058       1.72749121      -0.33377537      -0.00663322
H        2.13113829       1.27742346       8.43065372      -0.08879345       0.03538522       0.14332171
H        3.67462936       1.29317996       9.23638485       0.34733902       0.17961794       0.25792995
O      -18.82216874      28.85218443     -16.20654085      -0.01552550       0.91649705      -1.19105048
H      -18.40397226      29.18254105     -17.02367567       0.24527834      -0.22347083       0.54718810
H      -18.07203280      28.70380837     -15.41688696       0.08928356       0.33418047       0.02485583
O        2.85886121      26.85711018      -9.07181705       0.73310366       0.21893218       0.13192446
H        3.78159383      26.88948399      -8.94984730      -1.36910531      -0.28306694      -0.65581627
H        2.07097804      26.46134608      -8.62391786       0.33457449       0.10898829       0.32310960
O      -18.15760263      18.94408262       1.94873066      -1.22461091      -0.68923975       0.27381339
H      -17.56963276      18.42925406       1.46241155      -0.71271175      -0.26709461       0.48691538
H      -19.13604850      18.86231338       1.88477252       0.54287570       0.23884711      -0.03313339
O       11.71557213      17.55906289       7.01185927      -0.06433200      -0.35230128      -0.38587791
H       12.65036658      17.70678423       6.78822698       0.12558375       0.38518436       0.01306690
H       11.26160488      18.17028627       6.43316464       0.18464922       0.00598359      -0.25174991
O       -7.24081178     -11.22799648       5.14469161      -0.10405190       0.35249337      -0.60159728
H       -6.71096595     -11.57918719       4.32547597       0.02441999      -0.41638122       0.12351729
H       -7.34276389     -12.03820574       5.62505800       0.18278389      -0.07950673      -0.25813960
O      -24.21049325       3.32925185      10.67813915      -0.95996831      -0.58114882      -0.36186439
H      -24.83913714       3.97377168      10.56436338       0.39039467      -0.23251806       0.07320054
H      -23.35168990       3.58745934      10.30688963      -0.64479748      -0.18289921       0.21004820
O      -11.42675461      -8.29836021      18.50222384       0.13968600      -0.88247684       0.83858662
H      -10.55523686      -8.70251585      18.74152619      -0.14582779       0.10614389      -0.53245284
H      -11.55508257      -7.90210672      17.58140115       0.07366110      -0.09805957      -0.01189196
O        8.50169472       7.35809935      16.85478136      -2.21540829       0.51007944      -0.60702757
H        9.37944533       7.18061052      17.01457754      -0.01652403      -0.08397419      -0.00470676
H        8.09780018       7.12848207      15.95807752       0.20062472       0.08477718      -0.29368365
O      -11.64409103      -0.48780316      20.46003825      -0.49619319      -0.33617229      -0.03545909
H      -12.32538362       0.07955967      20.78100128       0.05813925       0.31096817       0.18020011
H      -11.74561784      -0.74933124      19.54882310       0.09680343       0.02004878       0.53645593
O       24.07187436       2.54793505      16.19125415      -1.04519506       0.79197546      -0.37417555
H       24.13971336       2.23717306      17.16866252       0.06133001      -0.20419658      -0.10933448
H       24.23661238       1.66829551      15.72446909       0.15175233       0.40837471       0.44156725
O       -5.64257994     -17.88954131      -5.11391760      -0.25599775       0.48483991      -1.39522786
H       -4.70637894     -17.66648379      -5.37299824       0.31734798       0.42642682      -0.43537558
H       -6.28432862     -18.48502087      -5.61355847      -0.14771833       0.56109707       0.07517511
O       29.31911257      -8.91118494      -6.15766339      -2.20089628       0.76404059       0.06199518
H       30.17308106      -8.85734658      -6.43548247      -0.09388154      -0.02105187       0.08056237
H       29.14210932      -9.78477221      -5.67794691       0.35054211       0.31065663       0.05150708
O        8.80508656      -0.63543399       3.45103022       0.09520517       0.48311764       0.65573275
H        8.19482088       0.05076456       3.06779250      -0.19790046       0.07447906       0.29368901
H        8.34382556      -1.47725611       3.41958749      -0.05899165      -0.11231237      -0.23668287
O      -19.80743940      -3.09272917      24.73946545      -0.48174946       0.24601638       0.12289770
H      -19.97641841      -4.03592876      24.43003238      -0.00406626       0.56341932       0.25417798
H      -19.22993194      -3.02738169      25.60690605      -0.34976289       0.49246594      -0.29568612
O        2.49023197      -5.75652869      -6.01714927       1.04534012       0.40218148       0.23866326
H        2.46613206      -5.88116967      -5.10758805       0.27547848      -0.08468081       0.31405045
H        1.90357607      -6.49084067      -6.32860034      -0.11636156      -0.30141953      -0.46094692
O        9.88893125       8.24722343       8.00410670       0.24337633      -0.58232116       0.95206643
H       10.28820510       8.42420802       7.15531901       0.06382769       0.11422416      -0.01249710
H       10.04690360       7.33625230       8.26873761       0.20031134       0.14475100      -0.17445477
O        5.40459642       9.75141590      -4.88411323       1.06755922      -0.18800979      -0.99809246
H        6.01274912       9.07456301      -4.72663319      -0.45006636       0.21903324       0.00473269
H        4.68158189       9.63219936      -4.20720645      -0.28388837      -0.14888913      -0.06851547
O       13.72066483      29.36734001      15.84949780       0.01476216      -0.53123057      -0.07531581
H       12.75858209      29.24753744      15.82523087      -0.28017933      -0.05217499      -0.48277562
H       14.17997397      28.54267906      15.78284696      -0.32165278      -0.06451019      -0.01412380
O       -2.86350371       3.97703588       1.72093159      -0.93771605      -0.28693962       0.12961766
H       -2.18611447       3.34323565       2.23658782      -0.03047427       0.13213526      -0.27434660
H       -2.47435756       4.88253281       1.60089357       0.40143152      -0.05054227      -0.05179874
O        7.84470918     -14.01927592      10.90592426       0.34580347      -0.18754658      -0.84365009
H        6.72842606     -14.20556147      10.80062787      -0.39842058       0.21909460       0.05577871
H        7.94876693     -14.32661073      10.03466921       0.18939657       0.13269834      -0.15074750
O       -2.57143089      10.53380187      24.25830862      -1.35296817      -0.10477070       0.12294688
H       -1.96372002      10.39738973      23.57669949       0.36303041       0.26349309      -0.43321389
H       -3.20495222      11.17293218      24.18750664      -0.09868500      -0.15138880      -0.56294345
O       20.00316413      21.75494833       1.55139041      -0.86469892       0.64926178       0.30218425
H       19.75547607      22.36526676       2.26063420       0.06651296      -0.42627893      -0.57504966
H       19.53190946      20.96698861       1.63615756      -0.01470653       0.16391237       0.46141393
O       12.24548710      10.00181775     -15.88244546       1.04275340       0.67937802      -0.58295918
H       12.56008181       9.13877075     -15.72873032      -0.00129536      -0.53118077      -0.00282748
H       12.20614376      10.23849196     -16.80190341      -0.44042698      -0.26557772       0.71617962
O      -11.36478315      22.25367299       1.02606631      -0.01221223      -0.44898548      -0.54889669
H      -11.88541677      21.43809111       1.36799331       0.29690084       0.51762596       0.06533492
H      -10.92301408      22.48422025       1.85680892      -0.02628427      -0.23737274       0.30165857
O        2.88080298     -15.07088338      16.01415158      -1.01746500      -0.49323367      -1.51302057
H        3.14833737     -15.55630453      16.76651071      -0.01982804      -0.09450201       0.24814309
H        3.56735960     -14.40550685      15.89854647      -0.05694370       0.02638233      -0.21316572
O        2.35965411      16.26308378       0.43196293      -0.62038281      -0.43701009       1.21497552
H        1.73386729      16.37099587      -0.15417558      -0.01748267      -0.24379018       0.27697354
H        2.82931292      15.42817245       0.54108813      -0.50550695      -0.28437082      -0.34252369
O       -5.75310775      -7.40116898       5.61267946      -0.44418065      -1.08259633      -0.02580117
H       -5.46280025      -7.87959489       6.35312998      -0.30358684      -0.64383430       0.47286869
H       -5.15211713      -6.81710117       5.19190451      -0.24610446      -0.00210189      -0.01618149
O       -2.15266431       2.39968514       6.65645247       0.24497392      -1.11930262       0.41251174
H       -2.11182887       3.32191263       6.77692209       0.32633235       0.23040576       0.20512124
H       -1.69753785       1.96371080       7.38222211      -0.15090575       0.86346364      -0.57252346
O       13.20450522      -5.58980806      -1.44586069       0.78024969      -1.92324744       0.36586454
H       14.02956501      -5.43466862      -1.99840120      -0.11681336      -0.31851563       0.02831503
H       13.19564046      -6.55826131      -1.47515598       0.27225676       0.56648242      -0.19377275
O       11.81990877       4.87564994      22.71938218       0.33307188      -0.13544838       0.27867141
H       11.12611510       4.34265056      23.07280925      -0.19608806       0.13019969       0.03730810
H       12.05638043       4.84826836      21.75301019      -0.02122159       0.07570184      -0.23829342
O        8.06166621      14.47671729      23.90247720      -1.55625858      -0.41759478       1.21919640
H        8.95638753      14.61806793      23.61814900       0.16263509      -0.15049882      -0.07951063
H        8.04860801      13.40653638      23.93820775      -0.16403683       0.26043433      -0.17878866
O       -8.01205074       6.93095494      11.44054926       0.79808116      -0.50412980       0.22610665
H       -7.27071015       6.74626160      10.84529810      -0.09355922      -0.28030163       0.22828746
H       -8.42181776       6.37500713      12.15195820       0.33146349      -0.33660840       0.01285429
192
Lattice="12.739779757646128 0.0 0.0 -5.287732032332084e-07 12.739779757646128 0.0 -5.287732032332084e-07 -5.287732032332084e-07 12.739779757646128" Properties=species:S:1:pos:R:3:momenta:R:3 step=200 time_fs=20.0 phase=production pbc="T T T"
O       11.74762995       0.75284164     -16.47495913       1.90528581       0.50644070      -0.61075710
H       12.31184990       1.03304025     -15.73393056       0.08694827       0.02189511       0.29896269
H       11.07325874       0.11840499     -16.18470265       0.07009156       0.03894539       0.36112681
O       26.34872893      24.75112966       5.02333950      -0.42211372      -0.24401851       1.63890622
H       26.76824465      24.07311760       4.61366388       0.28323831      -0.06745163      -0.01482963
H       25.84790708      25.16289052       4.29236035       0.09689486       0.17503727       0.00202228
O        4.52595080      -0.37752117       6.53886194      -0.03659795      -1.03571163      -0.53426611
H        5.29734090      -0.95336845       6.73200518      -0.18706688       0.17143553      -0.29973878
H        4.40080529       0.14573654       7.31030033      -0.00738524       0.01258231      -0.13908391
O       -2.85128069      -4.29443991       1.08883341      -0.02342896       1.25432139       0.66248680
H       -2.40396985      -3.85872028       0.37961858       0.23525256      -0.12827772       0.07940541
H       -3.64270192      -3.90010354       1.24444621       0.07836948       0.15363584      -0.17847907
O        4.35897355      15.93001398      10.68729785       1.23638570       1.19062484      -0.31036310
H        4.63617421      16.83391674      11.10124873       0.16470408      -0.22801549      -0.11710236
H        4.80529461      15.86506554       9.81096506      -0.24131002       0.08510953      -0.10302761
O       -1.35594025       6.52742370       5.14382166       0.60308287      -0.98699355       0.64157868
H       -1.81052485       6.35198458       4.26644420       0.18263562      -0.15955544      -0.43685381
H       -0.54240543       6.98827057       5.00582058      -0.19019190      -0.09682276      -0.47668140
O       22.82713545      12.31022907       5.79161967       0.15803745      -0.08059487       0.45385964
H       22.93585317      13.17566584       6.03049941      -0.27229322       0.03861776      -0.15464804
H       21.96853604      12.25057051       5.52015213      -0.02245976      -0.07776026       0.21915528
O       -1.11737902     -15.67585113       6.75381535      -1.09178787       1.43293866      -0.72997556
H       -0.53365969     -16.05592956       6.10490967       0.04108392      -0.01516382       0.11174329
H       -1.65300736     -14.81534591       6.40682676      -0.01595340      -0.27450592      -0.01955062
O       15.47114319     -17.91227707       9.70416227      -0.56454249      -0.26154796       0.34410839
H       16.10030738     -18.27216389      10.23902329       0.15143512       0.26352803       0.10724637
H       15.71597993     -16.96879654       9.58763494       0.22380579       0.24676562       0.27116174
O        3.31976017     -14.67371734     -13.37170382       0.77033357      -0.32732637      -0.35273687
H        4.23493320     -14.82378626     -13.18225887      -0.38110539      -0.18931024      -0.03923320
H        2.73033742     -15.34120876     -13.02343500       0.27662754      -0.21187621      -0.20830875
O       -5.75048886       1.64628598       2.89678154      -0.04250211       0.10952017       1.02920344
H       -6.43824655       1.32703258       2.19376131      -0.12628116       0.23690655      -0.35199303
H       -5.52085532       2.48969085       2.49090592      -0.09417881       0.34943241      -0.28600248
O       -5.35697371      16.15915724      25.85184794      -0.73044031       1.44028646      -0.79057306
H       -5.47753261      15.98777866      24.94418492       0.18484019       0.23305280      -0.34412538
H       -4.47822113      16.19230333      26.37718665       0.67664297       0.14169952       0.38932345
O        7.54588692     -15.63370424      -8.35250647       1.28122262       1.26177696       1.35885789
H        7.93060385     -16.43579782      -8.17838277      -0.14258081      -0.14232984       0.08984686
H        6.59826184     -15.46877297      -7.92276491      -0.22995430      -0.26029922       0.30260418
O       13.63437606       8.57161049      17.98159660      -1.01431227       0.19751157       0.52569015
H       14.11413958       9.01045251      17.21307262       0.29875884       0.39247260      -0.22027073
H       14.19836222       8.10890412      18.62968916       0.19850066       0.13982338       0.29504199
O       -0.19178123       1.28514089      -1.17791630      -0.90378629       1.01847335       0.34477618
H        0.78943621       1.20420662      -1.13815203       0.46596449      -0.12643744       0.18272921
H       -0.33994857       0.33527606      -1.09862262      -0.02856046      -0.17746832      -0.20185524
O      -14.09797147      12.66796091      15.72010913       1.19693012       0.23209322      -1.02123522
H      -13.53514485      12.29269937      14.93484219       0.02544050      -0.25667941       0.25983128
H      -14.41125692      11.97876725      16.21026962       0.35948221      -0.11537593       0.11779483
O      -16.23297442       5.93838580      12.26188205       2.08554300       0.09178235      -1.15993678
H      -16.87686580       5.68143641      11.57739724       0.15229759      -0.32103638       0.28815038
H      -16.39758199       7.02293306      12.38884756      -0.15350459       0.42099619       0.31959158
O       -9.98531259      32.89179997      -9.61387722      -0.73817436       0.91308899      -0.44276170
H       -9.19042332      32.36397249      -9.43485149       0.11892267      -0.47723833       0.01527592
H      -10.64969267      32.34545789      -9.90038094       0.06406849      -0.59947128      -0.07978315
O       34.78643182      11.40746647      21.28793131       0.52713871      -0.75692598      -1.13906313
H       35.02248485      11.87660584      20.51684202       0.19948061      -0.24747811       0.35946006
H       35.70758407      11.09515116      21.55715619       0.47294638       0.08538383      -0.34016877
O       30.39151868     -12.56694803       2.11155103      -0.50200181       1.52996868      -0.31770625
H       29.61774234     -12.28615817       2.69652507       0.38599579      -0.36874052      -0.36988008
H       30.14307561     -12.51420873       1.18437495       0.04391509       0.14144480       0.36785177
O       17.56873989       9.21228756      -7.45855147      -0.24895485      -1.34887984      -0.37274310
H       17.06185702       8.28524793      -7.67988426       0.04034650       0.24917923       0.25612697
H       17.51939173       9.56275646      -6.54144832       0.19237144      -0.14846854      -0.07911346
O       -5.03797101       2.59008797      32.22313704       1.05125382      -0.01172851       0.76166820
H       -5.67175623       1.79301311      32.26456858       0.40940320       0.01557223       0.46617699
H       -4.26381863       2.19414000      32.54628279       0.24525619       0.08100867       0.13230644
O        3.91076160       0.88208507      -0.25196031       1.74812248       0.15616716      -0.31813717
H        3.29151711       0.21164786      -0.34453249       0.05213013       0.32499963      -0.31398500
H        4.35288946       1.26239773      -1.02977662      -0.18767556       0.14997087       0.23378750
O       23.18369444       3.22624211      11.71790676      -0.12734342       0.38233092       1.37597914
H       23.50435914       3.83331927      12.43154539      -0.13227363      -0.27604584      -0.46481725
H       23.61825659       2.41267487      11.47398041      -0.02192275      -0.09671551      -0.32163213
O       -1.40796320      31.83576080      15.12347121       0.18858861      -0.01133479       1.89027340
H       -1.87451974      32.46730914      14.55743309       0.44317648       0.32324613      -0.30109704
H       -0.46750167      31.62233494      14.74993471       0.08147290       0.02827843      -0.06171947
O        4.76239594      19.40088905       5.22346972      -0.58511208      -0.03944650       0.15517226
H        4.05660175      18.92284661       5.49823646      -0.26753976       0.06386228      -0.05458376
H        5.49485241      18.76210811       5.10496577      -0.05293975       0.08417068      -0.04770345
O      -10.21615860      10.52537590       9.52543375      -0.63003465       0.13457426       0.06743188
H      -10.97105584      10.81527990       9.19484528      -0.04347149      -0.12563053       0.55524335
H      -10.10581424      10.58075617      10.52731651       0.10992241       0.02357875       0.37969291
O       17.69483701      17.77989492      26.02637502      -0.10899271       0.31545773      -1.62397870
H       18.28844344      17.03423594      26.14271052       0.13378672      -0.24671288       0.03540717
H       16.82511432      17.37616287      26.10039362      -0.15013246       0.32567099       0.04643486
O        6.92257702      18.64549869      10.14268443      -0.13712277      -0.43136638       0.41251201
H        7.41039753      19.19152187       9.50504455      -0.02506477      -0.35551484      -0.00284840
H        6.43136138      17.89832127       9.96772809       0.03343600      -0.10015075       0.21330917
O       -0.66775990     -13.86253531      13.24704355      -0.30861430      -1.09890041      -0.04749750
H       -1.48945722     -14.18633725      12.88313401      -0.45725344      -0.09053999      -0.29685985
H        0.02619397     -14.48119145      13.37948496       0.41223907       0.15781488      -0.04438464
O        1.10544449       5.97467849       1.11179573      -0.47167452      -1.71244006       0.11919035
H        1.93141835       5.27403132       1.12006428       0.00956816       0.25274377      -0.20628785
H        1.37279069       6.80009031       0.67077451       0.35565695      -0.08630911       0.52029697
O        3.25388458       1.30305891       8.38723780       1.46595938      -0.36658882       0.01354410
H        2.13951807       1.28021896       8.44426669       0.26304842       0.02358293       0.14827807
H        3.70638524       1.31312471       9.26107752       0.28995446       0.23011149       0.22178160
O      -18.82029267      28.85553105     -16.21199270       0.12895787       0.86595681      -0.92818191
H      -18.37894114      29.15739879     -16.96829169       0.27199508      -0.22410798       0.50491158
H      -18.07150857      28.73506837     -15.42492175      -0.10612835       0.35114438      -0.21352895
O        2.86136076      26.85647412      -9.07055503       0.03361395       0.25441798       0.01785432
H        3.66966320      26.86124014      -9.00414351      -0.76973092      -0.25828979      -0.46160026
H        2.11234225      26.47114245      -8.59310859       0.48934983       0.11651289       0.31494644
O      -18.16458901      18.93935902       1.95101391      -1.42952826      -0.35551577       0.53613174
H      -17.62667611      18.38803117       1.49900483      -0.46493097      -0.57075089       0.25267411
H      -19.07862311      18.88172343       1.87873628       0.51264645       0.18317267      -0.09315936
O       11.71456572      17.55558298       7.00890285       0.03867252      -0.33290743      -0.41764516
H       12.66242095      17.73940881       6.79133105       0.12298843       0.30659492       0.06610444
H       11.27387004      18.17099406       6.40715356       0.08922014       0.02755162      -0.26445616
O       -7.24043492     -11.22497520       5.13966170       0.04459715       0.34460784      -0.90466028
H       -6.71173225     -11.61101994       4.34409147      -0.04685020      -0.24938110       0.24990881
H       -7.32853730     -12.05193470       5.60694599       0.09303196      -0.21920994      -0.09628203
O      -24.21410950       3.32432894      10.67557511      -0.86674190      -0.97646842      -0.17912183
H      -24.81570254       3.96770085      10.56827737       0.01889002       0.13499341       0.02401773
H      -23.40447962       3.57149421      10.32334930      -0.39331213      -0.12481827       0.11238877
O      -11.42489816      -8.30271116      18.50525073       0.14480277      -0.72446880       0.60137282
H      -10.57345901      -8.68844385      18.68527284      -0.20578127       0.15060663      -0.58298914
H      -11.54427176      -7.92232301      17.59042663       0.12799714      -0.32527763       0.21848573
O        8.48611011       7.36072920      16.84885568      -2.62115649       0.52572765      -0.89715970
H        9.38772805       7.16971892      17.01317906       0.17956875      -0.12502572       0.00056345
H        8.12493302       7.13808656      15.94257008       0.36314232       0.12138160      -0.00410428
O      -11.64602697      -0.48987875      20.45882266      -0.43452896      -0.32674277       0.18858201
H      -12.32379401       0.11156792      20.79696242      -0.02885254       0.33273651       0.17202956
H      -11.73748187      -0.74817827      19.59057922       0.04798174      -0.00779586       0.31462380
O       24.06380851       2.55188978      16.18833426      -0.99321207       0.60106902      -0.15509612
H       24.14187757       2.22390537      17.14747773       0.01838487      -0.05464289      -0.27772240
H       24.24850309       1.71384296      15.76698904       0.13917783       0.47604633       0.41146054
O       -5.64342794     -17.88524333      -5.12264177      -0.12623315       0.50336330      -1.55847101
H       -4.68918671     -17.62625082      -5.40955002       0.01269064       0.36403197      -0.31923451
H       -6.29011488     -18.42442886      -5.60444771       0.00088580       0.62637105       0.08026803
O       29.30195096      -8.90667389      -6.15597177      -2.62706153       0.53586484       0.30105636
H       30.17992728      -8.85795426      -6.43451073       0.26111871      -0.00198408      -0.06384354
H       29.17767435      -9.74098669      -5.67969585       0.40882376       0.51954524      -0.06536390
O        8.80446976      -0.63203685       3.45454648      -0.08488763       0.58754050       0.57725703
H        8.18161730       0.04988237       3.10176249      -0.06275535      -0.08990499       0.40511422
H        8.33781676      -1.48714739       3.39681960      -0.04289533      -0.07658010      -0.22377155
O      -19.80854056      -3.09123891      24.73893854      -0.36402553       0.22342803       0.32119187
H      -19.97436511      -3.97387405      24.45653398       0.00794940       0.64636262       0.31194901
H      -19.27094165      -2.98168302      25.56374670      -0.51222395       0.43552379      -0.53959952
O        2.49587370      -5.75420067      -6.01614898       0.84321319       0.19398925      -0.02066684
H        2.49575745      -5.88823778      -5.06313468       0.32754807      -0.07151567       0.52075382
H        1.89819291      -6.51286233      -6.37195591       0.02846698      -0.13749785      -0.41041593
O        9.88953304       8.24300396       8.00922123       0.19584360      -0.56050685       0.89233322
H       10.29549089       8.43659953       7.15607336       0.09672685       0.15241308       0.04697843
H       10.06740943       7.34984199       8.25212065       0.23954755       0.11475128      -0.14332359
O        5.40946102       9.75015094      -4.88946756       0.62112689       0.03583507      -0.86412143
H        5.98272399       9.08156536      -4.72479211      -0.13142710      -0.08527639       0.02910614
H        4.65995062       9.62050051      -4.22186827      -0.14717274      -0.06967939      -0.24530889
O       13.71918598      29.36233323      15.84786305      -0.18192825      -0.37200712      -0.06849453
H       12.73705642      29.24049438      15.77596336      -0.12139807      -0.04147117      -0.49980771
H       14.15013566      28.52940022      15.78086776      -0.26361919      -0.17152108      -0.00218401
O       -2.86825838       3.97504400       1.72186116      -0.67521111      -0.25634203       0.21512656
H       -2.19915018       3.36723215       2.20063834      -0.24090588       0.36118777      -0.45704179
H       -2.43889789       4.86566255       1.59970693       0.31681597      -0.29095828       0.02821062
O        7.84551642     -14.01914357      10.90061905       0.11497297      -0.12772976      -0.65067377
H        6.69427534     -14.18159400      10.80999088      -0.27294333       0.24681478       0.14237612
H        7.97427008     -14.31612744      10.00194433       0.32369375       0.07426648      -0.45785478
O       -2.57899897      10.53175064      24.25785253      -1.13370576      -0.30345918       0.26998794
H       -1.92313771      10.42108149      23.52759759       0.41283453       0.25035413      -0.47511322
H       -3.22538662      11.16766493      24.12817823      -0.31392688       0.04989166      -0.61769140
O       19.99654714      21.75765653       1.55288724      -0.78054035       0.71196065       0.16243049
H       19.76186755      22.33248119       2.21153079       0.07792032      -0.13179527      -0.35582843
H       19.52561351      20.96505150       1.67811675      -0.08394092      -0.18976347       0.39170005
O       12.25084338      10.00542562     -15.88392280       1.03686030       0.66395350      -0.20838199
H       12.56080539       9.08280001     -15.72792925       0.01388289      -0.53822023      -0.01421036
H       12.16273505      10.21087636     -16.74533128      -0.43829065      -0.27059562       0.34336267
O      -11.36431713      22.24863198       1.02313008      -0.08500551      -0.60308396      -0.38061415
H      -11.85166106      21.49296640       1.36685882       0.34697527       0.59928208      -0.07632032
H      -10.92270923      22.46216099       1.88428128       0.01408569      -0.17655725       0.25314779
O        2.87424426     -15.07253089      16.00333633      -1.02259229      -0.43552190      -1.57188720
H        3.14816428     -15.57010875      16.79510184       0.00865511      -0.17269035       0.31216989
H        3.56076155     -14.40052122      15.87469185      -0.08620249       0.03449716      -0.24209863
O        2.35701991      16.25904182       0.44077217      -0.19316109      -0.47068710       1.65133635
H        1.71113414      16.34736269      -0.14873007      -0.43929143      -0.21495055      -0.15348405
H        2.77894182      15.39974163       0.50666423      -0.51637848      -0.28098647      -0.35854032
O       -5.75611878      -7.40751775       5.61204872      -0.65435317      -1.20206306       0.01545390
H       -5.48855177      -7.94357407       6.40277170      -0.25653994      -0.63904162       0.49464847
H       -5.16720530      -6.81196210       5.18776307      -0.07687249       0.09276067      -0.05725437
O       -2.15136725       2.39232728       6.65793147       0.08954813      -1.12785577       0.18412061
H       -2.07936329       3.35482112       6.79580392       0.32802612       0.41130060       0.17650835
H       -1.70534029       2.04050120       7.33480414       0.03228712       0.66393144      -0.32237607
O       13.20893393      -5.60069835      -1.44377012       0.96983058      -1.69897861       0.29409141
H       14.01196805      -5.46071917      -1.99237461      -0.20000297      -0.21561356       0.07771052
H       13.21684669      -6.51337290      -1.49398560       0.18038105       0.27193420      -0.19644942
O       11.82162603       4.87462172      22.71868226       0.50658450      -0.08893307       0.05419417
H       11.10260374       4.35199443      23.07504826      -0.25628116       0.07844761       0.03888461
H       12.04859144       4.85513931      21.73956736      -0.12014929       0.07325226       0.00270673
O        8.05147623      14.47222989      23.90803717      -1.51897982      -0.69105471       1.16906878
H        8.97396704      14.60520801      23.61051308       0.17156342      -0.09243970      -0.02790988
H        8.02921902      13.44249378      23.91897099      -0.22439215       0.50292329      -0.17665201
O       -8.00687085       6.92722629      11.44142529       0.67788538      -0.53661261       0.35023923
H       -7.27941685       6.71677081      10.86868709      -0.08087965      -0.31601343       0.25674125
H       -8.38263698       6.34537005      12.14421062       0.45580655      -0.26172938      -0.14961012
