192
Lattice="12.749513626098633 0.0 0.0 -5.291772140481044e-07 12.749513626098633 0.0 -5.291772140481044e-07 -5.291772140481044e-07 12.749513626098633" Properties=species:S:1:pos:R:3:momenta:R:3 step=0 time_fs=0.0 phase=equilibration pbc="T T T"
O       11.58024883       0.72498864     -16.52445793       1.11768299       0.20408896       0.69008038
H       11.81181717       0.78436756     -15.53965855       0.36097603       0.29840838      -0.15413935
H       10.76372814       0.18189090     -16.44460487       0.15239367      -0.02783003      -0.01289933
O       26.36344719      24.79401588       4.85561371       0.24636511       0.03920975       0.99621760
H       26.70196342      23.84678841       4.58326721       0.12184479       0.01628950       0.07550418
H       25.49327087      24.94361305       4.49529648       0.05278673       0.23805757      -0.02937182
O        4.55044222      -0.28422797       6.68408966       0.18357736      -0.60336600      -1.58355279
H        4.83529854      -1.07390165       7.11166525       0.10448683       0.13631298      -0.11614725
H        4.04536915       0.15737888       7.41435432       0.36563978      -0.23838440       0.01117406
O       -2.84938097      -4.43740463       0.99063027      -0.13847139       0.93324112       1.00592910
H       -2.61852217      -3.73749900       0.44086069       0.02390609       0.05773556      -0.13967824
H       -3.60226274      -4.18081188       1.49332213      -0.32121079      -0.05959153       0.02904448
O        4.24721289      15.84552383      10.73478317       0.77406131       0.72053872      -0.18935610
H        4.32293320      16.65563965      11.23829556      -0.04998140      -0.17280874      -0.22568214
H        5.19970036      15.68020821      10.36292934      -0.27684983       0.31185556      -0.07857528
O       -1.38442278       6.65292120       5.13221407      -0.29998804      -0.86003830       0.56052247
H       -1.16714787       6.34425259       4.30304146      -0.26192329      -0.03774898      -0.14091939
H       -0.51785862       7.04266024       5.23280573       0.06138793      -0.08591356      -0.18699957
O       22.81806755      12.30516911       5.78538847      -0.03611034       0.22222706       0.10281672
H       23.17335701      13.23964310       5.97626257       0.04774470      -0.10587278      -0.05483579
H       22.49505615      12.44190884       4.78045988      -0.10979553      -0.06147261      -0.12761717
O       -0.99380004     -15.77508926       6.81807756      -1.12930256       0.06070057      -0.19866128
H       -0.45485213     -16.08402252       6.13538647      -0.26455731       0.07140934      -0.14283130
H       -1.49262893     -14.86474609       6.47252512       0.00726189       0.11444236       0.02462237
O       15.45499039     -17.88147926       9.66319847       0.71554873      -0.84846998       0.31901162
H       16.20885658     -18.30376244      10.29202080      -0.11179112      -0.14408501      -0.08975696
H       15.70476151     -16.92102242       9.71442318      -0.05147608       0.00570373      -0.18449776
O        3.25135970     -14.66133022     -13.33013248       0.56196096       0.24625949      -0.92899846
H        4.07719374     -15.24898148     -13.27065277       0.23935606       0.30298645       0.19426001
H        2.57298112     -14.89321613     -12.72210789      -0.03020624      -0.17639601       0.17416975
O       -5.74231339       1.54765272       2.85520196      -0.27752205       0.73345619       0.19407663
H       -6.46929693       1.30210924       2.21823668       0.15668401       0.05421351       0.11795573
H       -5.43554926       2.35845280       2.31344628       0.00056469       0.28520842       0.02428775
O       -5.38575363      16.01581192      25.98963737       0.24082278       1.15880104      -0.80765703
H       -5.29129553      15.31565762      25.36113358      -0.20643089       0.15327365      -0.18578622
H       -4.35831404      16.55647278      26.03186607       0.31293957      -0.07020916      -0.11700203
O        7.41874647     -15.71936703      -8.56404495       1.21997197       0.89959466       1.26227987
H        7.76011896     -16.59404373      -8.22976398       0.14527660      -0.14253835       0.31242910
H        6.70255852     -15.71397018      -8.01100159      -0.04443893       0.12629761       0.15684724
O       13.68023586       8.54409504      17.93683052      -0.11775878       0.34180640       0.65368701
H       14.04198074       8.80058670      17.02638245       0.05969494      -0.18102529       0.05197249
H       14.22989178       7.91326284      18.49035072       0.21319994      -0.11560795      -0.02039969
O       -0.15136531       1.17568886      -1.25246716      -0.29810774       1.13698550       0.49280032
H        0.81402797       1.41365457      -1.19074392       0.06471013      -0.12778354       0.09091769
H       -0.07980151       0.32297695      -0.61002493      -0.11009807       0.00177145      -0.09896707
O      -14.19501877      12.66273403      15.80837536       0.41750254       0.31767226      -0.07410255
H      -14.08447456      12.39100170      14.93772030       0.06285908      -0.18000092      -0.23719382
H      -15.12377834      12.22245789      16.00036049       0.06986971       0.02356085       0.10639523
O      -16.50709915       5.89053583      12.35020161       1.51623836       0.55450928      -0.52765617
H      -17.07337189       5.99335480      11.63549519       0.17936770      -0.21601080      -0.07080799
H      -15.87981319       6.77748966      12.58092308      -0.01215924       0.27348859      -0.11656573
O       -9.93085670      32.95535660      -9.56657028      -0.55000669      -0.11690284      -0.36713513
H       -9.34108829      32.25430298      -9.17445087       0.18092215      -0.17787923      -0.18164064
H      -10.60434055      32.31637573     -10.11273479      -0.07187977      -0.08384961       0.31557481
O       34.72598267      11.51679993      21.45279121       0.59324470       0.00284148      -0.72890836
H       34.76889801      11.55188560      20.38697433       0.13530940      -0.16499782      -0.24584112
H       35.17197418      10.55581474      21.38193321       0.19084284       0.04784298       0.15258235
O       30.39016914     -12.69961739       2.17083836       0.18722109       0.49808324      -0.35911841
H       29.79241180     -12.15017319       2.64960074      -0.16825629       0.10676742      -0.12604383
H       30.32688141     -12.61913013       1.28064585      -0.11255702      -0.07698201       0.00660438
O       17.59328842       9.34982014      -7.42393255      -0.24585931      -0.93867906      -0.35434986
H       17.75654030       8.24436951      -7.47171736      -0.36041383       0.09765966      -0.25509811
H       17.49332619       9.50084782      -6.49755478      -0.17959036       0.00505733      -0.11572678
O       -5.19974279       2.63030171      32.17810059       0.97538472      -0.88582886       0.23191499
H       -5.76909018       2.18207788      31.62262344      -0.00747976      -0.19212541       0.08833667
H       -4.51727343       1.96271300      32.26456833      -0.02885235       0.12134229       0.13685072
O        3.72383595       0.83603644      -0.23808952       1.37466686       0.80689973      -0.17767484
H        3.50995302      -0.10580844      -0.28170851      -0.03981352       0.17432296       0.10966459
H        4.04864979       1.22581255      -0.97762311       0.10230744      -0.26465753      -0.00015098
O       23.25961304       3.22112799      11.66518211      -0.49309219       0.12668637      -0.00319194
H       22.89178276       3.69758320      12.53435612       0.14594465       0.04788751       0.13084338
H       23.95712090       2.57524610      11.70460510      -0.07650112      -0.15598604      -0.06248042
O       -1.44264293      31.80788803      14.97783184      -0.02892466       0.19056619       1.51447818
H       -1.90867865      32.56244278      14.49384594      -0.00796039      -0.15784413      -0.05212762
H       -0.63238788      31.96923447      14.54845619      -0.07604493       0.07443097      -0.24519894
O        4.83401251      19.39249229       5.20213461       0.02275903       0.04723308       0.20946672
H        4.19375563      18.92559814       5.89170027      -0.09765288      -0.04181807      -0.22633545
H        5.66431284      18.99529266       5.20644188      -0.08084804      -0.09109358       0.07100982
O      -10.11733818      10.47273445       9.45824909      -0.76228711       0.44939303       1.02210441
H      -10.56179523      10.95322704       8.62468815      -0.33562285       0.06550747       0.11316211
H      -10.49601841      10.85548878      10.17052078      -0.10413607      -0.06756761      -0.01769240
O       17.70605659      17.76738930      26.21935463      -0.20967728      -0.25245609      -1.01897234
H       18.51691628      17.23879242      26.00022125       0.18507433       0.17108451      -0.12765240
H       16.93769073      17.24535561      26.08018112      -0.23809291       0.08082729      -0.08926222
O        6.93529034      18.72588730      10.12019539       0.07341833      -0.25909691       0.50518909
H        7.17553711      19.43673134       9.56392574       0.11113316      -0.12062204      -0.21975919
H        6.77701330      17.86063004       9.62658024      -0.25692053       0.09525970      -0.18832899
O       -0.61552304     -13.79612541      13.26192093      -0.34424236      -0.43741294       0.02615325
H       -1.32075751     -13.98700047      12.60902309      -0.31401730       0.02713283       0.08843595
H       -0.07504050     -14.52363777      13.75675488       0.01315619      -0.05360847       0.01951889
O        1.14059913       6.22465849       1.06936646       0.23892814      -1.83844376       1.31915943
H        1.58913505       5.20397615       1.11494458       0.06190353      -0.10879540      -0.05939462
H        0.86076492       6.21000004       0.19304278       0.07865219      -0.02213342      -0.32436032
O        3.08428288       1.33452666       8.34316635       1.31109867      -0.12468486       0.71675497
H        2.14491916       0.71188623       8.18653011      -0.11296100       0.24489254       0.05005045
H        3.21509027       1.66781306       9.25075817       0.09725164      -0.17227556       0.19949001
O      -18.86823654      28.79443550     -16.13371277       0.42611937       0.78457256      -0.34435151
H      -18.57898712      28.67098045     -17.17761993      -0.07886164       0.36892000      -0.16750906
H      -18.02880287      28.11259079     -15.81260872      -0.02310026       0.18033927       0.01957137
O        2.89657831      26.89320755      -9.10925674       0.35732283      -0.31067644       0.29822691
H        3.39167643      26.84923363      -8.50101948      -0.21225492       0.26456683      -0.01531434
H        2.37178278      26.07023048      -8.79159164      -0.11104265       0.10430939      -0.07066824
O      -18.04356575      19.06403160       1.91016555      -0.87692777      -0.92050290       0.50662754
H      -17.35203743      18.82579613       1.07529342      -0.02691764      -0.02497704       0.17793354
H      -18.82352066      18.41457176       1.64946640      -0.18321686      -0.12144299      -0.05841319
O       11.69502831      17.57333946       7.08430672       0.04277370      -0.08067057      -0.12469572
H       12.57938862      17.40537834       6.63619947      -0.01109028      -0.02071164      -0.11250165
H       11.44980621      18.34218216       6.52200270      -0.13250432       0.04098728      -0.14018391
O       -7.21591282     -11.17987347       5.19630289      -0.76304215      -0.25456721      -0.04150717
H       -6.55555296     -11.33497524       4.52568722       0.36353407      -0.11724526       0.15620229
H       -7.33566570     -12.14186478       5.44856691       0.11960685      -0.19549482       0.12873058
O      -24.11656189       3.45878673      10.69699860      -0.78011849      -1.76542662       0.45032720
H      -24.75385094       4.16675711      10.53126049      -0.28486803       0.06949485      -0.10675007
H      -23.20468330       3.72668266      10.25629997       0.26703637       0.16928937      -0.06948314
O      -11.42477703      -8.17853928      18.47018814      -0.46077907      -0.83511270      -0.22385967
H      -10.61190796      -8.51080894      18.81251335      -0.04643492      -0.06230325       0.02910183
H      -11.33889198      -8.48281574      17.61085892       0.09235182       0.05312892      -0.11969884
O        8.64130497       7.31222343      16.93864441      -0.94357958       0.82492790      -0.38385450
H        9.65557957       7.37318468      16.82402420      -0.10653675      -0.08759155      -0.29404345
H        8.34004402       6.79352379      16.19911957      -0.07836829      -0.08088011       0.10402419
O      -11.66915131      -0.47635421      20.40851212       0.43168092      -0.05109410       0.65989409
H      -12.51255322      -0.31226641      20.80952263       0.05380325      -0.00590616       0.02978444
H      -11.54479408      -0.51122749      19.37783432      -0.03193989      -0.06717618      -0.03948341
O       24.20710564       2.47224188      16.24833298      -0.74415130       0.12701927      -0.57935209
H       23.82329369       2.48642898      17.10057259       0.13486798      -0.04368233       0.01177784
H       23.88504791       1.49528539      15.90733051       0.07866754       0.10058171      -0.25001862
O       -5.65780354     -17.97080421      -4.97955227      -0.15116650       0.51311426      -1.03320103
H       -4.91104460     -17.61366272      -4.62017727       0.06144900      -0.36785083      -0.16144795
H       -5.84719610     -18.62328148      -5.61049509       0.00511033      -0.27108224      -0.15546971
O       29.51348114      -9.01765537      -6.13924885      -0.96549591       1.00750409       0.16572019
H       30.18786430      -9.07189655      -6.90846157       0.09053696      -0.03935436      -0.05333147
H       29.35758591      -9.90000534      -5.99594784      -0.26233961      -0.05053035      -0.11927034
O        8.81016541      -0.69567221       3.37943673       0.53434142       0.68108958       1.00413937
H        8.13959217      -0.08129326       2.97969079       0.13663266      -0.10010913      -0.17653895
H        8.18504810      -1.42161870       3.76989532       0.12275381       0.05420162      -0.28199990
O      -19.77704430      -3.17595220      24.77496529       0.21088243       0.47084467       0.09792943
H      -20.24594879      -3.93345857      24.23261070      -0.03103501      -0.13388076      -0.22996701
H      -19.22686005      -3.35188770      25.64948273       0.12818889      -0.05332217      -0.03394620
O        2.33822227      -5.82634640      -6.04426193       1.09751282       0.38714205       0.29872204
H        2.60435629      -5.58678818      -5.23193264       0.02182389       0.24224533       0.28164996
H        1.84410310      -6.58979034      -6.15263700       0.14906759       0.09071014      -0.33468899
O        9.83052444       8.29157162       7.94427252       0.06168154      -0.13728112       0.12047930
H       10.55507374       8.67099094       7.39429855       0.15125569      -0.44607910      -0.08821577
H       10.27916145       7.62031031       8.47927094       0.04248208      -0.07881009      -0.22517930
O        5.33315372       9.75194168      -4.79990673       0.54144840       0.12472113      -0.56517681
H        6.11570072       9.05035877      -4.75399590       0.04973959       0.12938873       0.00463515
H        4.79601765       9.65584373      -3.99316049       0.12823201       0.00927406      -0.06008552
O       13.78490734      29.46945572      15.87139988      -0.76437171      -0.10884166       0.18507536
H       12.97367859      29.05727959      16.07074165       0.14039463      -0.02197240       0.07769412
H       14.51437759      28.85084534      15.94469070      -0.15700458      -0.12983786      -0.01405801
O       -2.79554796       3.97514725       1.67142200      -0.69690935       0.47453222       0.35814578
H       -2.09789133       3.54244971       2.37876797       0.04396733       0.05139176       0.33036224
H       -2.66680431       4.90871143       1.82570362      -0.07689622      -0.35910506       0.03598501
O        7.81044340     -14.01097202      10.98301983      -0.05054459      -0.38668680      -0.57015015
H        6.86072922     -14.50368881      11.26676464      -0.07210106       0.02593057      -0.07747072
H        8.08376408     -13.91688442       9.99806213       0.38869865      -0.15858089      -0.12438068
O       -2.40225267      10.55052280      24.40655136      -1.49132057       0.10837733      -1.23811470
H       -2.11677766      10.18962383      23.63982582      -0.08830300      -0.04791794      -0.11090571
H       -3.26164699      10.98137951      24.01273727       0.27985406       0.15731305       0.21694048
O       20.08693123      21.72748566       1.53467739      -0.58604532       0.67303738       0.37930701
H       19.91960526      22.10029221       2.53567410       0.12352020       0.16297592      -0.14306801
H       19.85652733      20.72363663       1.67248571      -0.06969790       0.13601563      -0.42534410
O       12.13112259       9.99456882     -15.93627644       0.95627332       0.30257013       0.03057169
H       12.65966415       9.41337395     -15.31909752       0.03450003      -0.16980029      -0.05276778
H       12.34766197       9.94609737     -16.98574066       0.17666397       0.20637652       0.43946529
O      -11.40509129      22.31270409       1.06221199      -0.06555812      -0.47748072      -0.27105557
H      -11.54109001      21.21931839       1.16522169      -0.16563836      -0.01595270       0.06562600
H      -10.82580090      22.41965103       1.83509648      -0.00666526       0.17378764      -0.03406725
O        2.95212603     -15.01799583      16.16424561      -0.24164693      -0.42772701      -0.99105234
H        3.49181795     -15.75963783      16.56245232      -0.25446908      -0.19391332       0.21407889
H        3.56264305     -14.31895351      16.05730057       0.14353394       0.21880966      -0.21149344
O        2.46401834      16.36612701       0.35240024      -1.28531600      -0.47844854       0.17318229
H        2.10474420      16.02274513      -0.38129756       0.07945182       0.16597073       0.04971692
H        2.72625208      15.46308708       0.61630619       0.28046748      -0.03934314      -0.14376543
O       -5.64552689      -7.28079033       5.59652519      -1.10029130      -0.62581800       0.21586385
H       -5.41443539      -8.04312229       6.03960514      -0.14474116       0.14799702       0.23199927
H       -4.82533407      -6.73557901       5.23846245      -0.38403580       0.13625095      -0.35811983
O       -2.16926670       2.36249566       6.64598942       0.24050713       0.73501765       0.10174734
H       -1.92925835       3.32724380       7.01350307      -0.20791820      -0.09797246      -0.03849963
H       -1.87211776       1.97126448       7.38212776      -0.03058112      -0.03615837      -0.01397616
O       13.16375923      -5.43200397      -1.44062662       0.11946546      -0.83156953      -0.09581129
H       13.87253857      -5.19277859      -1.97007370       0.24420524      -0.06552730      -0.06793999
H       12.83011246      -6.28154516      -1.97071934       0.17309491      -0.41691315       0.19467999
O       11.83367157       4.88765526      22.73101616      -0.42477033       0.05201119       0.12200384
H       11.19543076       4.19066000      23.06752205       0.15116230      -0.04661297      -0.10578292
H       11.82980919       5.03477716      21.78167343       0.20858811      -0.38540116       0.00706572
O        8.21489334      14.51268387      23.75709343      -0.88572619      -0.54380255       1.35478868
H        9.03183746      14.96227264      24.07449341      -0.00833823       0.02814942      -0.28410452
H        8.11122799      13.52015972      24.14614296      -0.11893903       0.02838982       0.06110553
O       -8.10852909       7.02339840      11.40487957       0.37916792      -0.04796728       0.39926609
H       -7.33910561       6.59090185      11.03143883       0.07219503      -0.29904156       0.00975969
H       -8.30591202       6.27672958      11.91421318       0.12295406       0.09194716      -0.05501639
192
Lattice="12.749460527267486 0.0 0.0 -5.291750101450882e-07 12.749460527267486 0.0 -5.291750101450882e-07 -5.291750101450882e-07 12.749460527267486" Properties=species:S:1:pos:R:3:momenta:R:3 step=10 time_fs=1.0 phase=equilibration pbc="T T T"
O       11.58693466       0.72591550     -16.51949913       1.08631963       0.10604767       0.89041566
H       11.84790940       0.81454065     -15.56313970       0.38013031       0.31952314      -0.32031644
H       10.78240758       0.18064080     -16.44921453       0.22234458      -0.00380293      -0.07951499
O       26.36524938      24.79319907       4.86164403       0.37153819      -0.26856139       0.97472314
H       26.70810962      23.86450678       4.59456073       0.00482674       0.34699375       0.15549703
H       25.49919408      24.96575357       4.49199492       0.07422616       0.21628325      -0.03671351
O        4.55122340      -0.28747563       6.67431133       0.08354904      -0.46206422      -1.60534825
H        4.85071909      -1.06989954       7.10298870       0.21401468      -0.05735522      -0.05980725
H        4.08101741       0.13632563       7.41343608       0.35581372      -0.18245395      -0.01462356
O       -2.85004612      -4.43245410       0.99692728      -0.10342069       0.70699993       1.04894995
H       -2.61165083      -3.72170069       0.41806627       0.10360452       0.23913307      -0.30355135
H       -3.64215213      -4.18341163       1.50041955      -0.46183268      -0.00208650       0.08993963
O        4.25264674      15.84956647      10.73310843       0.98435094       0.59530058      -0.35220124
H        4.31839956      16.64307946      11.21902282      -0.04529250      -0.05200487      -0.14926866
H        5.16340402      15.71141314      10.35819570      -0.44731222       0.32133497      -0.02744661
O       -1.38656454       6.64786204       5.13649734      -0.37994473      -0.78446232       0.81367987
H       -1.19099309       6.33624496       4.27289181      -0.23980267      -0.11903112      -0.45400642
H       -0.50901877       7.03725401       5.21527179       0.11278463      -0.02500640      -0.16828061
O       22.81794506      12.30743969       5.78539828       0.02147423       0.51722631      -0.09335293
H       23.17271521      13.21745480       5.97081259      -0.05227256      -0.33356288      -0.05252169
H       22.48677541      12.43329851       4.78398005      -0.05926081      -0.11444676       0.19712922
O       -1.00149540     -15.77360008       6.81727317      -1.36741080       0.39579700      -0.06561845
H       -0.47164897     -16.08075192       6.11063500      -0.09049870      -0.00168002      -0.35136134
H       -1.48448478     -14.86434416       6.47805661       0.15681701      -0.10561937       0.08948128
O       15.45989954     -17.88622157       9.66576384       0.90287702      -0.73345414       0.53025838
H       16.18787917     -18.31252002      10.27472691      -0.31716707      -0.03541507      -0.26446927
H       15.69582438     -16.92870790       9.69421427      -0.12623975      -0.15472467      -0.22721454
O        3.25538515     -14.66015226     -13.33562701       0.73324294       0.10987926      -0.85409759
H        4.09357649     -15.21430305     -13.25395045       0.09614899       0.40520701       0.14452525
H        2.56897006     -14.91170858     -12.70434432      -0.02940142      -0.19498311       0.16795348
O       -5.74404579       1.55275420       2.85558469      -0.27700304       0.93809454      -0.04924540
H       -6.45283229       1.30375125       2.23535492       0.16349722      -0.02554579       0.21730119
H       -5.43691233       2.37721129       2.32336341      -0.02924824       0.09946075       0.17911765
O       -5.38383679      16.02346166      25.98492850       0.37962855       1.34794757      -0.69754793
H       -5.30770749      15.32870558      25.33752321      -0.13132504       0.12283611      -0.29052049
H       -4.33965878      16.53993801      26.02124667       0.06763494      -0.26761873      -0.09832157
O        7.42732247     -15.71439806      -8.55668541       1.55205652       0.68689812       1.15399592
H        7.77577985     -16.60250180      -8.20442931       0.17700276      -0.02434367       0.20146422
H        6.67905326     -15.69797283      -7.98342509      -0.40582124       0.20339058       0.38033503
O       13.67991325       8.54608647      17.94025257       0.02721111       0.31216000       0.50015051
H       14.04316706       8.77786023      17.04792896      -0.02916818      -0.27895280       0.37585406
H       14.24415139       7.91117498      18.48069932       0.07895204       0.07374637      -0.17492242
O       -0.15242048       1.18221908      -1.24885293      -0.05330963       0.98675999       0.68331358
H        0.81055889       1.40036332      -1.18460272      -0.12755933      -0.14118278       0.03491359
H       -0.09531921       0.32720021      -0.62474153      -0.20887749       0.08718583      -0.20401751
O      -14.19327638      12.66421674      15.80864517       0.14294562       0.16788307       0.12492191
H      -14.07225734      12.37000702      14.89893032       0.17639460      -0.23222863      -0.49769591
H      -15.10245561      12.23138376      16.00870191       0.36368920       0.15985929       0.06413834
O      -16.49616860       5.89421678      12.34798035       2.00230558       0.65708225      -0.19753624
H      -17.06735823       5.98063285      11.61519602      -0.04111630      -0.04845541      -0.32472456
H      -15.89478698       6.79397891      12.56423565      -0.29429043       0.06517846      -0.22405531
O       -9.93435557      32.95340631      -9.56892818      -0.60364008      -0.48088288      -0.41437310
H       -9.32948524      32.24493732      -9.19626415       0.05759708      -0.00824940      -0.26568323
H      -10.60266435      32.31510949     -10.07686710       0.10519897       0.06509302       0.41760342
O       34.73008534      11.51578423      21.44725971       0.79445264      -0.32306437      -1.03775571
H       34.77978632      11.53926064      20.37392498       0.09110876      -0.09265518      -0.02600864
H       35.18268586      10.57400444      21.39950408       0.02941617       0.32991650       0.20840045
O       30.39173711     -12.69656176       2.16984801       0.34869411       0.49584935       0.02528980
H       29.77016961     -12.13687674       2.64177094      -0.27150201       0.15336690      -0.04882502
H       30.31441100     -12.62549304       1.25868281      -0.14104447      -0.05564099      -0.42725288
O       17.59183759       9.34338352      -7.42653023      -0.20412253      -1.14452892      -0.49612309
H       17.71960659       8.26584597      -7.49668780      -0.39524807       0.34238557      -0.25751788
H       17.47617528       9.50381697      -6.50091905      -0.16948922       0.05557383       0.04030942
O       -5.19324034       2.62548938      32.18015955       1.09935632      -0.68431935       0.45755978
H       -5.78472411       2.15509673      31.61843799      -0.28767351      -0.34145768      -0.14571761
H       -4.51446136       1.97367028      32.28139883       0.09885155       0.09413151       0.21427472
O        3.73179983       0.84052185      -0.23795251       1.23055790       0.67095123       0.21154682
H        3.50534994      -0.09079275      -0.27406213      -0.05742709       0.12359321       0.04833864
H        4.06609477       1.20893249      -0.99771502       0.25258417      -0.08638939      -0.40233766
O       23.25591578       3.22243690      11.66566282      -0.66920011       0.29526501       0.17669126
H       22.91612097       3.69240296      12.53582471       0.35191902      -0.15316103      -0.09974141
H       23.94876457       2.55939899      11.70198143      -0.10062616      -0.16164416       0.00924868
O       -1.44357919      31.80934530      14.98698712      -0.24908841       0.32452747       1.47998322
H       -1.90727784      32.54041963      14.49397916       0.03251007      -0.28346310       0.05156079
H       -0.62691841      31.97590864      14.52062351       0.16345465       0.06105180      -0.31225373
O        4.83278930      19.39233728       5.20399944      -0.40496053      -0.07372557       0.40235430
H        4.19343866      18.92939951       5.85949520       0.09077540       0.12114113      -0.43088815
H        5.66560125      18.98187747       5.21349830       0.09870100      -0.17830210       0.07383707
O      -10.12168947      10.47513687       9.46256497      -0.67933541       0.35567487       0.41484165
H      -10.59203511      10.95467372       8.64367696      -0.28389385      -0.03415687       0.27596557
H      -10.51513665      10.85824267      10.18933337      -0.27941341       0.11559481       0.38708628
O       17.70542828      17.76574030      26.21277801       0.01001026      -0.27161331      -1.09161404
H       18.52829878      17.25784985      25.99125907       0.04311545       0.21953418      -0.05363449
H       16.90975213      17.24964394      26.07211597      -0.30858202       0.02080027      -0.07123770
O        6.93538953      18.72340981      10.12347919      -0.02681167      -0.50487530       0.56303649
H        7.18838762      19.42762762       9.53649402       0.14753034      -0.07943149      -0.32834391
H        6.75470952      17.87671237       9.61260308      -0.19982940       0.23326035      -0.09632371
O       -0.61745722     -13.79892417      13.26222335      -0.28939812      -0.49275341       0.08921807
H       -1.34441318     -13.98722607      12.62391362      -0.16924512      -0.03297279       0.21882560
H       -0.08123138     -14.52195023      13.74812286      -0.14033886       0.08672908      -0.19427763
O        1.14240685       6.21285473       1.07828082       0.32889434      -1.99664430       1.51977369
H        1.59304425       5.19903503       1.10930243       0.01739603       0.00832166      -0.05923364
H        0.86460754       6.21001620       0.14888019       0.02324185       0.02170746      -0.51365919
O        3.09163583       1.33338661       8.34777007       1.09237467      -0.24390256       0.79332638
H        2.14612372       0.74514253       8.19543454       0.13415755       0.43255738       0.13236822
H        3.22322063       1.64572226       9.26101376       0.07078147      -0.27802126       0.01348930
O      -18.86461068      28.79859286     -16.13666886       0.72663812       0.61194577      -0.63941506
H      -18.59056474      28.70734766     -17.17680003      -0.15977272       0.37832824       0.18042554
H      -18.04155138      28.13863799     -15.81239370      -0.23808935       0.35413657      -0.01365397
O        2.89501462      26.88976431      -9.11015482      -0.79063605      -0.72960868      -0.58900615
H        3.40801403      26.86552364      -8.45193330       0.52744116       0.09521364       0.98969314
H        2.38250810      26.10971522      -8.80430146       0.28035991       0.64454674      -0.17678558
O      -18.04905275      19.05755902       1.91252907      -0.93246483      -1.15882663       0.26483795
H      -17.36640820      18.82657949       1.10117423      -0.26660758       0.04184428       0.35127328
H      -18.82952748      18.41340587       1.64716135       0.05465191       0.09691562       0.01188946
O       11.69576596      17.57306427       7.08294345       0.20651236       0.01985670      -0.31472238
H       12.57286293      17.40182581       6.63179493      -0.11843267      -0.04953365       0.02181921
H       11.43426953      18.34267336       6.51306900      -0.18143208      -0.03817434      -0.03557992
O       -7.22041915     -11.18190476       5.19610097      -0.69706094      -0.43725425      -0.03284116
H       -6.51813496     -11.34388770       4.53572988       0.38293048      -0.06192641       0.06563260
H       -7.32638375     -12.15339562       5.46229754       0.07198154      -0.03397237       0.15090271
O      -24.12055548       3.44845930      10.69936827      -0.57456436      -1.57363807       0.33189430
H      -24.77709140       4.17013034      10.51983216      -0.17448599      -0.01985556      -0.12224115
H      -23.19480058       3.73895140      10.25625764      -0.06468112       0.08273729       0.06864783
O      -11.42794895      -8.18315938      18.46954642      -0.56858053      -0.69757992       0.01779350
H      -10.60646577      -8.51862722      18.82290766       0.14111325      -0.09389091       0.17937356
H      -11.33258041      -8.48156931      17.57904635       0.03522163      -0.01744713      -0.49963505
O        8.63638867       7.31740541      16.93634617      -0.65485947       0.86938898      -0.34679467
H        9.63125907       7.36335923      16.80025455      -0.38209763      -0.11087221      -0.19024177
H        8.32939015       6.78294718      16.20486550      -0.14134522      -0.13349328       0.01749305
O      -11.66574625      -0.47674295      20.41181819       0.65488576      -0.07636663       0.44643388
H      -12.51384429      -0.31144682      20.81227651      -0.07615572       0.02249539       0.02657780
H      -11.55412030      -0.51886766      19.38433401      -0.15967158      -0.08854075       0.17531267
O       24.20250620       2.47268945      16.24416489      -0.72549593       0.02692399      -0.73529222
H       23.83161632       2.48440286      17.11323014       0.04290346      -0.00083364       0.23180931
H       23.89382521       1.51107718      15.88098142       0.09962180       0.21617437      -0.29152709
O       -5.65995554     -17.96744153      -4.98575742      -0.56159639       0.52839868      -1.02910775
H       -4.88607885     -17.64452615      -4.63345586       0.44682631      -0.27073767      -0.11153777
H       -5.84445076     -18.65458871      -5.63169762       0.05868826      -0.34011388      -0.24620933
O       29.50825050      -9.01044246      -6.13929640      -0.70804314       1.28327496      -0.17945222
H       30.18858177      -9.07159366      -6.90116233      -0.07426385       0.04252657       0.20216100
H       29.32521913      -9.92295518      -6.00038752      -0.38888123      -0.37247078       0.01620053
O        8.81227659      -0.69175459       3.38556453       0.18284552       0.58972944       0.99550472
H        8.15800879      -0.09264331       2.96533394       0.23184981      -0.12037939      -0.12490102
H        8.20367768      -1.41116077       3.73966358       0.25496771       0.15094579      -0.33123940
O      -19.77574643      -3.17378199      24.77560369       0.18790960       0.23336421       0.14503107
H      -20.23639764      -3.93221958      24.22649011       0.22376839       0.15555237       0.10415753
H      -19.22563436      -3.35662837      25.62972849      -0.10538565      -0.04390222      -0.36937837
O        2.34548974      -5.82329089      -6.04342197       1.27870458       0.59707267       0.01206820
H        2.61018350      -5.55914357      -5.18556130       0.07277879       0.29986980       0.61281981
H        1.84829753      -6.59799395      -6.18673338      -0.04450078      -0.23254560      -0.35367692
O        9.83118566       8.29070776       7.94484612       0.16032901      -0.13146581       0.07518213
H       10.56434502       8.62751546       7.38747475       0.04641265      -0.43631378      -0.05724113
H       10.28072273       7.61113100       8.45840338      -0.00742771      -0.11775487      -0.19409148
O        5.33690643       9.75206953      -4.80321809       0.69664232      -0.06805123      -0.53310395
H        6.11107260       9.07016117      -4.75426549      -0.14199862       0.27623963      -0.01173599
H        4.81075462       9.65693736      -4.00335965       0.16382660       0.01317043      -0.13473084
O       13.78080665      29.46909645      15.87237076      -0.54956550       0.03174793       0.15012832
H       12.97890192      29.05001522      16.07909911      -0.03580256      -0.12308632       0.09475445
H       14.49989123      28.83737215      15.94297669      -0.13370453      -0.14537219      -0.02103076
O       -2.79952778       3.97722386       1.67380636      -0.61110928       0.16802474       0.41301596
H       -2.10087158       3.54797081       2.40380408      -0.10394153       0.05732827       0.18297597
H       -2.67112793       4.88351723       1.83133543      -0.00839870      -0.11396312       0.08476552
O        7.80981750     -14.01338028      10.97882266      -0.14212315      -0.42023557      -0.77607484
H        6.86735153     -14.49600405      11.25239783       0.21079636       0.13095331      -0.21724704
H        8.11275629     -13.93685596      10.00438318       0.20423637      -0.25011585       0.25027520
O       -2.41256942      10.55216704      24.39956127      -1.83845307       0.41741468      -1.02937552
H       -2.11204234      10.17150814      23.60974162       0.17035329      -0.30672881      -0.46971842
H       -3.22933300      10.99355941      24.04198012       0.36260124       0.10244016       0.37528387
O       20.08275867      21.73080899       1.53804257      -0.74230171       0.45436575       0.71606456
H       19.93441644      22.11000801       2.50533312       0.18128820       0.03833037      -0.47933697
H       19.85351103      20.75350324       1.62870934       0.00569211       0.46319971      -0.46829854
O       12.13736421       9.99611115     -15.93608444       1.08882941       0.21780147       0.00427238
H       12.65824819       9.40319475     -15.33579694      -0.05775873      -0.04309268      -0.28269045
H       12.36354105       9.96523707     -16.93135008       0.14795974       0.18614085       0.67137155
O      -11.40535369      22.30906591       1.06074025      -0.03660163      -0.67902162      -0.20669712
H      -11.55766817      21.22810647       1.16820445      -0.17377768       0.20154090      -0.00377336
H      -10.82757161      22.43921353       1.83054214      -0.03121761       0.22800090      -0.05948993
O        2.95058284     -15.02121045      16.15832501      -0.22934738      -0.61022432      -0.91955094
H        3.46358049     -15.77199481      16.58120056      -0.32406357      -0.05356400       0.16780026
H        3.58087084     -14.29375221      16.03692682       0.20260433       0.25810266      -0.19902753
O        2.45691093      16.36333400       0.35491431      -1.03053287      -0.41111763       0.63868392
H        2.10155955      16.03015467      -0.39691723      -0.14283053      -0.00553032      -0.36706216
H        2.75081640      15.46663858       0.60087631       0.22670906       0.10803817      -0.16695959
O       -5.65198915      -7.28320553       5.59676463      -1.01547906      -0.18779756      -0.12106111
H       -5.42032935      -8.04125800       6.07184007       0.01959385      -0.09421818       0.42138396
H       -4.87259749      -6.73106295       5.20990628      -0.57946312      -0.04415726      -0.22583409
O       -2.16817710       2.36859985       6.64557081       0.12454161       1.23745612      -0.19429084
H       -1.95276073       3.30693954       7.00246680      -0.27206998      -0.31151464      -0.18614425
H       -1.86551133       1.95068471       7.40363993       0.15252897      -0.36927489       0.42289509
O       13.16340912      -5.43839669      -1.44125556      -0.15991128      -1.23723795      -0.14477013
H       13.91263626      -5.19149254      -1.98637075       0.52119264       0.06616170      -0.22750816
H       12.84831156      -6.31124564      -1.94220610       0.20470732      -0.19011038       0.38487449
O       11.83100104       4.88771351      22.73199810      -0.41971458      -0.01831933       0.22975566
H       11.21529763       4.19273473      23.05263824       0.24649146       0.07850770      -0.19029349
H       11.84778878       4.99505141      21.78186196       0.16307820      -0.42625290      -0.01003663
O        8.20954695      14.50866985      23.76585088      -0.85990885      -0.75343447       1.52402805
H        9.02482604      14.95946792      24.04497829      -0.12177738      -0.07786613      -0.31302197
H        8.10270503      13.53918007      24.14473221      -0.05353266       0.36903860      -0.08892373
O       -8.10594188       7.02378719      11.40688718       0.47333970       0.16718176       0.25955971
H       -7.32712238       6.56108777      11.02878096       0.15008569      -0.29758717      -0.05248698
H       -8.29867828       6.27364606      11.91964956       0.02586196      -0.15139230       0.16613905
192
Lattice="12.749289620806742 0.0 0.0 -5.291679165564689e-07 12.749289620806742 0.0 -5.291679165564689e-07 -5.291679165564689e-07 12.749289620806742" Properties=species:S:1:pos:R:3:momenta:R:3 step=20 time_fs=2.0 phase=equilibration pbc="T T T"
O       11.59352436       0.72638353     -16.51345830       1.12111845       0.05853100       0.98021668
H       11.88601509       0.84658642     -15.59898328       0.40923303       0.33950737      -0.39866090
H       10.80438757       0.17957181     -16.45914059       0.21742692      -0.02720548      -0.12560162
O       26.36746355      24.79046668       4.86755337       0.45256623      -0.47502397       0.98324732
H       26.70293938      23.91105967       4.61262644      -0.09095251       0.57687270       0.20551243
H       25.50735156      24.98491313       4.48820766       0.09845133       0.18254557      -0.03960045
O        4.55151512      -0.29010177       6.66418633       0.04405107      -0.41939800      -1.66184122
H        4.87627157      -1.08326419       7.09892927       0.30355985      -0.19703136      -0.03267242
H        4.11295670       0.12365796       7.41390778       0.29475741      -0.07119176       0.03553222
O       -2.85081928      -4.42815040       1.00343177      -0.17270207       0.71592753       1.06386701
H       -2.60163075      -3.69766832       0.38799476       0.08385273       0.21638256      -0.27980812
H       -3.68496386      -4.18255637       1.50562662      -0.38546031       0.01244007      -0.00447499
O        4.25883813      15.85242760      10.73031176       1.00941677       0.40934283      -0.49448128
H        4.31351291      16.64905581      11.21136584      -0.05625507       0.18454198      -0.00171539
H        5.11923025      15.74073939      10.35428522      -0.41249363       0.27610109      -0.07074692
O       -1.38873262       6.64304345       5.14155542      -0.30170515      -0.77048556       0.79774069
H       -1.21686276       6.32333146       4.22235983      -0.30731501      -0.12770949      -0.52832571
H       -0.49794957       7.03730222       5.20083525       0.10100412       0.02431080      -0.12235123
O       22.81777210      12.31092822       5.78405172       0.00316617       0.63000964      -0.32923940
H       23.16538441      13.18015068       5.96760395      -0.07245951      -0.38544258       0.00141925
H       22.48272808      12.41890708       4.81816159      -0.02108242      -0.18139253       0.50003140
O       -1.01034583     -15.77009806       6.81684463      -1.49855162       0.66298181      -0.07811491
H       -0.47611415     -16.08234272       6.07176763      -0.02426121      -0.02362650      -0.41211026
H       -1.46258600     -14.88481309       6.49006051       0.29034529      -0.31880367       0.16118735
O       15.46569304     -17.89040263       9.66948271       1.03047051      -0.72552006       0.70855257
H       16.14811912     -18.31091298      10.24128284      -0.47551057       0.05282342      -0.40441513
H       15.68118926     -16.94688706       9.67023700      -0.16164088      -0.19491101      -0.26148817
O        3.26010412     -14.65976228     -13.34017457       0.80182626      -0.04469756      -0.67554441
H        4.09632934     -15.17041814     -13.24250587      -0.02950731       0.48472007       0.08673310
H        2.56995270     -14.92966377     -12.69192913       0.05713259      -0.17315634       0.07517985
O       -5.74538108       1.55921600       2.85479482      -0.16664529       1.17469686      -0.17306107
H       -6.44106757       1.29591769       2.25705228       0.05767774      -0.14118866       0.21181357
H       -5.44110065       2.37815757       2.34803262      -0.05693729      -0.07358143       0.32391722
O       -5.38104857      16.03189300      25.98047832       0.49604548       1.44801238      -0.65324691
H       -5.31705491      15.34132326      25.30602800      -0.06382122       0.15258690      -0.33597994
H       -4.34342579      16.50520942      26.01232207      -0.13096839      -0.43087093      -0.07724566
O        7.43702772     -15.71069269      -8.54921403       1.58356206       0.45266320       1.28651335
H        7.79447231     -16.59771868      -8.19083525       0.20593296       0.12235138       0.07423259
H        6.63355375     -15.67428166      -7.94507293      -0.46568569       0.27262706       0.35794236
O       13.68012911       8.54769913      17.94302483       0.07356520       0.24494787       0.52608583
H       14.03861765       8.74815228      17.09216499      -0.03907180      -0.31202149       0.47733557
H       14.24570889       7.92637742      18.45719895      -0.03372370       0.22706228      -0.28832637
O       -0.15223444       1.18768921      -1.24406186       0.08544729       0.79128625       0.86951926
H        0.79267108       1.38724776      -1.18382782      -0.21212753      -0.12030662      -0.01810623
H       -0.12056033       0.34057582      -0.65001630      -0.30876074       0.19044837      -0.31571712
O      -14.19277021      12.66443188      15.80888610      -0.00468465      -0.04102533      -0.02665301
H      -14.05186186      12.34891938      14.85197593       0.23043101      -0.18544789      -0.41980777
H      -15.05483318      12.25243249      16.01255252       0.57939553       0.26094883       0.02451218
O      -16.48267794       5.89859602      12.34711017       2.27578369       0.80561213      -0.07649893
H      -17.07480984       5.98244640      11.57948901      -0.07768601       0.07870067      -0.35890933
H      -15.93608527       6.78980823      12.53721222      -0.55230185      -0.15183329      -0.32608928
O       -9.93813673      32.94888248      -9.57151488      -0.67228881      -0.83527557      -0.46929046
H       -9.32815882      32.25154366      -9.22506045      -0.01966046       0.14381203      -0.31955105
H      -10.58437144      32.32905090     -10.03192451       0.25556443       0.22595535       0.49336473
O       34.73514160      11.51263777      21.43972286       0.99534803      -0.63082475      -1.32177977
H       34.78596368      11.53363132      20.38098989       0.04461854      -0.02040001       0.17773080
H       35.17716762      10.61953938      21.42180230      -0.12262145       0.58589971       0.25198920
O       30.39366711     -12.69307243       2.17063179       0.39049193       0.60533175       0.18085615
H       29.74259575     -12.12299276       2.63650778      -0.26539271       0.11075148      -0.07775172
H       30.29907334     -12.62992378       1.20839115      -0.16405586      -0.03897327      -0.53085942
O       17.59046003       9.33558040      -7.42971094      -0.16867500      -1.35962619      -0.55208389
H       17.67914635       8.31134411      -7.52152193      -0.43122788       0.59751884      -0.25229512
H       17.46053146       9.51080519      -6.49262638      -0.14301973       0.08478983       0.10643784
O       -5.18662552       2.62158801      32.18274751       0.99665798      -0.60997205       0.48777687
H       -5.81832634       2.12063037      31.60027217      -0.35975281      -0.33399138      -0.17643564
H       -4.49702684       1.98056362      32.30599984       0.25247229       0.05250431       0.29730013
O        3.73906160       0.84451186      -0.23587911       1.17564996       0.65479547       0.41133221
H        3.49859953      -0.08250890      -0.27213696      -0.07782718       0.04867294      -0.00826136
H        4.09525146       1.20581147      -1.04949553       0.32443437      -0.00420010      -0.60412153
O       23.25110538       3.22458928      11.66714301      -0.78642302       0.40901645       0.34809065
H       22.95878092       3.66809931      12.51507914       0.51976021      -0.33780440      -0.31242122
H       23.93589420       2.54487106      11.70612706      -0.16060162      -0.13213100       0.07858798
O       -1.44520302      31.81123501      14.99563063      -0.24288383       0.41830929       1.39468718
H       -1.90387819      32.50922771      14.50197065       0.02420792      -0.32875774       0.10360776
H       -0.60657751      31.97935511      14.49063768       0.22180162       0.01131607      -0.28068179
O        4.82928912      19.39126123       5.20684547      -0.66472270      -0.18061286       0.52044400
H        4.20955207      18.94752689       5.80995461       0.21516178       0.23685414      -0.55629724
H        5.67999197      18.96195566       5.22062231       0.17509891      -0.21280451       0.07269912
O      -10.12578168      10.47715765       9.46368367      -0.73151403       0.37769522       0.05044695
H      -10.61653578      10.94642136       8.67838048      -0.21915321      -0.13300588       0.44080817
H      -10.54609638      10.87369281      10.23758956      -0.32745252       0.17374752       0.54484403
O       17.70555890      17.76365346      26.20545229       0.08005979      -0.33175955      -1.18192303
H       18.52494893      17.28034857      25.98914540      -0.09925362       0.23889645       0.01499842
H       16.88182337      17.25138765      26.06641493      -0.24086509       0.02936840      -0.03593793
O        6.93492752      18.71965662      10.12674651      -0.08429711      -0.60691627       0.53329418
H        7.20276365      19.41771816       9.50297106       0.14208321      -0.13301270      -0.34093523
H        6.73774627      17.90435975       9.60733882      -0.14927426       0.32621580      -0.01421546
O       -0.61909488     -13.80187408      13.26278933      -0.25090970      -0.51628837       0.15197414
H       -1.35431966     -13.99335944      12.65060504      -0.04278511      -0.09856208       0.32358127
H       -0.10176077     -14.50723213      13.71968294      -0.27203924       0.20064245      -0.37447886
O        1.14437132       6.20001550       1.08720357       0.30376958      -2.16490537       1.34249693
H        1.59203626       5.20619590       1.10289143      -0.04180376       0.14790925      -0.07340707
H        0.86929680       6.21387610       0.10582832       0.08665473       0.05836756      -0.32176117
O        3.09766511       1.33147901       8.35260925       0.88080945      -0.37923438       0.79618827
H        2.17022622       0.79498104       8.21176076       0.36036516       0.58543737       0.20199921
H        3.22933462       1.61506381       9.25584590       0.05983131      -0.33976473      -0.09312825
O      -18.85897642      28.80144865     -16.14127348       1.03211403       0.43994154      -0.92569007
H      -18.61020368      28.74431514     -17.14295950      -0.25123783       0.39039119       0.50078808
H      -18.07469306      28.18068498     -15.81396399      -0.45017310       0.51732289      -0.01763773
O        2.88881971      26.88486774      -9.11524481      -1.02869712      -0.66455549      -0.96627267
H        3.48118899      26.87294185      -8.33028266       0.86851286       0.08363057       1.34070947
H        2.40852015      26.17333586      -8.82109697       0.17538446       0.56868351      -0.14795490
O      -18.05463003      19.04951369       1.91335114      -0.95304246      -1.37140266       0.01047989
H      -17.40278418      18.83357786       1.14358085      -0.47569437       0.10750644       0.51726451
H      -18.81394315      18.43236879       1.65205218       0.24498823       0.28865983       0.09069447
O       11.69722433      17.57327714       7.08034385       0.30382115       0.12238440      -0.49151289
H       12.55792815      17.39541790       6.63952089      -0.16807236      -0.07887158       0.13022353
H       11.41461661      18.33385581       6.51541526      -0.21892770      -0.13494012       0.08307502
O       -7.22415609     -11.18518528       5.19562958      -0.53790248      -0.68736833      -0.11039545
H       -6.48470093     -11.34596897       4.54125104       0.28453141       0.01897378       0.06034160
H       -7.32153575     -12.14693485       5.47734234       0.02458362       0.16577650       0.15704615
O      -24.12331939       3.43955634      10.70081875      -0.43114134      -1.30654951       0.18059474
H      -24.78543537       4.16078638      10.50787805      -0.00277420      -0.17220420      -0.11864539
H      -23.21696942       3.74253916      10.26951333      -0.39922023      -0.01014536       0.20723207
O      -11.43119095      -8.18726649      18.46966346      -0.50298299      -0.70412258       0.06205606
H      -10.58929884      -8.52731126      18.84458181       0.17554689      -0.07582085       0.25129885
H      -11.33206646      -8.48290267      17.52348248      -0.02876543       0.00628272      -0.57033628
O        8.63283122       7.32267611      16.93399550      -0.50818573       0.86834029      -0.35318912
H        9.58514205       7.35208319      16.78663463      -0.52284758      -0.11452979      -0.08811688
H        8.31239578       6.76848261      16.20358627      -0.20328773      -0.15307931      -0.02862750
O      -11.66108081      -0.47726311      20.41372511       0.79478675      -0.09114131       0.27885440
H      -12.52486152      -0.30816581      20.81339910      -0.13742033       0.04233116      -0.00426501
H      -11.57539673      -0.52818507      19.41124202      -0.27718391      -0.10138843       0.37372943
O       24.19768376       2.47255652      16.23940355      -0.74934344      -0.06672930      -0.71372813
H       23.83310191       2.48565541      17.13957049       0.00775041       0.02567158       0.27551105
H       23.90369270       1.53709826      15.85019048       0.11377607       0.33280058      -0.32925146
O       -5.66434774     -17.96418927      -4.99231459      -0.84716373       0.45161579      -1.12769727
H       -4.82901646     -17.66846259      -4.64385279       0.67339723      -0.24415933      -0.12274273
H       -5.83449099     -18.68400771      -5.65314726       0.14721515      -0.25061315      -0.17753340
O       29.50404870      -9.00249182      -6.14115115      -0.55939047       1.20578511      -0.42760277
H       30.17316611      -9.06422551      -6.86970776      -0.22497977       0.10186767       0.42916528
H       29.28440850      -9.95987861      -5.99542127      -0.42313236      -0.32291764       0.07086828
O        8.81261535      -0.68840048       3.39157848       0.00614947       0.51003211       0.97432049
H        8.18202368      -0.10181595       2.95352008       0.24791033      -0.05194798      -0.12668538
H        8.23210365      -1.39568533       3.70739206       0.30913549       0.13842061      -0.31493805
O      -19.77439796      -3.17292032      24.77625390       0.15681940       0.05578829       0.15873022
H      -20.20339684      -3.90511148      24.25052724       0.43256195       0.37913407       0.37547234
H      -19.24536171      -3.36064882      25.57970400      -0.28145172      -0.04420099      -0.61486991
O        2.35379620      -5.81914698      -6.04337942       1.41954317       0.69811754       0.01835950
H        2.61370504      -5.53327158      -5.12498959      -0.01692677       0.21005716       0.57495872
H        1.84116877      -6.62624683      -6.21861897      -0.06892702      -0.29881439      -0.28929313
O        9.83221480       8.28979448       7.94507688       0.20873302      -0.13438640       0.04016373
H       10.56569836       8.58759140       7.38169966      -0.00506785      -0.37215880      -0.06626218
H       10.27782516       7.59608640       8.44236085      -0.04899855      -0.19087081      -0.13049582
O        5.34167486       9.75101020      -4.80655664       0.87463926      -0.21944171      -0.59141645
H        6.08952965       9.10288480      -4.75648151      -0.27860115       0.38321718      -0.03629829
H        4.82521503       9.65802638      -4.01588933       0.11918123       0.01090204      -0.10469282
O       13.77783570      29.46923783      15.87294799      -0.37408609       0.12784107       0.10722575
H       12.96753734      29.03389841      16.08819439      -0.18303778      -0.19195308       0.08984106
H       14.48841069      28.82210659      15.93994655      -0.10079879      -0.15708723      -0.03950441
O       -2.80302643       3.97696106       1.67645265      -0.53699110      -0.22278749       0.46261209
H       -2.11825345       3.55332962       2.41368954      -0.25466160       0.05682949       0.01563633
H       -2.66831998       4.88951450       1.84235491       0.06217454       0.22387679       0.13827691
O        7.80849395     -14.01595958      10.97350128      -0.26837038      -0.48923372      -0.87757847
H        6.90246252     -14.47753777      11.22404859       0.51716019       0.24751096      -0.36237820
H        8.12374974     -13.96462923      10.04353640       0.03204964      -0.31834108       0.52362925
O       -2.42410538      10.55494768      24.39304021      -1.86144415       0.47982637      -1.03391300
H       -2.08796426      10.13487341      23.55832682       0.29416467      -0.40693543      -0.51277882
H       -3.19729191      11.00430554      24.08239747       0.25624897       0.14118727       0.44236749
O       20.07759019      21.73308163       1.54326760      -0.83371658       0.42643618       0.95295273
H       19.95408185      22.10843963       2.44453407       0.22126300      -0.04651013      -0.72863111
H       19.85559808      20.80621034       1.58223083       0.02858471       0.56148275      -0.48070272
O       12.14410292       9.99720139     -15.93587313       1.13230865       0.19868249       0.02331261
H       12.65014556       9.40265796     -15.37110930      -0.08954224       0.01646038      -0.42389668
H       12.37676073       9.98198155     -16.85857238       0.13663895       0.15992600       0.76812188
O      -11.40536723      22.30390160       1.05964465      -0.02109304      -0.91723202      -0.14737599
H      -11.57441239      21.25944399       1.16440867      -0.17096081       0.45798228      -0.07492233
H      -10.83157286      22.46358512       1.82372353      -0.05215429       0.27871903      -0.07730579
O        2.94953291     -15.02489185      16.15261464      -0.08620957      -0.63108850      -0.87562101
H        3.42899774     -15.76899147      16.59426115      -0.38082469       0.11070479       0.10421305
H        3.59741208     -14.27498096      16.01928831       0.12077836       0.09936507      -0.15408868
O        2.45111963      16.36075866       0.35985711      -0.87352422      -0.36473038       0.91767804
H        2.07887213      16.02491207      -0.44846538      -0.30202242      -0.06878733      -0.64548688
H        2.77190547      15.48086343       0.58596125       0.21744479       0.16826302      -0.12458401
O       -5.65793322      -7.28343856       5.59525379      -0.95241081       0.02389307      -0.30643839
H       -5.41233879      -8.05495830       6.11757213       0.12989307      -0.14535448       0.48885797
H       -4.93564144      -6.74310318       5.19392526      -0.69438007      -0.19292093      -0.10819830
O       -2.16745667       2.37707715       6.64415539       0.12205325       1.45838473      -0.17566420
H       -1.98119854       3.27051320       6.97839081      -0.30306111      -0.39633571      -0.29205874
H       -1.84673259       1.90532443       7.45336970       0.20431814      -0.51959891       0.52853776
O       13.16229056      -5.44689294      -1.44285897      -0.10118213      -1.54429064      -0.41327485
H       13.96130763      -5.18501177      -2.00617176       0.43089871       0.04474800      -0.14774420
H       12.87081874      -6.31683318      -1.89609617       0.26561805       0.08399293       0.56023632
O       11.82847820       4.88751784      22.73338048      -0.33256642      -0.00418659       0.30851709
H       11.24004806       4.20247810      23.03217518       0.24269897       0.09850058      -0.20889100
H       11.86186284       4.95232401      21.77797996       0.13221076      -0.44525804      -0.06816433
O        8.20394510      14.50312974      23.77525201      -0.94990611      -0.96645939       1.61963132
H        9.01173463      14.94887501      24.01466000      -0.11974665      -0.12118405      -0.29395084
H        8.10081806      13.59138951      24.12894705       0.01414396       0.67506112      -0.21432348
O       -8.10238721       7.02491467      11.40786746       0.65591911       0.18225287       0.12191654
H       -7.31363813       6.53585179      11.02253221       0.10943955      -0.20408933      -0.06837835
H       -8.30017597       6.25080009      11.94450390      -0.05310976      -0.28093307       0.32832774
192
Lattice="12.749000601405308 0.0 0.0 -5.291559206101024e-07 12.749000601405308 0.0 -5.291559206101024e-07 -5.291559206101024e-07 12.749000601405308" Properties=species:S:1:pos:R:3:momenta:R:3 step=30 time_fs=3.0 phase=equilibration pbc="T T T"
O       11.60034361       0.72668498     -16.50720255       1.18511033       0.04789410       0.90903400
H       11.92827353       0.88103112     -15.63571073       0.46895584       0.36959462      -0.33955274
H       10.82226093       0.17393046     -16.47255908       0.14876976      -0.09241585      -0.15459991
O       26.36962646      24.78716093       4.87374012       0.42497721      -0.35786331       1.08555987
H       26.69395270      23.96502501       4.63125969      -0.05193321       0.47859599       0.16097637
H       25.51690329      25.00064528       4.48412770       0.10551812       0.15557855      -0.04228682
O        4.55173499      -0.29293152       6.65379511       0.06914065      -0.52779192      -1.65614692
H        4.90765140      -1.10348477       7.09377606       0.33105406      -0.19297920      -0.08333303
H        4.13797606       0.12271649       7.42067081       0.22324930       0.04862069       0.10278305
O       -2.85213521      -4.42315484       1.00984093      -0.27924418       0.89550076       1.02550320
H       -2.59753752      -3.68447960       0.36814750      -0.00751891       0.03762888      -0.11379001
H       -3.71310102      -4.18161903       1.49709436      -0.18246435       0.00275251      -0.17491529
O        4.26447477      15.85421960      10.72694821       0.83759755       0.31947951      -0.49352810
H        4.30688984      16.67641267      11.21702617      -0.07929059       0.35886395       0.10771500
H        5.09010748      15.76356604      10.34053122      -0.15886508       0.19718257      -0.21925515
O       -1.38993367       6.63803162       5.14554701      -0.08583824      -0.81743696       0.51625307
H       -1.25270592       6.31363790       4.17803521      -0.43133067      -0.06150798      -0.35608364
H       -0.49173836       7.04083319       5.19168886       0.01543404       0.04629766      -0.06252007
O       22.81700095      12.31422275       5.78121044      -0.08604318       0.49917584      -0.52192006
H       23.16134211      13.14978935       5.97327806       0.01522253      -0.19897651       0.12725679
H       22.48035985      12.39705543       4.87728796      -0.03269850      -0.26007675       0.66912607
O       -1.01962649     -15.76506693       6.81573693      -1.51037727       0.83148615      -0.24460951
H       -0.47980738     -16.08300975       6.03527026      -0.06205910       0.00701553      -0.31647046
H       -1.42859344     -14.92510502       6.50954578       0.39358184      -0.49217715       0.23744657
O       15.47150887     -17.89455777       9.67372297       0.92022484      -0.74790829       0.69520550
H       16.10199299     -18.30620318      10.20159389      -0.40554236      -0.00319823      -0.35646686
H       15.66498182     -16.96051114       9.64298770      -0.15982862      -0.06772765      -0.29344600
O        3.26491508     -14.66009809     -13.34340806       0.77597349      -0.16525012      -0.47999925
H        4.09070236     -15.12104421     -13.23639104      -0.06544257       0.51215243       0.03429777
H        2.58022327     -14.94432902     -12.68985002       0.15143805      -0.13328002      -0.03768958
O       -5.74581705       1.56698622       2.85362239      -0.02593088       1.34051737      -0.16622210
H       -6.44357898       1.27543804       2.27444617      -0.11453851      -0.27882324       0.14245765
H       -5.44704095       2.36563730       2.38450901      -0.05937331      -0.15501646       0.40823244
O       -5.37764285      16.04044915      25.97580054       0.57169409       1.44639709      -0.69034305
H       -5.32030691      15.35990766      25.27350230      -0.00738769       0.24292189      -0.30982189
H       -4.36253467      16.45702455      26.00531320      -0.25734718      -0.54461295      -0.05444427
O        7.44610076     -15.70824843      -8.54028497       1.42025492       0.23241788       1.56147193
H        7.81445411     -16.57688160      -8.18971416       0.20060101       0.30145022      -0.05331799
H        6.59541398     -15.64585175      -7.91852468      -0.30041703       0.29530279       0.17738306
O       13.67989533       8.54880946      17.94654924      -0.08538749       0.19233938       0.77844664
H       14.03917156       8.72013037      17.12810348       0.07372763      -0.24338878       0.21354447
H       14.24021122       7.95086379      18.42836200      -0.04922316       0.24916743      -0.26353294
O       -0.15174826       1.19184740      -1.23821387       0.04112372       0.57993815       1.01235680
H        0.77488794       1.37811590      -1.18774083      -0.12475036      -0.06168794      -0.06074746
H       -0.15513668       0.36394669      -0.68573208      -0.39772502       0.27745796      -0.40806668
O      -14.19217415      12.66348993      15.80736976       0.15687050      -0.14243223      -0.37099051
H      -14.02759485      12.33412857      14.81996510       0.25945861      -0.11311830      -0.22666862
H      -14.99932791      12.27682141      16.01555661       0.48600494       0.21410507       0.06468707
O      -16.46807291       5.90397107      12.34617770       2.33026579       0.97975034      -0.15770944
H      -17.07639613       5.99425145      11.55131633       0.05080561       0.15965231      -0.19746766
H      -16.00030054       6.76417539      12.50052406      -0.75692544      -0.35720744      -0.41724055
O       -9.94210701      32.94239094      -9.57421963      -0.66913437      -0.97838826      -0.46281967
H       -9.32997813      32.26914132      -9.25640922      -0.00442056       0.21389889      -0.31826133
H      -10.55768396      32.35403856      -9.98386854       0.24459943       0.26423280       0.46044938
O       34.74072248      11.50830648      21.43024270       1.03956197      -0.61643392      -1.60965329
H       34.78714464      11.53445332      20.40898446      -0.00411530       0.03885476       0.41317085
H       35.16285420      10.67705811      21.44713592      -0.11625476       0.52311695       0.27530517
O       30.39520359     -12.68847607       2.17135815       0.32033979       0.80875572       0.03570443
H       29.72067819     -12.11756663       2.62369614      -0.15836382      -0.01433545      -0.19230563
H       30.28142154     -12.63239298       1.16647506      -0.18308757      -0.01553971      -0.29357983
O       17.58911153       9.32652156      -7.43281783      -0.14353691      -1.47365470      -0.49839686
H       17.63499673       8.37921216      -7.54560919      -0.46363679       0.74628235      -0.25083776
H       17.44823398       9.51898511      -6.48347775      -0.10034177       0.08446393       0.06631307
O       -5.18107429       2.61748660      32.18463312       0.76956719      -0.73457721       0.34847181
H       -5.84585562       2.09491868      31.59075210      -0.16972275      -0.17741751       0.02747692
H       -4.46846560       1.98603176      32.33691670       0.30506627       0.07671349       0.34247355
O        3.74641077       0.84870006      -0.23350708       1.26645951       0.71989438       0.31740826
H        3.49087842      -0.08001049      -0.27549350      -0.07363840       0.01203966      -0.05993339
H        4.12468902       1.20285168      -1.10411871       0.26223737      -0.07711168      -0.46749718
O       23.24558857       3.22711157      11.66913536      -0.81965947       0.40608676       0.32717017
H       23.01326364       3.63015790      12.48080009       0.58336929      -0.40340517      -0.32311884
H       23.91661101       2.53356064      11.71659672      -0.21998876      -0.10328595       0.13795976
O       -1.44607098      31.81314526      15.00357150      -0.02430957       0.42198533       1.30844196
H       -1.90535010      32.47921603      14.51082185      -0.07034624      -0.25182404       0.07031002
H       -0.58806545      31.97588039      14.46810713       0.14539934      -0.07114030      -0.16644558
O        4.82521677      19.38969364       5.20972576      -0.56000791      -0.15915476       0.41433758
H        4.22721941      18.96914122       5.75868326       0.10148093       0.18227006      -0.44952409
H        5.69538919      18.94218268       5.22711749       0.12472435      -0.17193035       0.06086384
O      -10.13067897      10.47971925       9.46351467      -0.95531640       0.54762401       0.00706090
H      -10.63397437      10.92827601       8.72938693      -0.14585226      -0.23079379       0.60240342
H      -10.57305319      10.88641864      10.28470856      -0.21235507       0.07575357       0.39451815
O       17.70539998      17.76110703      26.19732992      -0.03227340      -0.35303601      -1.26718664
H       18.51129954      17.30160705      25.99246068      -0.14915538       0.19123673       0.05955910
H       16.86446676      17.25587704      26.06452948      -0.10189350       0.07336112       0.01031469
O        6.93422153      18.71563897      10.12959936      -0.08463515      -0.53472035       0.47272678
H        7.21479634      19.39955245       9.47191724       0.10524843      -0.23188245      -0.28442840
H        6.72446877      17.93600248       9.60777270      -0.12668742       0.30700545       0.01549270
O       -0.62060249     -13.80448604      13.26353665      -0.25584998      -0.39980071       0.17772516
H       -1.35530256     -14.00637965      12.68411823       0.00247421      -0.17787757       0.35383741
H       -0.13079786     -14.48653151      13.67822598      -0.29496817       0.18164940      -0.44272997
O        1.14608433       6.18590559       1.09447380       0.27014859      -2.40104745       1.03309858
H        1.58371157       5.23007144       1.09498437      -0.13507409       0.35987279      -0.08665698
H        0.88217020       6.22115199       0.08970293       0.17471823       0.09464524      -0.01252744
O        3.10222060       1.32856207       8.35691078       0.62472315      -0.56437487       0.64133084
H        2.21677340       0.85853758       8.23379515       0.58869889       0.71060292       0.24716039
H        3.23588596       1.58167909       9.24803379       0.08422658      -0.33344433      -0.03238419
O      -18.85134773      28.80298990     -16.14715464       1.26789953       0.30170630      -1.06073276
H      -18.63828391      28.78269999     -17.08452676      -0.32112589       0.41105904       0.62453561
H      -18.12770993      28.23745340     -15.81396077      -0.61275366       0.63391185       0.02644557
O        2.88410156      26.88135124      -9.12014848      -0.43612330      -0.22677574      -0.69877369
H        3.55894758      26.88272690      -8.21767213       0.73265130       0.13292531       0.95480657
H        2.40535944      26.20619371      -8.82953653      -0.29585267       0.05527155      -0.01259412
O      -18.06002192      19.04028158       1.91283912      -0.94103012      -1.45532344      -0.10669473
H      -17.45360705      18.84619892       1.19818921      -0.52643275       0.14815003       0.55522696
H      -18.78651968      18.46547479       1.66454264       0.26736094       0.36949962       0.15905296
O       11.69885394      17.57384859       7.07684354       0.29550965       0.18346283      -0.57640912
H       12.54365654      17.38516650       6.65471865      -0.09691787      -0.12786621       0.17185531
H       11.39073530      18.31719207       6.52766214      -0.27031669      -0.18652717       0.16016424
O       -7.22669487     -11.18990596       5.19442802      -0.34326515      -0.91705594      -0.25257658
H       -6.46445423     -11.33980514       4.54802238       0.12308864       0.09995773       0.07889346
H       -7.32151659     -12.12182167       5.49273393      -0.03010446       0.32812020       0.16406729
O      -24.12494872       3.43223788      10.70115867      -0.28590404      -1.06960098       0.01589942
H      -24.77857978       4.13782232      10.49631489       0.11141687      -0.28147082      -0.11502882
H      -23.27102150       3.73663876      10.29593973      -0.69623632      -0.10526974       0.32935679
O      -11.43338126      -8.19176033      18.46933415      -0.27697632      -0.83185563      -0.04303846
H      -10.57746482      -8.53137650      18.86730805       0.04056815      -0.00550231       0.20661246
H      -11.33766617      -8.47771869      17.47716089      -0.08990735       0.10154482      -0.34044288
O        8.62917198       7.32765400      16.93132302      -0.67844811       0.79511001      -0.39692915
H        9.53890108       7.34150416      16.78119254      -0.36736990      -0.09624291      -0.02403060
H        8.29006513       6.75467837      16.20104146      -0.24695778      -0.11722095      -0.00322440
O      -11.65579500      -0.47778384      20.41478923       0.82306958      -0.07739311       0.25150002
H      -12.53732137      -0.30367250      20.80970812      -0.11186178       0.04761161      -0.06469508
H      -11.60692583      -0.53854073      19.45292229      -0.37012311      -0.11256253       0.45991900
O       24.19229059       2.47157583      16.23501038      -0.83929716      -0.24770267      -0.59696253
H       23.83500612       2.48941648      17.15958699       0.05349561       0.05397257       0.11896769
H       23.91705779       1.58134196      15.81934659       0.18098310       0.59919712      -0.27779757
O       -5.66947599     -17.96120704      -4.99929466      -0.81180822       0.38815319      -1.17183170
H       -4.76540783     -17.69475921      -4.66116544       0.57887851      -0.31513811      -0.25139309
H       -5.81539701     -18.70063484      -5.66394661       0.24088663      -0.09159209      -0.03906192
O       29.49985318      -8.99575747      -6.14387951      -0.63810392       0.90877817      -0.45718954
H       30.14849262      -9.05206284      -6.82293273      -0.22507909       0.14087815       0.48160949
H       29.24392797      -9.97765726      -5.98784767      -0.38854675      -0.02968737       0.07874571
O        8.81251612      -0.68526403       3.39733618       0.05852751       0.52590483       0.92046771
H        8.20363890      -0.10050433       2.93907850       0.19242254       0.08432782      -0.17204798
H        8.25890147      -1.39006960       3.68106658       0.22271235      -0.05108639      -0.21167123
O      -19.77326479      -3.17242909      24.77638337       0.05714636       0.15579578       0.04919680
H      -20.15656620      -3.86556246      24.29208891       0.47584516       0.36581235       0.43361607
H      -19.27253948      -3.36677601      25.51987457      -0.23667163      -0.09370830      -0.52894335
O        2.36261646      -5.81480354      -6.04270939       1.45573539       0.65551061       0.16314267
H        2.60539837      -5.52000336      -5.07904031      -0.15378544       0.05475594       0.35118170
H        1.83927788      -6.64883624      -6.24111612       0.04660584      -0.14194242      -0.16860645
O        9.83331044       8.28867290       7.94514700       0.21710444      -0.17881037       0.04997367
H       10.56475184       8.55585658       7.37319097      -0.00289533      -0.27176531      -0.10878066
H       10.27048793       7.57416469       8.43250688      -0.10003520      -0.24884951      -0.07131475
O        5.34718500       9.74934209      -4.81045076       0.92268866      -0.21723045      -0.71801050
H        6.06314434       9.13955075      -4.76116839      -0.21538934       0.33889668      -0.06071583
H        4.83154628       9.65871309      -4.02088888       0.00675110       0.00852001       0.00706295
O       13.77545997      29.46936231      15.87314065      -0.32186735       0.10801984       0.07665072
H       12.94554019      29.01321159      16.09481190      -0.24237904      -0.20811897       0.04807870
H       14.47864356      28.80650551      15.93432524      -0.09985120      -0.14495190      -0.06914086
O       -2.80591491       3.97477718       1.67957799      -0.41203537      -0.41059899       0.58540270
H       -2.15056530       3.55996534       2.40617732      -0.41039744       0.08609279      -0.16962809
H       -2.66005149       4.91971256       1.85686245       0.09833448       0.34683942       0.15090746
O        7.80615729     -14.01888440      10.96819544      -0.41449561      -0.54823924      -0.72009357
H        6.96615320     -14.44788049      11.18200680       0.74887781       0.33360573      -0.48186040
H        8.12200111     -13.99733522      10.09636808      -0.03832610      -0.35449416       0.49964361
O       -2.43466216      10.55713009      24.38560656      -1.56236883       0.28287905      -1.21424660
H       -2.05938440      10.09748901      23.51830751       0.27568565      -0.33894480      -0.27815274
H       -3.18492862      11.02380807      24.12432391      -0.02060246       0.27366627       0.41764707
O       20.07209937      21.73567738       1.54886340      -0.78361178       0.59383512       0.80288154
H       19.97485565      22.10668540       2.37703614       0.20371276       0.06288412      -0.56975318
H       19.85547333      20.84925353       1.53494084      -0.03480246       0.27680094      -0.49380698
O       12.15040258       9.99844752     -15.93468053       0.97293365       0.30333129       0.29024465
H       12.64395884       9.40149324     -15.41221363      -0.01148543      -0.06284446      -0.39461755
H       12.39273803       9.99643920     -16.79502918       0.21376768       0.14582818       0.45438034
O      -11.40524942      22.29688937       1.05885759      -0.02652188      -1.19224725      -0.10651674
H      -11.59022789      21.31804795       1.15338654      -0.16016927       0.74281609      -0.14961887
H      -10.83687650      22.49282646       1.81609773      -0.05878552       0.33197422      -0.07399296
O        2.94942714     -15.02817418      16.14689765       0.06205203      -0.52930124      -0.87841283
H        3.39058075     -15.75138693      16.60175825      -0.39517515       0.22545519       0.06807605
H        3.60262426     -14.27604280      16.00677747      -0.01363300      -0.12852942      -0.09469698
O        2.44568831      16.35807384       0.36532534      -0.90760090      -0.40326025       0.80249046
H        2.04782962      16.02259072      -0.51076619      -0.30916271       0.05676624      -0.57553384
H        2.79490142      15.49569909       0.57920051       0.26334833       0.13077454      -0.00227396
O       -5.66370241      -7.28337209       5.59333929      -1.00186737      -0.11720693      -0.22919863
H       -5.39707680      -8.06236330       6.16177695       0.17123907       0.01397452       0.40169455
H       -5.00160399      -6.76421155       5.18569033      -0.61760658      -0.20943671      -0.08321382
O       -2.16647550       2.38544385       6.64356755       0.18016971       1.21345788       0.03119171
H       -2.00971306       3.24000017       6.94880639      -0.27287781      -0.16802748      -0.29300727
H       -1.82927585       1.85502419       7.49722349       0.14627319      -0.49943979       0.35882925
O       13.16198937      -5.45690373      -1.44626807       0.11890180      -1.70326803      -0.67736003
H       13.99209853      -5.18434413      -2.01285374       0.20641818      -0.03477415       0.00882922
H       12.89890116      -6.29672618      -1.83497477       0.29938183       0.27542844       0.66565758
O       11.82670094       4.88772600      22.73476892      -0.14535621       0.12382256       0.29203192
H       11.25806743       4.20706319      23.01386532       0.11521053      -0.02263015      -0.14435562
H       11.87368815       4.90881825      21.76779627       0.11817122      -0.44211377      -0.12502550
O        8.19743395      14.49703298      23.78445339      -1.11331577      -0.82712111       1.51417366
H        9.00569240      14.93839345      23.98798168       0.01830017      -0.07147921      -0.23987002
H        8.10323219      13.65568626      24.10774279       0.02400968       0.54994815      -0.17274947
O       -8.09762419       7.02516058      11.40820821       0.82824692      -0.09313256       0.09304243
H       -7.30724769       6.52304441      11.01536491       0.01389096      -0.04915233      -0.07322264
H       -8.30713841       6.22645716      11.97869508      -0.08464823      -0.17907145       0.35634417
192
Lattice="12.748662723881079 0.0 0.0 -5.291418967741975e-07 12.748662723881079 0.0 -5.291418967741975e-07 -5.291418967741975e-07 12.748662723881079" Properties=species:S:1:pos:R:3:momenta:R:3 step=40 time_fs=4.0 phase=equilibration pbc="T T T"
O       11.60744132       0.72692935     -16.50170652       1.21924210       0.03514444       0.73054610
H       11.97719147       0.91862547     -15.66165426       0.53863926       0.40047469      -0.19769069
H       10.83316068       0.16181456     -16.48786207       0.08907282      -0.14989249      -0.16445650
O       26.37115075      24.78543430       4.88081968       0.28418677       0.03806400       1.27319838
H       26.69627859      23.99359685       4.64088352       0.13046754       0.09135806       0.02912776
H       25.52620811      25.01479642       4.47977454       0.09966914       0.15118367      -0.04371281
O        4.55217920      -0.29674315       6.64376913       0.11348526      -0.72191660      -1.53220743
H        4.93859980      -1.11701874       7.08042337       0.29874096      -0.07197612      -0.19259377
H        4.15736248       0.13175914       7.43172236       0.18461240       0.12690047       0.11435374
O       -2.85410301      -4.41686290       1.01593947      -0.38255849       1.11258068       0.96862524
H       -2.60330772      -3.69111065       0.36669947      -0.11016874      -0.17254442       0.08164710
H       -3.71974520      -4.18185107       1.47150199       0.03865418      -0.00842115      -0.34435466
O        4.26884817      15.85597485      10.72404019       0.63253107       0.42207435      -0.34213320
H        4.29772979      16.71146582      11.22782992      -0.10520233       0.33221891       0.09740278
H        5.08927571      15.77844913      10.31026844       0.13315952       0.11995151      -0.39062925
O       -1.38966331       6.63267827       5.14756497       0.15835584      -0.86883065       0.18767879
H       -1.30036476       6.31153138       4.15429899      -0.54217109       0.02282889      -0.12714780
H       -0.49617344       7.04519464       5.18817151      -0.10793346       0.04479926      -0.00922797
O       22.81576845      12.31620449       5.77798818      -0.09522573       0.24872840      -0.42281446
H       23.16887916      13.14410377       5.99316238       0.15366502       0.09058919       0.28535495
H       22.47097885      12.36829286       4.93617063      -0.17083856      -0.32028143       0.48145089
O       -1.02845720     -15.75979589       6.81359672      -1.33688917       0.67366327      -0.37435425
H       -0.48887433     -16.08014678       6.01153545      -0.12447767       0.04113822      -0.16290816
H       -1.39138494     -14.96914793       6.53293978       0.33063527      -0.34115142       0.22226105
O       15.47567433     -17.89844056       9.67706248       0.54739907      -0.64732346       0.45463201
H       16.07760236     -18.31688003      10.17920384      -0.06013493      -0.24252695      -0.07561519
H       15.64953779     -16.95742755       9.61249765      -0.14912205       0.11405402      -0.32605263
O        3.26928717     -14.66091712     -13.34553080       0.65299188      -0.20724736      -0.34208043
H        4.08784622     -15.07202323     -13.23445678       0.04250138       0.47007504       0.00431912
H        2.59801717     -14.95516320     -12.69775082       0.20498567      -0.10097809      -0.12247867
O       -5.74566873       1.57511470       2.85282175      -0.00543507       1.27481332      -0.05989973
H       -6.46155114       1.24235672       2.28547286      -0.24009200      -0.38979079       0.09603115
H       -5.45026862       2.35460040       2.42328806       0.00149667      -0.03413419       0.36728867
O       -5.37367113      16.04884536      25.97064094       0.69090303       1.43338888      -0.76819165
H       -5.31872732      15.38816308      25.24532993       0.03349231       0.34068025      -0.25582526
H       -4.39430900      16.39866252      26.00042997      -0.40943622      -0.64399476      -0.03120657
O        7.45410004     -15.70688446      -8.52974694       1.24401243       0.10618558       1.78000077
H        7.83285141     -16.53981801      -8.19958332       0.18861915       0.42394410      -0.14096867
H        6.57498880     -15.61712521      -7.90954341      -0.11703627       0.28177049       0.00719127
O       13.67807949       8.54986291      17.95171803      -0.39894826       0.24319269       1.04037399
H       14.05363342       8.70182941      17.12761762       0.22638253      -0.12812512      -0.21048802
H       14.23979872       7.96923274      18.41024329       0.06522103       0.11334765      -0.08041554
O       -0.15197668       1.19504833      -1.23183121      -0.12509377       0.51120923       1.02996492
H        0.77183531       1.37564266      -1.19535944       0.06933633       0.01214274      -0.09594238
H       -0.19757695       0.38964004      -0.72598901      -0.47295255       0.21285180      -0.39384876
O      -14.18955489      12.66237037      15.80339547       0.60181095      -0.09591917      -0.79368062
H      -14.00097118      12.32610017      14.80728436       0.27616537      -0.04510443      -0.02399217
H      -14.96924441      12.28915506      16.02753609       0.09600366       0.03428674       0.19871317
O      -16.45369070       5.90979576      12.34436775       2.16609483       0.88712840      -0.34414577
H      -17.06394696       6.01169602      11.54097539       0.18910810       0.19003895      -0.01204922
H      -16.07614737       6.72951552      12.45760640      -0.75595658      -0.26014508      -0.43539599
O       -9.94556595      32.93596039      -9.57650682      -0.52633851      -0.78423233      -0.35295444
H       -9.32540052      32.28800326      -9.28501185       0.10659440       0.17425281      -0.26771537
H      -10.54405023      32.37158838      -9.94657717      -0.00079790       0.08356840       0.28215355
O       34.74581378      11.50523081      21.41908906       0.89899360      -0.25353368      -1.79312420
H       34.78374804      11.53983101      20.45830019      -0.04324466       0.07469170       0.56629657
H       35.15840639      10.71005385      21.47421356       0.06015951       0.13000371       0.29227303
O       30.39601596     -12.68248654       2.17072463       0.20671408       1.02634008      -0.23442504
H       29.71098336     -12.12561342       2.59875181      -0.03110597      -0.15138056      -0.31091947
H       30.26233291     -12.63194355       1.15390405      -0.19053854       0.01928788       0.03770766
O       17.58780494       9.31795411      -7.43523671      -0.13090998      -1.16037010      -0.33227158
H       17.58863108       8.44019716      -7.57228014      -0.47721455       0.42595063      -0.31525810
H       17.44002607       9.52678271      -6.48089487      -0.05864437       0.08193178      -0.02368844
O       -5.17683572       2.61222576      32.18539255       0.57844531      -0.96427848       0.18034791
H       -5.84698123       2.08692793      31.60723262       0.14787314       0.01214277       0.32909430
H       -4.44200525       1.99810583      32.36946873       0.21877491       0.18098190       0.33731460
O        3.75453533       0.85325448      -0.23226287       1.41256808       0.76018643       0.07810936
H        3.48516836      -0.07834001      -0.28365233      -0.03606234       0.03075378      -0.10623316
H        4.14426622       1.18877882      -1.13490826       0.13988500      -0.21349362      -0.15301106
O       23.24009339       3.22905435      11.66981572      -0.76206932       0.23477021      -0.05140991
H       23.06653219       3.59692896      12.46466463       0.50537782      -0.24495347       0.05240523
H       23.89323654       2.52288506      11.73116157      -0.23815249      -0.12568949       0.15927600
O       -1.44526131      31.81470995      15.01102421       0.27832766       0.35836103       1.25019748
H       -1.91946986      32.46111285      14.51312725      -0.22427631      -0.09804866      -0.01777164
H       -0.57904993      31.96371416      14.45821087       0.03955145      -0.16061814      -0.02790222
O        4.82278093      19.38861628       5.21132286      -0.16437007      -0.01229599       0.13793197
H        4.22225797      18.97739736       5.72797918      -0.21862351      -0.01474575      -0.16404580
H        5.70121071      18.92936281       5.23196050      -0.01200292      -0.07497956       0.04092775
O      -10.13692739      10.48327069       9.46376658      -1.14018038       0.67489711       0.20256082
H      -10.64710195      10.90351680       8.79011201      -0.15678528      -0.24717237       0.60080237
H      -10.58558608      10.88691886      10.31231265      -0.04822932      -0.05946606       0.18160968
O       17.70397892      17.75863776      26.18865745      -0.29449541      -0.28213790      -1.32736900
H       18.49964314      17.31412218      25.99840644      -0.05919888       0.06381692       0.07214724
H       16.86126651      17.26478269      26.06713019       0.04131771       0.11608883       0.05615097
O        6.93364757      18.71245503      10.13212169      -0.03657187      -0.32525266       0.44273027
H        7.22273491      19.37214560       9.44796807       0.06220550      -0.31441342      -0.19968170
H        6.71136229      17.95870362       9.60758802      -0.14494401       0.14965471      -0.02350194
O       -0.62235823     -13.80560824      13.26416818      -0.33067711      -0.05231506       0.13410244
H       -1.35799537     -14.02776241      12.71559604      -0.07882306      -0.26966924       0.28350508
H       -0.15287399     -14.47894421      13.63835858      -0.13011444      -0.06723671      -0.34448661
O        1.14770846       6.17016684       1.09991874       0.26409447      -2.64985325       0.75919004
H        1.56529051       5.27697346       1.08661609      -0.23094544       0.58190580      -0.07938328
H        0.90210893       6.23237179       0.10098148       0.22753524       0.14195328       0.22860580
O        3.10565214       1.32472658       8.35993968       0.59968451      -0.63210190       0.42300942
H        2.27569300       0.92804062       8.25672653       0.53317789       0.67059830       0.20693578
H        3.24754767       1.55174288       9.25384842       0.16727046      -0.27445846       0.17139733
O      -18.84348883      28.80435388     -16.15282529       1.03760239       0.44705835      -0.87901206
H      -18.66834320      28.82312574     -17.03720370      -0.28759909       0.43637163       0.25278094
H      -18.18061331      28.29302141     -15.80223900      -0.40720854       0.46409869       0.24251686
O        2.88347370      26.88090762      -9.12352833       0.23069033       0.24448931      -0.44978067
H        3.62368524      26.89685649      -8.14297856       0.55564370       0.15877254       0.54970822
H        2.34806973      26.18004636      -8.82113608      -0.80858681      -0.49730482       0.16979372
O      -18.06543649      19.03128659       1.91283859      -0.98894030      -1.26967376       0.18749072
H      -17.49388706      18.85818404       1.23986631      -0.26679172       0.09249549       0.24851519
H      -18.76901747      18.49713702       1.68053208       0.04978931       0.26336952       0.15692380
O       11.70013821      17.57452364       7.07314829       0.22065954       0.17595930      -0.55130808
H       12.54158811      17.36904393       6.67080086       0.06879572      -0.19409680       0.15664294
H       11.36041834      18.29924605       6.54396703      -0.34997273      -0.15891291       0.16668962
O       -7.22802931     -11.19555784       5.19216827      -0.15510309      -0.98394108      -0.44544851
H       -6.46051573     -11.32657001       4.55585359      -0.04278877       0.16124725       0.08165286
H       -7.32743153     -12.08721967       5.51023032      -0.09553591       0.34286104       0.20780189
O      -24.12607800       3.42585774      10.70077133      -0.34809423      -1.02235929      -0.01465080
H      -24.76769533       4.10956477      10.48463195       0.07083541      -0.27582668      -0.12107287
H      -23.34000242       3.72469190      10.32820167      -0.64835627      -0.11350025       0.30127650
O      -11.43393431      -8.19712572      18.46820009      -0.00282501      -0.98521291      -0.16758134
H      -10.58308392      -8.52747553      18.88193997      -0.16347066       0.07994180       0.10013387
H      -11.34866889      -8.46252256      17.45921332      -0.14008337       0.20336710      -0.01361813
O        8.62357540       7.33196989      16.92824347      -1.08914646       0.66924994      -0.46340458
H        9.52022261       7.33320138      16.77992566       0.00381927      -0.07060596       0.00371895
H        8.26473638       6.74691887      16.20418963      -0.26367714      -0.03237375       0.08345424
O      -11.65058318      -0.47814708      20.41626513       0.76396634      -0.04132931       0.44291346
H      -12.54449816      -0.29905705      20.79962130      -0.03809979       0.04717117      -0.12998820
H      -11.64593718      -0.55053144      19.49234623      -0.43169136      -0.13661361       0.31746724
O       24.18619560       2.46961253      16.23128248      -0.92482669      -0.32043127      -0.46653391
H       23.84299427       2.49596667      17.16069168       0.12057772       0.08022558      -0.08008745
H       23.93733106       1.65080929      15.79549488       0.23443115       0.77484662      -0.22358309
O       -5.67361118     -17.95857742      -5.00640132      -0.56633627       0.31052522      -1.18489989
H       -4.72196585     -17.72962562      -4.69402836       0.29690549      -0.40721471      -0.42491391
H       -5.78782801     -18.70005197      -5.65968080       0.31703483       0.09305425       0.12271594
O       29.49421375      -8.99090964      -6.14590911      -0.97828030       0.59575628      -0.22380370
H       30.13603356      -9.03662328      -6.78394257       0.01833788       0.17001574       0.28357677
H       29.20771751      -9.96422842      -5.97999530      -0.33743280       0.29882384       0.07796882
O        8.81306145      -0.68173634       3.40266359       0.18832993       0.62379197       0.84159523
H        8.21923578      -0.08593471       2.92022837       0.13974892       0.20302028      -0.20511148
H        8.27303614      -1.40798909       3.66682220       0.07407166      -0.31184878      -0.08224221
O      -19.77269743      -3.16986363      24.77563114      -0.03710541       0.71538519      -0.07347724
H      -20.11905156      -3.84818553      24.32178229       0.24637804      -0.07188889       0.14031450
H      -19.28209272      -3.38010171      25.48766464       0.06021716      -0.18505017      -0.07575643
O        2.37142434      -5.81094982      -6.04105243       1.42854415       0.54624863       0.32541648
H        2.58380572      -5.52261016      -5.05767592      -0.28529454      -0.11009319       0.08182171
H        1.85183321      -6.65064975      -6.25041114       0.21378081       0.10521445      -0.02488644
O        9.83440826       8.28708170       7.94538040       0.23084090      -0.27602540       0.09834935
H       10.56504340       8.53432651       7.35997199       0.01235759      -0.16715269      -0.15596279
H       10.25710719       7.54888411       8.42708319      -0.17261072      -0.25625450      -0.04132901
O        5.35227642       9.74822595      -4.81509017       0.74972373      -0.04345060      -0.82192000
H        6.05456024       9.16265584      -4.76766127       0.06621349       0.12089852      -0.07279903
H        4.82656348       9.65943365      -4.01498909      -0.09719456       0.01284859       0.09794633
O       13.77294559      29.46887192      15.87316884      -0.39628799      -0.02975959       0.07485271
H       12.92420816      28.99437691      16.09597307      -0.16605783      -0.15046201      -0.01899527
H       14.46718194      28.79331949      15.92566807      -0.13107217      -0.10625684      -0.09927370
O       -2.80781327       3.97224546       1.68374934      -0.22805936      -0.34683748       0.79317493
H       -2.19821563       3.57013040       2.38051313      -0.56275385       0.11835666      -0.34999314
H       -2.65043580       4.94827196       1.86997819       0.09230752       0.21241892       0.11280313
O        7.80372483     -14.02151399      10.96454516      -0.23981570      -0.38290579      -0.35561538
H        7.03110074     -14.42004458      11.13505958       0.48501134       0.17953817      -0.44072811
H        8.12202659     -14.03202550      10.12787393       0.07658703      -0.35985724       0.09838556
O       -2.44306700      10.55782418      24.37700788      -1.20848536       0.04321140      -1.36986269
H       -2.03555836      10.06955430      23.50287611       0.21008394      -0.22751166      -0.03408214
H       -3.20124725      11.05709582      24.16150016      -0.30098756       0.40593655       0.35955917
O       20.06713281      21.73928015       1.55241587      -0.65924212       0.75218462       0.34589234
H       19.99160474      22.12516291       2.34453618       0.14900945       0.33788369      -0.07374814
H       19.84642436      20.85421830       1.48502369      -0.14088000      -0.15717357      -0.53050308
O       12.15514561      10.00062557     -15.93125708       0.66745112       0.49728153       0.69182992
H       12.64998501       9.38605356     -15.44295287       0.14620362      -0.25720256      -0.23707618
H       12.41992800      10.01070263     -16.77747756       0.35503853       0.15491492      -0.11352656
O      -11.40504233      22.28881971       1.05817333       0.01389580      -1.15241569      -0.11772692
H      -11.60696167      21.39239449       1.13619696      -0.20889347       0.70098854      -0.19456687
H      -10.84194978      22.52713946       1.80997480      -0.04945030       0.38441676      -0.04867886
O        2.94991311     -15.03041924      16.14087211       0.09650638      -0.31737889      -0.95948279
H        3.35436966     -15.72916202      16.60967082      -0.33237357       0.19313397       0.12129646
H        3.59535583     -14.29765620      15.99972678      -0.12319820      -0.30461617      -0.04548042
O        2.43970774      16.35496042       0.36936119      -1.01669006      -0.47017158       0.51665697
H        2.02062992      16.03713999      -0.55566157      -0.24606896       0.24675060      -0.34145382
H        2.82381401      15.50452420       0.58646222       0.32900225       0.06330089       0.14798748
O       -5.67036200      -7.28513961       5.59264992      -1.23632665      -0.55290715       0.07924333
H       -5.38013839      -8.04901585       6.19313368       0.16790235       0.26255862       0.23794108
H       -5.04785551      -6.77703123       5.17252367      -0.30931490      -0.03467808      -0.20235218
O       -2.16521612       2.39134033       6.64399357       0.20674739       0.71335456       0.14972263
H       -2.03293187       3.24514995       6.92369297      -0.20147541       0.28370178      -0.21000228
H       -1.81794921       1.80848891       7.52364269       0.08757842      -0.44958615       0.19498866
O       13.16340360      -5.46660576      -1.45065412       0.48149715      -1.42785115      -0.73396356
H       14.00105237      -5.19135498      -2.00459925      -0.01550824      -0.11062590       0.15965388
H       12.92363940      -6.27758708      -1.77286026       0.19052359       0.03685490       0.57934248
O       11.82617769       4.88886648      22.73562456       0.07300551       0.28356574       0.16758574
H       11.26051327       4.19613993      23.00398158      -0.05573974      -0.19541817      -0.04674719
H       11.88447800       4.86637239      21.75462173       0.10932508      -0.42456185      -0.11908775
O        8.18995310      14.49304674      23.79237821      -1.23709174      -0.30585559       1.26385319
H        9.01580656      14.93556549      23.96650697       0.18334328       0.01737251      -0.19220632
H        8.10289477      13.68382558      24.09903246      -0.03182179      -0.00234915       0.01968103
O       -8.09190921       7.02313119      11.40860118       0.95638458      -0.51453387       0.14031016
H       -7.31085769       6.52657166      11.00775687      -0.09020078       0.12451301      -0.07760803
H       -8.31499282       6.21975215      12.01054767      -0.07705430       0.05278549       0.29670269
192
Lattice="12.748349264155515 0.0 0.0 -5.291288864155944e-07 12.748349264155515 0.0 -5.291288864155944e-07 -5.291288864155944e-07 12.748349264155515" Properties=species:S:1:pos:R:3:momenta:R:3 step=50 time_fs=5.0 phase=equilibration pbc="T T T"
O       11.61464113       0.72704459     -16.49736874       1.21576448       0.00674268       0.56024116
H       12.03121974       0.95813782     -15.67465804       0.56517055       0.40372541      -0.09152891
H       10.84129352       0.14637744     -16.50287641       0.09586658      -0.15746691      -0.14722179
O       26.37172338      24.78638747       4.88915602       0.12345891       0.44674172       1.47437823
H       26.71845766      23.98154966       4.63638490       0.32564577      -0.29677252      -0.11192787
H       25.53560392      25.02886266       4.47544146       0.11122180       0.14798648      -0.04331131
O        4.55284869      -0.30176751       6.63483606       0.13629869      -0.91151118      -1.31371287
H        4.96456277      -1.11599707       7.05552251       0.23361153       0.09484077      -0.31362933
H        4.17518850       0.14536309       7.43993937       0.18963205       0.14237281       0.04642532
O       -2.85657022      -4.40943922       1.02169213      -0.42704665       1.24340885       0.91822147
H       -2.61762662      -3.71561545       0.38188201      -0.17278010      -0.30931103       0.20749932
H       -3.70860128      -4.18242923       1.43208762       0.15755830      -0.00011041      -0.44503389
O        4.27227865      15.85886321      10.72225622       0.55078871       0.65699223      -0.16264487
H        4.28682234      16.73484302      11.23188263      -0.11138529       0.13804366      -0.02191800
H        5.11056409      15.78733317      10.26678163       0.26794173       0.07947280      -0.47444493
O       -1.38804695       6.62699377       5.14761690       0.33971529      -0.93554733      -0.12824655
H       -1.35718092       6.31797041       4.15344352      -0.61857664       0.11344734       0.11482010
H       -0.51174614       7.04935754       5.18913259      -0.20033186       0.04832452       0.02933332
O       22.81494570      12.31683072       5.77617262       0.03157651       0.08709148      -0.10271151
H       23.18863550      13.16344281       6.02751681       0.24528195       0.27682489       0.40780849
H       22.44315365      12.33442751       4.96435080      -0.39199966      -0.36477113       0.09341822
O       -1.03565820     -15.75669311       6.81097273      -1.00589221       0.18208210      -0.41846267
H       -0.50399840     -16.07444885       6.00373248      -0.18520556       0.06629848       0.00610607
H       -1.36949755     -14.97926116       6.54893935       0.10548468       0.15584277       0.10019772
O       15.47745221     -17.90137299       9.67877987       0.17837246      -0.44431511       0.19744667
H       16.08952547     -18.35180092      10.18614880       0.28904475      -0.45946666       0.20082803
H       15.63497560     -16.94161204       9.57975195      -0.14192601       0.17114162      -0.33404918
O        3.27254056     -14.66166689     -13.34710863       0.42936040      -0.14436489      -0.28993543
H        4.10432283     -15.03090928     -13.23389681       0.30999380       0.36364356       0.00276420
H        2.61782052     -14.96399301     -12.71099248       0.19171850      -0.09106526      -0.14497878
O       -5.74594441       1.58210322       2.85274778      -0.15290336       0.99159012       0.05117293
H       -6.48548154       1.20221685       2.29575800      -0.22845270      -0.41484029       0.13048746
H       -5.44535613       2.36330588       2.45317405       0.09454600       0.21923880       0.24158913
O       -5.36885745      16.05728528      25.96506078       0.80375327       1.44033668      -0.83828652
H       -5.31423792      15.42386540      25.22116178       0.05196394       0.38934820      -0.23655542
H       -4.44196431      16.33173294      25.99822779      -0.53764398      -0.70528046       0.00284558
O        7.46080022     -15.70565528      -8.51821809       0.97517562       0.21109990       1.89095163
H        7.85378159     -16.50087644      -8.21355646       0.26410550       0.32438043      -0.13253678
H        6.57231521     -15.59066431      -7.91631521       0.06877655       0.25099297      -0.15055859
O       13.67444101       8.55150350      17.95794822      -0.64288812       0.36408442       1.07936219
H       14.07938660       8.69324865      17.09291120       0.28150633      -0.05642125      -0.43064603
H       14.25309734       7.97167911      18.41259831       0.20745127      -0.05015760       0.12984420
O       -0.15318968       1.19850369      -1.22575846      -0.24965933       0.65037144       0.92669556
H        0.78714009       1.37999654      -1.20641430       0.22538839       0.07231437      -0.13140340
H       -0.24754442       0.39901484      -0.75843429      -0.55379962      -0.04078632      -0.26042052
O      -14.18403756      12.66173179      15.79682388       1.05762570      -0.01724529      -1.21214384
H      -13.97390210      12.32472231      14.81506766       0.26707092       0.02311465       0.19505712
H      -14.97949973      12.28310039      16.05328821      -0.28371150      -0.13906051       0.32731291
O      -16.44102239       5.91373245      12.34116722       1.82203845       0.40928641      -0.59884064
H      -17.03988148       6.02889903      11.54753270       0.29073924       0.15931604       0.14629726
H      -16.13949739       6.72792225      12.41824685      -0.53982806       0.26869932      -0.36065665
O       -9.94798025      32.93139328      -9.57801459      -0.34356216      -0.43808816      -0.21833583
H       -9.30703576      32.29951257      -9.30744192       0.27024482       0.07563658      -0.19618538
H      -10.56023757      32.36582075      -9.92976855      -0.33734115      -0.18383845       0.06007938
O       34.74990168      11.50466066      21.40792382       0.71658485       0.14090776      -1.60822784
H       34.77762405      11.54853032      20.50549392      -0.06314038       0.11406951       0.34445360
H       35.17342664      10.70080689      21.50334124       0.25865935      -0.30015198       0.31975570
O       30.39630304     -12.67541640       2.16826348       0.14855567       1.15230902      -0.55441357
H       29.70929858     -12.14337131       2.56621701      -0.01626271      -0.19638385      -0.33148418
H       30.24287144     -12.62805188       1.17246735      -0.19250951       0.05174022       0.32705429
O       17.58662829       9.31231629      -7.43634469      -0.10713992      -0.59197126      -0.08595321
H       17.54065756       8.45280643      -7.60859493      -0.50256643      -0.17188971      -0.43674203
H       17.43602399       9.53452636      -6.48845970      -0.01444033       0.08039222      -0.13325509
O       -5.17351828       2.60559413      32.18535250       0.48430008      -1.15003274       0.08841496
H       -5.81948568       2.09501820      31.65024972       0.37818976       0.13123519       0.53630176
H       -4.42660313       2.02136584      32.40059867       0.10122756       0.29095889       0.31920663
O        3.76357284       0.85786345      -0.23257655       1.56485851       0.74015075      -0.18382992
H        3.48431208      -0.07298907      -0.29570999       0.02023984       0.07972791      -0.13820560
H        4.15156601       1.16096371      -1.13262695       0.01102907      -0.35673877       0.20150889
O       23.23503951       3.22976118      11.66771579      -0.70351919       0.02897542      -0.52197997
H       23.10963529       3.58483731      12.49451846       0.39624646      -0.00657916       0.55273436
H       23.87000464       2.50753169      11.74590452      -0.22565208      -0.18972029       0.14597621
O       -1.44266060      31.81598368      15.01809034       0.54271556       0.32504205       1.15987753
H       -1.94809801      32.45718589      14.50763208      -0.35132097       0.01771902      -0.07518247
H       -0.58001828      31.94317236      14.46188283      -0.05785048      -0.24328000       0.10959745
O        4.82294561      19.38855416       5.21120581       0.22806327       0.13597125      -0.11389043
H        4.18530042      18.96575914       5.72535681      -0.51095994      -0.19808683       0.09016181
H        5.69197560      18.92684154       5.23491553      -0.17274738       0.02941247       0.02363745
O      -10.14378376      10.48715937       9.46606469      -1.14960829       0.65729812       0.65479845
H      -10.66981026      10.88432778       8.83670994      -0.33875556      -0.12305002       0.32491770
H      -10.58144842      10.87433813      10.32049301       0.13018593      -0.19285188      -0.00554748
O       17.70086199      17.75689280      26.17973090      -0.56374761      -0.13414199      -1.36926764
H       18.50093864      17.31209676      26.00479838       0.09514399      -0.09597275       0.07256194
H       16.86988551      17.27663599      26.07379806       0.12941136       0.12787661       0.09162245
O        6.93344157      18.71073763      10.13456056       0.02217778      -0.09255469       0.43236272
H        7.22689056      19.33858423       9.43255354       0.02958485      -0.35678387      -0.11384072
H        6.69521646      17.96249127       9.60204155      -0.18345588      -0.06210898      -0.08206911
O       -0.62467611     -13.80427374      13.26447312      -0.42932828       0.36664031       0.07297701
H       -1.37263042     -14.05810203      12.73715395      -0.21984177      -0.35733575       0.16654124
H       -0.15353896     -14.50166085      13.61234075       0.11410028      -0.40022167      -0.18628443
O        1.14898867       6.15379214       1.10383941       0.12937888      -2.55472730       0.53855704
H        1.54428179       5.33117888       1.08042259      -0.16031994       0.45106186      -0.04368199
H        0.92514417       6.24911147       0.13173126       0.23886820       0.20754784       0.38848602
O        3.11033596       1.32118847       8.36189896       1.00146352      -0.48555183       0.31411737
H        2.30510512       0.98198712       8.27060836       0.02155239       0.41807346       0.07435302
H        3.26924733       1.52798652       9.28038879       0.27793392      -0.21909415       0.35399908
O      -18.83834235      28.80741556     -16.15689131       0.47842439       0.78460601      -0.58222118
H      -18.69139619      28.86694771     -17.04357435      -0.19484287       0.48093154      -0.39394067
H      -18.19647277      28.31928526     -15.76048134       0.08342843       0.08226933       0.61617311
O        2.88604462      26.88145505      -9.12431994       0.55833521       0.02329423       0.19903875
H        3.65609501      26.90945231      -8.11879379       0.06709308       0.10405135      -0.10197508
H        2.27158326      26.13494943      -8.80277040      -0.64172638      -0.28155894       0.15998552
O      -18.07128660      19.02398378       1.91546463      -1.05552502      -0.95215504       0.68773882
H      -17.50071380      18.86168773       1.24132222       0.11921164      -0.01113836      -0.22014407
H      -18.77904581      18.51302830       1.69352390      -0.27241198       0.06663487       0.10846212
O       11.70103146      17.57499188       7.06979418       0.17660398       0.11071054      -0.48649690
H       12.55550363      17.34710036       6.68487611       0.20608993      -0.23984166       0.13953912
H       11.32180065      18.28666091       6.55837605      -0.43261446      -0.09035810       0.12946259
O       -7.22828693     -11.20100731       5.18866136       0.00467715      -0.85578721      -0.65233275
H       -6.47109322     -11.30868045       4.56316756      -0.16607210       0.19556103       0.06655723
H       -7.33945954     -12.06009269       5.53485386      -0.15196600       0.18683843       0.30747073
O      -24.12858449       3.41905747      10.70078979      -0.69196951      -1.19023020       0.12479457
H      -24.76708974       4.08679499      10.47170943      -0.07981105      -0.18047649      -0.14116715
H      -23.38330225       3.71872983      10.34820492      -0.21291371       0.00929440       0.09536122
O      -11.43295573      -8.20336540      18.46629599       0.20834611      -1.10123051      -0.30909991
H      -10.60726578      -8.51611128      18.88637963      -0.31910083       0.14198815       0.01045572
H      -11.36416007      -8.43833543      17.47328844      -0.18310054       0.28442131       0.30237262
O        8.61542786       7.33549712      16.92474168      -1.46595506       0.54288539      -0.54252815
H        9.53722167       7.32704151      16.78099932       0.31570345      -0.05485438       0.02943428
H        8.23907654       6.74850736      16.21681924      -0.25494985       0.06762611       0.18092874
O      -11.64584866      -0.47822121      20.41948978       0.68865499       0.01546295       0.77894962
H      -12.54400920      -0.29424377      20.78397499       0.03846761       0.05327045      -0.17445441
H      -11.68959508      -0.56558186      19.50772424      -0.46631029      -0.17403150      -0.00770826
O       24.17992092       2.46824356      16.22862927      -0.90470877      -0.05004741      -0.25865300
H       23.85617913       2.50472198      17.14605988       0.15414208       0.10015673      -0.18782829
H       23.95828697       1.71992871      15.76892915       0.19246202       0.58386750      -0.34643942
O       -5.67602843     -17.95639685      -5.01350091      -0.26078028       0.27605685      -1.15077828
H       -4.70819907     -17.77228684      -4.74293036      -0.01753591      -0.47145212      -0.57505911
H       -5.75446364     -18.68347581      -5.64159802       0.35754323       0.21445933       0.22428875
O       29.48617865      -8.98788467      -6.14616580      -1.39184924       0.33674109       0.08135802
H       30.15290022      -9.01868293      -6.76929741       0.33413696       0.19227878       0.02426497
H       29.17677687      -9.92029649      -5.97253556      -0.28441051       0.57973691       0.07245842
O        8.81410483      -0.67762027       3.40747859       0.18990364       0.69768787       0.75368969
H        8.23251069      -0.06436647       2.90143715       0.14795181       0.21820447      -0.16316961
H        8.27547901      -1.44618078       3.66287674       0.00115948      -0.43444369      -0.01167340
O      -19.77267914      -3.16335048      24.77429850      -0.11335348       1.33366151      -0.15248629
H      -20.10850196      -3.88173714      24.31644315      -0.01425692      -0.57892905      -0.20714003
H      -19.25928188      -3.40246421      25.50427687       0.37137222      -0.26769095       0.38953867
O        2.38005360      -5.80773342      -6.03837081       1.41003318       0.46925424       0.50367055
H        2.55032052      -5.54064405      -5.06290256      -0.39654111      -0.25852476      -0.18896938
H        1.87981012      -6.62945245      -6.24621020       0.34873282       0.30697373       0.10147493
O        9.83573809       8.28479362       7.94594932       0.28973816      -0.40555738       0.14740594
H       10.56553631       8.52219316       7.34346793      -0.00451144      -0.08213992      -0.17158646
H       10.23587930       7.52550244       8.42296752      -0.25841642      -0.21273964      -0.04345231
O        5.35590265       9.74834802      -4.82008057       0.47426014       0.14884512      -0.82304106
H        6.07650116       9.16189946      -4.77472941       0.37064263      -0.11992829      -0.07273057
H        4.81509059       9.66090453      -4.00542127      -0.11873943       0.02231824       0.07411726
O       13.76973491      29.46737953      15.87329161      -0.54781669      -0.22153122       0.09379677
H       12.91525422      28.98387268      16.08985316      -0.00521015      -0.04791949      -0.09867019
H       14.45230622      28.78452898      15.91442078      -0.16342808      -0.06193196      -0.12163483
O       -2.80878692       3.97066880       1.68899147      -0.14872423      -0.10230113       0.88395336
H       -2.25546265       3.57911716       2.34287090      -0.57144671       0.03575808      -0.37392318
H       -2.64249670       4.95849822       1.87804134       0.06746088      -0.00150346       0.05129991
O        7.80342261     -14.02249326      10.96325834       0.23471886      -0.03454426      -0.00353246
H        7.04737365     -14.41849599      11.09958941      -0.17403766      -0.16829708      -0.27704934
H        8.13981275     -14.06631853      10.11109184       0.28674662      -0.35143548      -0.41492045
O       -2.44971823      10.55737065      24.36754395      -1.01782081      -0.07719346      -1.52158816
H       -2.01823576      10.05261713      23.50884660       0.14558513      -0.11501924       0.16134352
H       -3.23769576      11.09863970      24.19448788      -0.40606316       0.42405130       0.33899854
O       20.06289327      21.74346888       1.55305844      -0.57494129       0.75200317      -0.10246869
H       20.00289244      22.16912088       2.36039506       0.09397191       0.54596081       0.36158680
H       19.82837973      20.82503857       1.43312662      -0.20581953      -0.36877317      -0.51693748
O       12.15810999      10.00393039     -15.92554661       0.42750142       0.63776236       1.00338880
H       12.67032509       9.35229298     -15.45900344       0.25948516      -0.40927852      -0.11875041
H       12.46019721      10.02626598     -16.81175542       0.46045876       0.16851311      -0.54035716
O      -11.40421963      22.28262382       1.05731085       0.18437521      -0.62997729      -0.15148715
H      -11.63421397      21.43735882       1.11668870      -0.37158557       0.17888658      -0.20091052
H      -10.84629770      22.56623696       1.80594516      -0.05053490       0.42452509      -0.04061795
O        2.95014073     -15.03129808      16.13416682      -0.02471064      -0.10507753      -1.09879618
H        3.32745273     -15.71727647      16.62739522      -0.21518682       0.03087831       0.25973815
H        3.58172820     -14.32976197      15.99596602      -0.13149207      -0.33026283      -0.03079255
O        2.43318528      16.35137753       0.37175620      -1.07770463      -0.57928510       0.27517241
H        2.00022257      16.06832009      -0.57635563      -0.16690682       0.39256376      -0.07449686
H        2.85687179      15.51000477       0.60599277       0.33466154       0.07767677       0.23862079
O       -5.67858938      -7.28983919       5.59409885      -1.47092095      -1.01320089       0.42212751
H       -5.36459719      -8.01106545       6.20752514       0.14912352       0.50166198       0.06537749
H       -5.06118228      -6.76975194       5.14503436       0.01435969       0.16773450      -0.35047514
O       -2.16379828       2.39421293       6.64508132       0.24590249       0.27803144       0.27317648
H       -2.04900589       3.29040890       6.90760546      -0.13399986       0.59448185      -0.12606469
H       -1.81227316       1.76968324       7.53471354       0.02521626      -0.33170108       0.03008740
O       13.16737843      -5.47362246      -1.45501458       0.91014525      -0.89610237      -0.69167691
H       13.98878243      -5.20541170      -1.98202537      -0.21910690      -0.17844014       0.29484459
H       12.93279908      -6.29781525      -1.72454992       0.00362435      -0.46206320       0.41239239
O       11.82683943       4.89074019      22.73554977       0.21783924       0.33856609      -0.01367395
H       11.24908284       4.17180982      23.00245973      -0.15302396      -0.27658070       0.01779679
H       11.89413658       4.82616226      21.74618646       0.09311202      -0.39628729      -0.03093902
O        8.18205933      14.49272110      23.79879759      -1.25089546       0.30257303       1.03236833
H        9.03675857      14.93852390      23.94837396       0.22445657       0.03336955      -0.17128942
H        8.09696792      13.65413721      24.11051568      -0.07752486      -0.56782123       0.21729636
O       -8.08558443       7.01853850      11.40942792       1.02424134      -0.91223367       0.23017469
H       -7.32302753       6.54587499      10.99902255      -0.14834432       0.26334944      -0.10356161
H       -8.32128158       6.23651367      12.03530479      -0.05474529       0.29114790       0.21618173
192
Lattice="12.748054345891633 0.0 0.0 -5.291166456329395e-07 12.748054345891633 0.0 -5.291166456329395e-07 -5.291166456329395e-07 12.748054345891633" Properties=species:S:1:pos:R:3:momenta:R:3 step=60 time_fs=6.0 phase=equilibration pbc="T T T"
O       11.62183065       0.72699026     -16.49387379       1.21910416      -0.01559216       0.46845093
H       12.08430405       0.99563046     -15.68209808       0.51654498       0.35719609      -0.08590728
H       10.85325355       0.13258318     -16.51498067       0.16145286      -0.12030552      -0.10554663
O       26.37164690      24.78919633       4.89850798       0.07514021       0.59834432       1.58971526
H       26.75375804      23.94437480       4.62160778       0.37999361      -0.39399478      -0.17045532
H       25.54760439      25.04172446       4.47102746       0.15027892       0.12342431      -0.04594897
O        4.55356498      -0.30779946       6.62736625       0.12249321      -1.03939502      -1.07361159
H        4.98407136      -1.09929594       7.01986467       0.17537734       0.23438653      -0.40599908
H        4.19480875       0.15827937       7.43906326       0.21584770       0.12041374      -0.06352099
O       -2.85894332      -4.40182659       1.02729430      -0.34386436       1.16283224       0.92992445
H       -2.63357419      -3.74511638       0.40085359      -0.13693209      -0.26249254       0.14479145
H       -3.69667437      -4.18038713       1.38916961       0.04141402       0.04697070      -0.41188123
O        4.27580496      15.86331854      10.72132840       0.65789461       0.91014785      -0.07769171
H        4.27674321      16.73591135      11.22156928      -0.08969296      -0.10836577      -0.18604351
H        5.13410150      15.79486735      10.22166862       0.18786828       0.08932249      -0.42711450
O       -1.38567987       6.62079336       5.14578208       0.39857282      -1.03938445      -0.42054474
H       -1.41973963       6.33330453       4.17661213      -0.66034361       0.20161924       0.35598281
H       -0.53226692       7.05550731       5.19332832      -0.20456357       0.08891946       0.05801164
O       22.81526021      12.31715077       5.77651098       0.24875965       0.14340488       0.24556146
H       23.21099489      13.18916875       6.06824637       0.20197189       0.22022054       0.40996758
H       22.39498804      12.29793807       4.95734022      -0.56995508      -0.37051012      -0.20050020
O       -1.04082064     -15.75678082       6.80816169      -0.70481332      -0.29434100      -0.44800985
H       -0.52436266     -16.06688840       6.01166693      -0.22733993       0.07783310       0.15061947
H       -1.37021999     -14.93832269       6.55234702      -0.10354612       0.64334863      -0.01596108
O       15.47761447     -17.90316274       9.67940091       0.04113570      -0.29598186       0.11849469
H       16.12485716     -18.39818132      10.21053492       0.39069068      -0.45678872       0.25960869
H       15.62117726     -16.92860014       9.54832167      -0.13397474       0.06733901      -0.30071040
O        3.27454210     -14.66199068     -13.34850644       0.26673452      -0.07731656      -0.26475321
H        4.14642751     -14.99927895     -13.23334368       0.53251135       0.28871696       0.00109292
H        2.63406354     -14.97262861     -12.72405197       0.14279147      -0.09487046      -0.12609172
O       -5.74738391       1.58719537       2.85316940      -0.35579044       0.69776451       0.09274744
H       -6.50163701       1.16494002       2.31266644      -0.09043100      -0.33416946       0.22198727
H       -5.43350168       2.39445680       2.47095070       0.12992543       0.39003235       0.13611352
O       -5.36430591      16.06562065      25.95913101       0.56501700       1.38373383      -0.89902392
H       -5.30911083      15.46158724      25.19648017       0.04776932       0.38726896      -0.26225848
H       -4.48636942      16.26470114      26.00084519      -0.30180075      -0.64429356       0.06952620
O        7.46546584     -15.70317753      -8.50623423       0.58790483       0.48999553       1.94698947
H        7.88663737     -16.48151293      -8.22269222       0.41848786       0.05479493      -0.05400662
H        6.58921793     -15.56806643      -7.93888427       0.28882865       0.20136252      -0.31891304
O       13.67007245       8.55386598      17.96350205      -0.63241638       0.45530556       0.83416129
H       14.10223475       8.68787687      17.05598702       0.17204896      -0.06007294      -0.26389548
H       14.27620380       7.96271345      18.43125821       0.24843895      -0.10402538       0.23742104
O       -0.15470542       1.20308577      -1.22040109      -0.22044997       0.84151986       0.81854993
H        0.81012319       1.38788081      -1.22055980       0.21230230       0.07738119      -0.15542557
H       -0.30493889       0.38177086      -0.77680795      -0.61480141      -0.28979451      -0.12984759
O      -14.17643848      12.66133601      15.78795379       1.25283341      -0.04165656      -1.53443796
H      -13.94923545      12.33006965      14.84529852       0.22844423       0.09229981       0.43365527
H      -15.01369831      12.26589752      16.08688564      -0.35920041      -0.17914746       0.34455821
O      -16.43034350       5.91452901      12.33663071       1.56740545      -0.07578013      -0.75434923
H      -17.00822124       6.04220581      11.56636630       0.33462260       0.11899580       0.22192012
H      -16.18164868       6.78157976      12.38611559      -0.34984488       0.80221855      -0.29981296
O       -9.94947682      32.92871616      -9.57885233      -0.24185050      -0.23404476      -0.14256489
H       -9.27277865      32.30233404      -9.32322416       0.41534005       0.01167133      -0.13858670
H      -10.60611699      32.33781404      -9.93208474      -0.57308077      -0.34128811      -0.09026537
O       34.75319186      11.50591035      21.39883704       0.65206149       0.28594038      -1.16497507
H       34.76955281      11.56271953      20.51564225      -0.08918488       0.18929305      -0.15067520
H       35.20365965      10.65768662      21.53588685       0.34708975      -0.51988239       0.35575251
O       30.39664417     -12.66800059       2.16393875       0.21114677       1.15050054      -0.80682520
H       29.70147028     -12.15911639       2.53863910      -0.14891944      -0.11575099      -0.21401732
H       30.22376617     -12.62202019       1.21133865      -0.18467051       0.06254467       0.41949329
O       17.58570336       9.30996159      -7.43609333      -0.06044494      -0.16144572       0.08433982
H       17.48936866       8.41161378      -7.65574373      -0.54022781      -0.60608405      -0.51799898
H       17.43623213       9.54141835      -6.50514039       0.02541272       0.06217358      -0.19982518
O       -5.17025700       2.59847613      32.18534314       0.57587397      -1.09837840       0.18828670
H       -5.78301518       2.10577686      31.70174120       0.30590337       0.05042933       0.48717781
H       -4.41920786       2.05276654      32.43097411       0.06918450       0.34258526       0.32651705
O        3.77352803       0.86221865      -0.23433775       1.69057579       0.67521939      -0.35081219
H        3.48833223      -0.06382770      -0.30994496       0.05857585       0.09719874      -0.14981303
H        4.14755266       1.12074669      -1.09895446      -0.07068698      -0.44877921       0.44271649
O       23.23027232       3.22947685      11.66345749      -0.67869467      -0.07168587      -0.69884606
H       23.14464560       3.59140939      12.56249668       0.34552948       0.10945294       0.77107649
H       23.84755761       2.48651945      11.75875479      -0.22999355      -0.23175736       0.12274965
O       -1.43875360      31.81739021      15.02437184       0.69840015       0.38932038       0.98611484
H       -1.98438378      32.45911912      14.50078198      -0.37454835       0.01718382      -0.04307407
H       -0.59000324      31.91513992      14.47854069      -0.14515784      -0.31441358       0.23584325
O        4.82473518      19.38912396       5.21005158       0.32518755       0.17278028      -0.18707232
H        4.13069328      18.94290954       5.73880296      -0.55662770      -0.23095029       0.15051814
H        5.66886333      18.93274131       5.23669886      -0.28395601       0.08922108       0.01803842
O      -10.15042222      10.49074689       9.47143886      -1.09037468       0.59062421       1.14192635
H      -10.71424771      10.88002547       8.85090841      -0.56926134       0.03231118      -0.01693929
H      -10.55975772      10.84927459      10.31151534       0.30402011      -0.30954383      -0.16199171
O       17.69657039      17.75621201      26.17059208      -0.66017410       0.04722508      -1.41212529
H       18.51525777      17.29578671      26.01175689       0.18781126      -0.21983338       0.08635315
H       16.88226994      17.28689827      26.08327917       0.11396162       0.07919676       0.11293347
O        6.93349712      18.71019518      10.13688946       0.03652334       0.02874899       0.39489507
H        7.22886974      19.30334284       9.42450926       0.01885504      -0.34797858      -0.05364603
H        6.67581983      17.94759034       9.59301316      -0.20561452      -0.21805531      -0.08367278
O       -0.62754964     -13.80087048      13.26449756      -0.50352187       0.57958288       0.04364570
H       -1.39780803     -14.09561597      12.74936448      -0.27169700      -0.41002698       0.10651973
H       -0.13429960     -14.55075869      13.59831375       0.24735132      -0.56555614      -0.12022406
O        1.14897161       6.13920850       1.10676201      -0.13432068      -2.12103449       0.45826957
H        1.53957565       5.35302708       1.07815795       0.08016282      -0.03196362      -0.00367058
H        0.94717726       6.27287271       0.17235005       0.20502016       0.28511793       0.41153682
O        3.11803240       1.31881196       8.36385616       1.51572315      -0.28413280       0.41965189
H        2.27737596       1.00929036       8.27072046      -0.56395388       0.15707654      -0.06182065
H        3.30025479       1.50716929       9.31528830       0.34908986      -0.21728234       0.32625752
O      -18.83626695      28.81234296     -16.15954060       0.12916564       0.99749493      -0.44459885
H      -18.70632563      28.91452732     -17.10289184      -0.12492117       0.49279287      -0.72772547
H      -18.16984258      28.31289007     -15.68613298       0.38387447      -0.14379559       0.84072465
O        2.88959104      26.87915337      -9.12026253       0.57906616      -0.58272063       1.03613347
H        3.63590457      26.91524946      -8.16382669      -0.43967107       0.03017700      -0.78862760
H        2.23301136      26.13615626      -8.79449820      -0.14971228       0.32896332      -0.00879128
O      -18.07732083      19.01856267       1.92086851      -1.01973860      -0.69557767       1.02938298
H      -17.47345299      18.85656297       1.20156964       0.38923958      -0.07196058      -0.54372268
H      -18.82107357      18.50970296       1.70212993      -0.58345972      -0.11353462       0.07522559
O       11.70192744      17.57501489       7.06673973       0.21694769       0.03068369      -0.46675817
H       12.57652300      17.32349827       6.69879931       0.20504687      -0.22472311       0.15558116
H       11.27733996      18.27943716       6.56920450      -0.46176280      -0.06056088       0.10100515
O       -7.22777305     -11.20538093       5.18403350       0.09266793      -0.65358015      -0.79879883
H       -6.48987303     -11.28874680       4.56724501      -0.20681865       0.20359702       0.00937086
H       -7.35613592     -12.05127805       5.57005900      -0.19037742      -0.00134688       0.41172521
O      -24.13354564       3.41099431      10.70184994      -1.09750952      -1.39976489       0.29243119
H      -24.78225897       4.07444408      10.45652415      -0.23779613      -0.07721651      -0.16354546
H      -23.37819213       3.72745270      10.34519560       0.29313260       0.16659951      -0.14522448
O      -11.43121786      -8.21003888      18.46355810       0.23270545      -1.11111066      -0.42488073
H      -10.63897263      -8.50145156      18.88621767      -0.29821615       0.14085327       0.01636230
H      -11.38358364      -8.40793576      17.51293085      -0.21857976       0.32544931       0.47567490
O        8.60572825       7.33837487      16.92079051      -1.57519286       0.45975146      -0.61212066
H        9.57179899       7.32157755      16.78569492       0.34482412      -0.05655417       0.07928945
H        8.21519260       6.75911323      16.23721873      -0.23041475       0.14707563       0.23246497
O      -11.64149949      -0.47795022      20.42470950       0.64630895       0.06449267       1.04367741
H      -12.53762479      -0.28825489      20.76603017       0.07854914       0.07184818      -0.17655177
H      -11.73561029      -0.58442062      19.49080724      -0.47977878      -0.21096572      -0.30453090
O       24.17413224       2.46926141      16.22726026      -0.78765538       0.40812228      -0.08528481
H       23.87013350       2.51514167      17.12852703       0.13343247       0.11224148      -0.13696180
H       23.97213523       1.75780493      15.72334345       0.10141896       0.18595246      -0.58684690
O       -5.67656392     -17.95399020      -5.02002252       0.02430184       0.40109657      -0.99178725
H       -4.72334785     -17.81885009      -4.80386780      -0.26354755      -0.47615467      -0.65868400
H       -5.71971323     -18.66406444      -5.62167537       0.33896835       0.13238084       0.14449708
O       29.47613574      -8.98590148      -6.14496649      -1.60343847       0.29440274       0.21924171
H       30.19448007      -8.99918638      -6.77388329       0.49196577       0.20001504      -0.08553553
H       29.14962154      -9.85748991      -5.96512176      -0.27159629       0.65411393       0.08184252
O        8.81462021      -0.67333759       3.41174613       0.02355538       0.67690749       0.66076191
H        8.24920142      -0.04693176       2.89095745       0.20221651       0.12699189      -0.04084259
H        8.27663009      -1.48531137       3.66175788       0.04087587      -0.33900874      -0.01963621
O      -19.77305780      -3.15436923      24.77275881      -0.14636481       1.46648428      -0.14481666
H      -20.11282546      -3.94713275      24.29044927      -0.03933302      -0.68276645      -0.25555840
H      -19.21783357      -3.42939539      25.54946964       0.41638521      -0.26875807       0.47513707
O        2.38880647      -5.80464800      -6.03458817       1.48057268       0.52159539       0.66991515
H        2.50734003      -5.57151788      -5.09236723      -0.47768524      -0.36711013      -0.39331941
H        1.91601170      -6.59633369      -6.23215550       0.36822166       0.32679056       0.17057640
O        9.83757135       8.28171602       7.94674702       0.38400533      -0.53029730       0.16560862
H       10.56232466       8.51704155       7.32762001      -0.06149692      -0.02363777      -0.14355518
H       10.20656109       7.50787528       8.41768555      -0.33477157      -0.14458342      -0.06159309
O        5.35807307       9.74928272      -4.82478168       0.30658388       0.19562390      -0.73442766
H        6.11983523       9.14372341      -4.78126948       0.47464143      -0.21470410      -0.06262232
H        4.80624849       9.66315573      -4.00396030      -0.04736189       0.02701876      -0.05973584
O       13.76551413      29.46482235      15.87356139      -0.72147336      -0.37646931       0.11228108
H       12.92212318      28.98330515      16.07627936       0.14131345       0.04455577      -0.16928706
H       14.43594679      28.77894359      15.90160691      -0.15605633      -0.04535281      -0.13184539
O       -2.80995090       3.97114819       1.69396905      -0.27788504       0.30483335       0.71510526
H       -2.30185803       3.57081792       2.31646751      -0.35456788      -0.22873156      -0.13352239
H       -2.63738620       4.94840244       1.87958987       0.03614241      -0.19474998      -0.01874730
O        7.80623611     -14.02138807      10.96338033       0.71125435       0.25859268       0.06825302
H        7.00146986     -14.44999392      11.07844772      -0.69846522      -0.45304673      -0.17323948
H        8.17230537     -14.09996555      10.05808339       0.34378358      -0.34578343      -0.58871004
O       -2.45587116      10.55668079      24.35711527      -1.02562114      -0.05318651      -1.69512218
H       -2.00741493      10.04709355      23.53263631       0.06988427       0.01184488       0.34022512
H       -3.27241278      11.13391261      24.22750594      -0.27843001       0.28453093       0.35066324
O       20.05893032      21.74723534       1.55158848      -0.57828365       0.63931106      -0.30780318
H       20.00955430      22.22331989       2.40375903       0.05672720       0.53591890       0.46067871
H       19.80790995      20.79199112       1.38718357      -0.19494757      -0.26123988      -0.41425320
O       12.16035413      10.00765047     -15.91881011       0.44161421       0.62078992       1.02236934
H       12.69554752       9.31150817     -15.46990941       0.24005842      -0.39122100      -0.13662609
H       12.50426549      10.04245407     -16.86723816       0.42462389       0.16393091      -0.53432270
O      -11.40210060      22.28021992       1.05632948       0.41670399      -0.00906764      -0.15556087
H      -11.67952214      21.42456635       1.09751641      -0.55332946      -0.39545537      -0.18964117
H      -10.85254563      22.60723734       1.80042822      -0.08960924       0.41652132      -0.07835801
O        2.94923488     -15.03133710      16.12667657      -0.25714741      -0.05804533      -1.20559703
H        3.31155350     -15.72210444      16.65944393      -0.11944744      -0.12231687       0.39544248
H        3.57401771     -14.35603833      15.99158293      -0.00616633      -0.19765530      -0.05778168
O        2.42645973      16.34691747       0.37277706      -1.09110937      -0.75749640       0.06003909
H        1.98916832      16.11156611      -0.56819583      -0.05257992       0.49788972       0.25114887
H        2.88596248      15.52240622       0.63037832       0.25263995       0.19550292       0.25206219
O       -5.68779196      -7.29666622       5.59713066      -1.53801843      -1.20319466       0.55632338
H       -5.34985673      -7.95459800       6.20799365       0.16054364       0.62550112      -0.03119109
H       -5.05158715      -6.74930839       5.10820022       0.13736796       0.21362557      -0.37296098
O       -2.16198357       2.39528687       6.64726976       0.33584902       0.14858590       0.50718665
H       -2.06020506       3.34844335       6.89579243      -0.10322705       0.53267213      -0.12951863
H       -1.81338181       1.74544590       7.52823390      -0.05009541      -0.16134811      -0.16150077
O       13.17353142      -5.47777500      -1.45901783       1.13459616      -0.57089800      -0.61642659
H       13.96227206      -5.22490300      -1.95032120      -0.28016310      -0.21505250       0.32836785
H       12.92593845      -6.36135694      -1.69019031      -0.11720944      -0.77991413       0.31030615
O       11.82804326       4.89244393      22.73437916       0.24536731       0.22788392      -0.19208407
H       11.23415110       4.14708509      23.00460664      -0.12997520      -0.20593646       0.03006981
H       11.90177440       4.78933650      21.74905164       0.06863306      -0.35476013       0.10284544
O        8.17433434      14.49547904      23.80422988      -1.19873037       0.62044500       0.95361821
H        9.05482937      14.93844343      23.93172752       0.13369883      -0.03937373      -0.15898249
H        8.08956577      13.58510977      24.13564211      -0.05819452      -0.74570135       0.27334492
O       -8.07917552       7.01182435      11.41103080       0.98363516      -1.19723915       0.38824986
H       -7.33547345       6.57458999      10.98493197      -0.08807497       0.31232787      -0.19324234
H       -8.32515528       6.27513526      12.05216439      -0.02978616       0.49452454       0.13943883
192
Lattice="12.74771736587496 0.0 0.0 -5.291026590486946e-07 12.74771736587496 0.0 -5.291026590486946e-07 -5.291026590486946e-07 12.74771736587496" Properties=species:S:1:pos:R:3:momenta:R:3 step=70 time_fs=7.0 phase=equilibration pbc="T T T"
O       11.62912663       0.72687545     -16.49066820       1.26714559      -0.00945850       0.44012301
H       12.12908092       1.02621785     -15.69300661       0.40037936       0.26514290      -0.15337354
H       10.87269406       0.12332400     -16.52206413       0.24162474      -0.07099563      -0.04642794
O       26.37161013      24.79188029       4.90823377       0.15729539       0.45069469       1.60942651
H       26.78602320      23.91338056       4.60617448       0.27929298      -0.19510490      -0.13167008
H       25.56352863      25.05112132       4.46600584       0.18635482       0.08256387      -0.05643082
O        4.55396682      -0.31423972       6.62119530       0.03051568      -1.03394463      -0.89507136
H        5.00079820      -1.07454228       6.97839473       0.18732245       0.24354184      -0.42689554
H        4.21676082       0.16895522       7.42733983       0.23383630       0.10149258      -0.16932928
O       -2.86045561      -4.39530637       1.03323864      -0.16951360       0.90917096       1.02660920
H       -2.64155914      -3.76149666       0.40464146      -0.02129388      -0.06222655      -0.08180915
H       -3.70627575      -4.17215911       1.35455224      -0.25155170       0.12086664      -0.29377013
O        4.28034054      15.86909007      10.72054838       0.86269472       1.07831403      -0.10518190
H        4.26953435      16.71524401      11.19630078      -0.05569812      -0.27791520      -0.31007562
H        5.14356338      15.80458460      10.18542811       0.00106137       0.11893918      -0.30483132
O       -1.38329984       6.61391059       5.14249664       0.35448388      -1.13861314      -0.56413100
H       -1.48501042       6.35559502       4.21845909      -0.67887048       0.24750881       0.46622064
H       -0.54898798       7.06766968       5.19997658      -0.12982256       0.16977619       0.08028372
O       22.81675419      12.31820752       5.77853008       0.41310600       0.31262938       0.41796201
H       23.22417235      13.20186497       6.10465519       0.07409187       0.04000686       0.33372034
H       22.33530159      12.26267526       4.93426015      -0.61476937      -0.34190483      -0.21439557
O       -1.04467457     -15.75872742       6.80506271      -0.60048049      -0.39265023      -0.50755163
H       -0.54682079     -16.05920981       6.03035424      -0.22446805       0.06731894       0.21998659
H       -1.38410403     -14.86554657       6.54908947      -0.14935693       0.76163500      -0.02663804
O       15.47760057     -17.90430637       9.68008664       0.10327027      -0.23701167       0.19922130
H       16.15792474     -18.43414922      10.23050763       0.27904664      -0.27644655       0.14165751
H       15.60800954     -16.93005041       9.52149283      -0.12790176      -0.11282281      -0.24105825
O        3.27595686     -14.66193363     -13.34969963       0.26339467      -0.03316282      -0.24338158
H        4.20197382     -14.97202010     -13.23315284       0.56767845       0.27360216      -0.00584850
H        2.64583662     -14.98232633     -12.73427682       0.09875077      -0.11772558      -0.08380950
O       -5.74989253       1.59095221       2.85357359      -0.49635412       0.57249068       0.05262893
H       -6.50098656       1.13895268       2.33888358       0.10431187      -0.19350757       0.31418061
H       -5.42309303       2.43201974       2.48245658       0.06522867       0.34605952       0.11604038
O       -5.36230820      16.07341408      25.95268580       0.01674736       1.29648317      -0.98065394
H       -5.30462885      15.49868762      25.16914095       0.04316986       0.38519015      -0.28074494
H       -4.49067462      16.20651542      26.01115225       0.23051108      -0.54510543       0.15640654
O        7.46771612     -15.69897501      -8.49387008       0.24337686       0.71413598       2.00386539
H        7.93335699     -16.48702997      -8.22426404       0.52443506      -0.14600188       0.00804155
H        6.62876371     -15.55128171      -7.97777567       0.51319716       0.13444754      -0.47117709
O       13.66640029       8.55644556      17.96723080      -0.42355877       0.44156988       0.54251268
H       14.11020493       8.68004390      17.04630455      -0.00425284      -0.09805891       0.08631714
H       14.29594963       7.95582362      18.45340947       0.14345352      -0.01320190       0.20807821
O       -0.15573147       1.20846879      -1.21546331      -0.11367899       0.88848309       0.79641159
H        0.82280629       1.39252459      -1.23564587       0.02810904       0.00787260      -0.14982795
H       -0.36434735       0.34999319      -0.78753941      -0.58587099      -0.31785435      -0.11199215
O      -14.16854288      12.66038779      15.77758835       1.16182346      -0.15779803      -1.65817094
H      -13.92862585      12.34127551      14.89657857       0.19492032       0.13185958       0.59060400
H      -15.03869521      12.25201946      16.11547255      -0.13169211      -0.08554332       0.23672135
O      -16.42045539       5.91322544      12.33172076       1.55233539      -0.21300741      -0.70758540
H      -16.97751976       6.05243283      11.58490513       0.26957381       0.09727360       0.14038237
H      -16.21103701       6.87162271      12.35801956      -0.28532927       0.95947471      -0.27483231
O       -9.95075889      32.92618455      -9.57949336      -0.27986373      -0.36120265      -0.16149535
H       -9.23023402      32.30375382      -9.33584029       0.42094701       0.05480811      -0.13664940
H      -10.66190664      32.30538430      -9.94162932      -0.52677037      -0.27155220      -0.08480556
O       34.75661967      11.50679122      21.39260927       0.78683451       0.05896763      -0.70656764
H       34.75811205      11.58532761      20.47583543      -0.12538538       0.27475773      -0.61435810
H       35.23285070      10.61140435      21.56993227       0.24691205      -0.37602099       0.34049783
O       30.39751099     -12.66076800       2.15879631       0.33004446       1.09697687      -0.80256508
H       29.67746050     -12.16406003       2.52630184      -0.32281413       0.00395464      -0.03638052
H       30.20461695     -12.61545633       1.24293415      -0.19808406       0.06546017       0.17974521
O       17.58494171       9.30893398      -7.43535825      -0.04707962      -0.16657420       0.05678345
H       17.43591138       8.35022252      -7.70480213      -0.53667740      -0.57434798      -0.47141705
H       17.43987264       9.54582458      -6.52448054       0.05757537       0.03469401      -0.18604364
O       -5.16584448       2.59250551      32.18640668       0.82845494      -0.79780226       0.44681905
H       -5.76927763       2.09831852      31.73635851      -0.05310821      -0.22118867       0.22216555
H       -4.40934925       2.08596902      32.46387643       0.14203452       0.33227891       0.37030019
O        3.78385802       0.86594460      -0.23616864       1.68123462       0.53190701      -0.18913045
H        3.49445398      -0.05632510      -0.32374346       0.06382154       0.04797071      -0.12736062
H        4.14324808       1.07808701      -1.05832599       0.01441244      -0.40395394       0.32762533
O       23.22556807       3.22895815      11.65945562      -0.64734875      -0.06414309      -0.45934628
H       23.17736914       3.60015500      12.63035628       0.33985077       0.05595976       0.58854980
H       23.82255198       2.46436321      11.76905139      -0.27729456      -0.21028919       0.09315039
O       -1.43427479      31.81930429      15.02939217       0.72326456       0.51072112       0.78439964
H       -2.01795053      32.45623085      14.50053322      -0.30420937      -0.06632059       0.05103963
H       -0.60696793      31.88094648      14.50577321      -0.18812635      -0.36604673       0.31812613
O        4.82595468      19.38953765       5.20897716       0.06428333       0.12680519      -0.10380919
H        4.08437471      18.92444618       5.74890325      -0.36834462      -0.12422285       0.04432206
H        5.64036879      18.94057484       5.23856721      -0.27227156       0.06557779       0.02435714
O      -10.15677355      10.49392872       9.47888766      -1.07941188       0.54014814       1.27811437
H      -10.77538190      10.88678266       8.83863856      -0.65428482       0.08936866      -0.18985623
H      -10.52452581      10.81614879      10.29399631       0.39093129      -0.34432464      -0.14576747
O       17.69238252      17.75654807      26.16106825      -0.51474432       0.20755660      -1.46696366
H       18.53213352      17.27086816      26.02112068       0.14505759      -0.26836120       0.12364373
H       16.88835326      17.28924698      26.09418481       0.01046662      -0.02896634       0.12432432
O        6.93339203      18.70978956      10.13881565      -0.02306983      -0.02972915       0.31435209
H        7.23109196      19.27161344       9.41995796       0.03545496      -0.28368820      -0.04441700
H        6.65627150      17.92306322       9.58838002      -0.18379365      -0.25492924       0.00884714
O       -0.63076509     -13.79719127      13.26442591      -0.54847803       0.45152157       0.04829984
H       -1.42028656     -14.13520173      12.76045102      -0.16675537      -0.39847680       0.14183136
H       -0.11149989     -14.60188608      13.58397956       0.19714830      -0.45421464      -0.18111300
O        1.14735013       6.12742465       1.10987788      -0.36700544      -1.69283261       0.59671711
H        1.56013393       5.32401087       1.07949609       0.33040556      -0.53802831       0.03181299
H        0.96333046       6.30508887       0.20487242       0.11959480       0.38401317       0.22574836
O        3.12820934       1.31740496       8.36684234       1.74515198      -0.19239287       0.62777700
H        2.20724081       1.01745249       8.26062582      -0.77730571       0.04450357      -0.12260896
H        3.33460397       1.48403245       9.33734506       0.34389773      -0.26271464       0.10840489
O      -18.83495370      28.81778421     -16.16196146       0.18314753       1.00062405      -0.50394446
H      -18.71541881      28.95833285     -17.16646342      -0.07257742       0.40999439      -0.52652871
H      -18.13405766      28.30029239     -15.60777565       0.29534113      -0.06362115       0.71588853
O        2.89273227      26.87321642      -9.11171725       0.48376515      -1.06499119       1.60468801
H        3.57963770      26.91510776      -8.26184139      -0.67733169      -0.01048423      -1.18021453
H        2.23765774      26.19361461      -8.80454138       0.19858729       0.80772956      -0.18731789
O      -18.08267876      19.01405939       1.92712518      -0.88477581      -0.64771760       0.96036373
H      -17.43547811      18.84911053       1.14785216       0.32372915      -0.06398103      -0.50126462
H      -18.88402400      18.49479519       1.70942994      -0.65820673      -0.14865447       0.08165282
O       11.70320589      17.57454491       7.06358927       0.30112901      -0.02752309      -0.50557481
H       12.59094618      17.30422477       6.71568388       0.08518118      -0.15510898       0.19632616
H       11.23367183      18.27178838       6.57888903      -0.41711241      -0.09588648       0.10672653
O       -7.22696832     -11.20861195       5.17887115       0.09439868      -0.51416420      -0.81244029
H       -6.50838451     -11.26943558       4.56306697      -0.16521241       0.18122416      -0.09884585
H       -7.37496079     -12.05572440       5.61250592      -0.19007496      -0.06905511       0.44574198
O      -24.14052243       3.40202758      10.70359612      -1.33362959      -1.45079962       0.33657294
H      -24.80990742       4.06924646      10.44009203      -0.32326516      -0.04362658      -0.16265871
H      -23.33265542       3.74806146      10.32306265       0.56062695       0.23320571      -0.27241103
O      -11.42993793      -8.21632946      18.46060262       0.06352338      -0.99170106      -0.33454909
H      -10.65830316      -8.49065962      18.89238886      -0.08074072       0.06756958       0.13422583
H      -11.40573876      -8.37674149      17.55353577      -0.24026523       0.29957437       0.30423398
O        8.59618133       7.34091897      16.91650924      -1.43080173       0.44486907      -0.62180394
H        9.59645124       7.31534735      16.79602701       0.14414330      -0.06783128       0.14162149
H        8.19329201       6.77511474      16.25791160      -0.22049460       0.17348469       0.18025294
O      -11.63730154      -0.47748840      20.43075537       0.62025525       0.07374537       1.05248827
H      -12.52949781      -0.27976813      20.74976963       0.07517160       0.10477427      -0.14026842
H      -11.78136583      -0.60593801      19.45520762      -0.45726222      -0.22585341      -0.36821469
O       24.16910190       2.47299847      16.22644655      -0.64730507       0.79913606      -0.07300693
H       23.87926901       2.52562058      17.12180536       0.06057586       0.09844645       0.01216323
H       23.97734904       1.75869499      15.65580958       0.02561745      -0.13135611      -0.76241496
O       -5.67597197     -17.95035784      -5.02533475       0.06232681       0.63220659      -0.78730705
H       -4.74837821     -17.86040404      -4.86636734      -0.18726942      -0.37096135      -0.60566984
H       -5.69096358     -18.66367838      -5.61900428       0.23841815      -0.15256029      -0.10622117
O       29.46573177      -8.98317628      -6.14371705      -1.47939457       0.56233682       0.09583890
H       30.23884394      -8.97997069      -6.77877619       0.39621392       0.18581110       0.01116266
H       29.11953628      -9.80209903      -5.95497791      -0.34438752       0.43415445       0.13052578
O        8.81385187      -0.66943561       3.41541821      -0.19499378       0.57465156       0.56757059
H        8.27116436      -0.04039834       2.89395037       0.24507117       0.01204887       0.09975647
H        8.28452989      -1.50858867       3.65783446       0.12850723      -0.13014962      -0.06056563
O      -19.77335426      -3.14614171      24.77142976      -0.11165317       1.13987411      -0.07083847
H      -20.10970470      -4.00300845      24.27337456       0.10408472      -0.43268112      -0.06036117
H      -19.18436179      -3.45167183      25.58570002       0.24102641      -0.17916179       0.25667339
O        2.39838698      -5.80067515      -6.03027018       1.67776930       0.74223487       0.63179288
H        2.45903567      -5.60822135      -5.12933408      -0.50032968      -0.36318410      -0.29456414
H        1.94547423      -6.57515320      -6.21630317       0.21033603       0.05866242       0.12937209
O        9.83993725       8.27796221       7.94750612       0.46447438      -0.61054821       0.14364313
H       10.55264365       8.51652520       7.31599322      -0.13037022       0.01508663      -0.08888316
H       10.17117064       7.49635816       8.41087272      -0.37903487      -0.09487080      -0.06977787
O        5.35979621       9.74992035      -4.82880738       0.32656537       0.07762823      -0.62119302
H        6.16088976       9.12507788      -4.78667881       0.34438276      -0.14546881      -0.05166967
H        4.80708405       9.66543049      -4.01808346       0.06812058       0.02372952      -0.23031643
O       13.76031826      29.46150592      15.87385816      -0.83283173      -0.42985396       0.11854825
H       12.93846810      28.98951845      16.05690339       0.17473592       0.08740844      -0.21357161
H       14.42299489      28.77310487      15.88807841      -0.09363825      -0.06380069      -0.13780580
O       -2.81218958       3.97415097       1.69747806      -0.47198541       0.67810346       0.44227065
H       -2.32257771       3.53219664       2.31925181      -0.07874665      -0.55916939       0.18517735
H       -2.63490384       4.92342290       1.87472916       0.01832806      -0.29014200      -0.07526344
O        7.81095466     -14.01920668      10.96309761       0.80442504       0.27561404      -0.08186745
H        6.92955158     -14.49675839      11.06100247      -0.66940703      -0.46087645      -0.19447664
H        8.20026476     -14.13279737      10.00749753       0.21728218      -0.33349590      -0.41061754
O       -2.46222403      10.55621336      24.34550434      -1.05653515      -0.01410812      -1.87325544
H       -2.00606626      10.05580361      23.57484751      -0.05104800       0.17755252       0.53999239
H       -3.28934820      11.15176556      24.26090092      -0.07187872       0.08806572       0.34106819
O       20.05469839      21.75033496       1.54974716      -0.63155160       0.56382848      -0.25273776
H       20.01360556      22.26634989       2.44001124       0.03890369       0.34005188       0.25512601
H       19.79055112      20.77729621       1.35382601      -0.14755768      -0.01813128      -0.26379676
O       12.16330582      10.01077255     -15.91245541       0.64006726       0.46548791       0.91302798
H       12.71273725       9.28056319     -15.48825142       0.10594470      -0.22064130      -0.25871943
H       12.53955895      10.05697354     -16.90792116       0.30226403       0.13684017      -0.30293941
O      -11.39877046      22.28070022       1.05537350       0.53754980       0.27493795      -0.14677742
H      -11.73673831      21.37294779       1.08013574      -0.59172723      -0.55817012      -0.16400501
H      -10.86415996      22.64409537       1.78994113      -0.15745058       0.34180079      -0.13666801
O        2.94688589     -15.03169735      16.11880274      -0.46738626      -0.21680251      -1.19814408
H        3.30151748     -15.73543779      16.69996092      -0.09819453      -0.12888409       0.42061002
H        3.58206631     -14.36650264      15.98330994       0.17122498      -0.03046656      -0.10288177
O        2.41964795      16.34130086       0.37245247      -1.10987035      -0.91593372      -0.15674066
H        1.99078220      16.16377473      -0.52654263       0.08568392       0.57586461       0.59391460
H        2.90508660      15.54744564       0.65408194       0.14320898       0.31705632       0.23375512
O       -5.69697969      -7.30352954       5.60002460      -1.49985931      -1.04438826       0.38748675
H       -5.33043157      -7.89510166       6.20670822       0.25095780       0.55778524       0.04061893
H       -5.04056817      -6.73312284       5.07691134       0.06349850       0.09579837      -0.24863685
O       -2.15953700       2.39644475       6.65107746       0.44157516       0.27401830       0.78964570
H       -2.06975609       3.38503602       6.88005686      -0.09514782       0.19478961      -0.19334554
H       -1.82197094       1.73819593       7.50307708      -0.12625286       0.01176479      -0.34700867
O       13.17987059      -5.48137874      -1.46238313       0.98413522      -0.72509898      -0.47843790
H       13.94162471      -5.24501862      -1.92351575      -0.09609806      -0.19034344       0.19382911
H       12.91368390      -6.43518673      -1.66080195      -0.10796354      -0.67369372       0.30309887
O       11.82911096       4.89309296      22.73216445       0.19619119       0.01770692      -0.31981376
H       11.22545956       4.13435018      23.00648013      -0.03652111      -0.04548816       0.02034413
H       11.90706313       4.75719865      21.76439186       0.04865368      -0.30084461       0.21178175
O        8.16700292      14.49869428      23.80972157      -1.11136553       0.50939295       1.05915223
H        9.05989220      14.92875725      23.91614812      -0.03418318      -0.15432745      -0.14869653
H        8.08677876      13.52396325      24.15647324       0.00764830      -0.45947723       0.14976610
O       -8.07322423       7.00385699      11.41361215       0.88828213      -1.30290935       0.53417770
H       -7.33667543       6.60403677      10.95890342       0.06658365       0.28900778      -0.33942995
H       -8.32746728       6.32909126      12.06413767      -0.02957159       0.58920032       0.13395434
192
Lattice="12.747280654031913 0.0 0.0 -5.290845330273245e-07 12.747280654031913 0.0 -5.290845330273245e-07 -5.290845330273245e-07 12.747280654031913" Properties=species:S:1:pos:R:3:momenta:R:3 step=80 time_fs=8.0 phase=equilibration pbc="T T T"
O       11.63681149       0.72691497     -16.48744151       1.37749731       0.03823784       0.42603314
H       12.16063592       1.04652703     -15.71135336       0.25392740       0.15086643      -0.23144517
H       10.89858644       0.11787516     -16.52268668       0.28832275      -0.04790243       0.02346716
O       26.37211600      24.79297235       4.91790618       0.30970449       0.17320857       1.59444072
H       26.80506576      23.90783956       4.59685556       0.12808553       0.10178369      -0.05401529
H       25.58120646      25.05659464       4.45933171       0.18766104       0.04988952      -0.08029522
O        4.55346915      -0.32019451       6.61577676      -0.15368225      -0.89527183      -0.81168040
H        5.02339031      -1.05698474       6.93866318       0.29248210       0.09671575      -0.37479577
H        4.23942870       0.17875122       7.40676342       0.23085311       0.10396949      -0.23967184
O       -2.86098888      -4.39033337       1.03988748      -0.06080342       0.68558685       1.14571035
H       -2.63747493      -3.75733532       0.38505687       0.09702460       0.12819742      -0.30281934
H       -3.74319995      -4.15725942       1.33083211      -0.47617125       0.17391792      -0.20450723
O        4.28615517      15.87509780      10.71908496       1.07810204       1.00868255      -0.27806983
H        4.26525715      16.68886812      11.16512696      -0.03307521      -0.20265049      -0.29372728
H        5.13325803      15.81675431      10.16218731      -0.21005755       0.13883826      -0.16455979
O       -1.38123264       6.60655139       5.13913664       0.31552634      -1.17097350      -0.42548135
H       -1.55245374       6.37856484       4.25817539      -0.71085711       0.21633446       0.30753022
H       -0.55715322       7.08848702       5.20842336      -0.04458584       0.25942675       0.09442062
O       22.81871128      12.32023683       5.78087286       0.46599158       0.48310099       0.39089757
H       23.22315781      13.19536251       6.13179716      -0.08199046      -0.16790801       0.22163973
H       22.27856947      12.23152050       4.92367056      -0.51616447      -0.28412586       0.02568172
O       -1.04852836     -15.75990429       6.80160547      -0.68824036      -0.13673903      -0.52205462
H       -0.56588075     -16.05371281       6.05036197      -0.15391043       0.02794637       0.17171062
H       -1.39517593     -14.79994673       6.54905566      -0.07180408       0.55029343       0.03193943
O       15.47800831     -17.90506312       9.68129733       0.20143478      -0.22173317       0.30386433
H       16.17678710     -18.44963403      10.23636372       0.11775708      -0.05236783      -0.01546994
H       15.59552681     -16.94940117       9.50119975      -0.11469608      -0.28545092      -0.16882473
O        3.27809923     -14.66156003     -13.35073151       0.49904393      -0.01251441      -0.24233374
H        4.24891718     -14.94316020     -13.23424361       0.37120050       0.31327977      -0.02858646
H        2.65247994     -14.99554113     -12.73848457       0.03757009      -0.16615579      -0.00966220
O       -5.75295866       1.59443762       2.85360234      -0.55126032       0.59850813      -0.00569048
H       -6.48126304       1.12726032       2.37268721       0.28620164      -0.05041028       0.37183914
H       -5.42245896       2.45696884       2.49528316      -0.06139117       0.15530671       0.15314528
O       -5.36354411      16.08067800      25.94551722      -0.42813999       1.25962597      -1.06223168
H       -5.30059116      15.53560788      25.14039006       0.03194105       0.38116052      -0.29329435
H       -4.44463585      16.15620189      26.02969419       0.66437289      -0.48220046       0.24224074
O        7.46883641     -15.69394713      -8.48136161       0.30175599       0.70275327       1.94040308
H        7.98364643     -16.50207833      -8.22271356       0.48873666      -0.14002644       0.00748092
H        6.68042687     -15.53966832      -8.02432196       0.47984761       0.10616748      -0.44389607
O       13.66417617       8.55864569      17.96918220      -0.15093460       0.36659765       0.30849180
H       14.10049746       8.66828440      17.07195939      -0.18036490      -0.13420360       0.43822967
H       14.30102183       7.96166483      18.46870059      -0.03209485       0.14018042       0.11722687
O       -0.15616867       1.21359001      -1.21040613      -0.04362378       0.77588892       0.84288402
H        0.81393810       1.38809983      -1.24901542      -0.20641402      -0.09999964      -0.12348961
H       -0.41607239       0.32612271      -0.80129572      -0.46465684      -0.15274328      -0.17744174
O      -14.16165805      12.65882993      15.76742995       0.89762637      -0.18462422      -1.40524473
H      -13.90726716      12.35085093      14.94788436       0.25397852       0.04776292       0.40492912
H      -15.03578248      12.24968215      16.13070005       0.18615496       0.04865736       0.08467800
O      -16.40995688       5.91242600      12.32746321       1.69594309       0.04856533      -0.52805636
H      -16.95704043       6.06109961      11.58935239       0.13028040       0.08531143      -0.05499491
H      -16.23912023       6.95352174      12.33160042      -0.30528212       0.69324467      -0.25650097
O       -9.95235983      32.92188076      -9.58030947      -0.34805680      -0.68752830      -0.21062616
H       -9.19583377      32.31396264      -9.35106015       0.25699624       0.18626966      -0.18803646
H      -10.70159396      32.28653296      -9.94480692      -0.27825439      -0.08689784       0.02050926
O       34.76081957      11.50584020      21.38812018       0.96676587      -0.23201042      -0.59702911
H       34.74405571      11.61261092      20.40946261      -0.13179263       0.27577198      -0.64050178
H       35.24758423      10.58834337      21.59775066       0.07726826      -0.08067047       0.23161114
O       30.39863605     -12.65364179       2.15433516       0.34477829       1.10116370      -0.61438281
H       29.64018019     -12.16003841       2.53006669      -0.39248764       0.05052362       0.10126587
H       30.18283366     -12.60851113       1.24194820      -0.22556098       0.06770245      -0.19336366
O       17.58396150       9.30687687      -7.43526031      -0.07988947      -0.41012967      -0.12583267
H       17.38529068       8.30606638      -7.74506286      -0.48542238      -0.32065173      -0.35820088
H       17.44597297       9.54849368      -6.53781442       0.07724947       0.03257933      -0.07556936
O       -5.15990797       2.58850722      32.18877718       1.01744621      -0.50237086       0.66120186
H       -5.79101796       2.06344356      31.74466059      -0.35439735      -0.46671423       0.00070963
H       -4.39163073       2.11686272      32.50084203       0.20408961       0.30483544       0.40384638
O        3.79367836       0.86857576      -0.23615427       1.54478619       0.32934546       0.20979839
H        3.50004894      -0.05490111      -0.33402167       0.05328585      -0.01535714      -0.08219599
H        4.15424465       1.04462104      -1.04377628       0.22580839      -0.27679329      -0.05320074
O       23.22099095       3.22842710      11.65721793      -0.58109607      -0.07873310      -0.14721802
H       23.20891925       3.60192320      12.67576896       0.32058513      -0.01153012       0.36406037
H       23.79143641       2.44688330      11.77587135      -0.34289239      -0.14431415       0.05382006
O       -1.43013245      31.82170741      15.03326667       0.58019591       0.62344351       0.66454971
H       -2.04217061      32.44374008      14.51013405      -0.18997359      -0.16638823       0.15530924
H       -0.62213298      31.84252908      14.53628405      -0.09620172      -0.39769251       0.29864945
O        4.82483795      19.38957096       5.20851551      -0.39259841       0.10717849       0.01151890
H        4.06050318      18.91848666       5.74603510      -0.11618067       0.01579112      -0.09962869
H        5.61984379      18.94162905       5.24131943      -0.12899070      -0.04082368       0.03670018
O      -10.16320933      10.49677418       9.48555656      -1.13884735       0.50396334       0.93832305
H      -10.83458250      10.89308720       8.82009474      -0.54454707       0.03586872      -0.16068642
H      -10.48691974      10.78510508      10.29148340       0.35871672      -0.27126598       0.13942690
O       17.68945466      17.75756706      26.15097807      -0.23439011       0.31126007      -1.52833861
H       18.53890068      17.24468650      26.03471437      -0.00490526      -0.24839388       0.17447106
H       16.88295630      17.27969289      26.10595354      -0.10245812      -0.15242761       0.13615781
O        6.93268905      18.70842487      10.14010005      -0.13323197      -0.21932692       0.21557348
H        7.23606790      19.24815426       9.41378390       0.07379070      -0.18113921      -0.07982593
H        6.64088427      17.89973862       9.59613345      -0.12240932      -0.20187398       0.16238525
O       -0.63427573     -13.79485870      13.26424530      -0.60587212       0.13963135       0.03631140
H       -1.42708402     -14.17046020      12.77801522       0.03442683      -0.32730961       0.23171478
H       -0.09811930     -14.63429215      13.56105961       0.07451360      -0.21263039      -0.27919141
O        1.14470046       6.11746866       1.11413962      -0.45023293      -1.54785438       0.79309175
H        1.59880707       5.25699428       1.08406235       0.42360978      -0.76048014       0.05851952
H        0.97009302       6.34727738       0.21458599       0.02492567       0.47794317      -0.01230740
O        3.13844005       1.31609080       8.37104370       1.59314216      -0.23043854       0.83272802
H        2.14109874       1.02255269       8.24912230      -0.54409459       0.06890493      -0.10100248
H        3.36513158       1.45526539       9.33309724       0.28000142      -0.32665015      -0.19351721
O      -18.83268737      28.82281729     -16.16491370       0.34251908       0.96431605      -0.64832995
H      -18.71865070      28.99107468     -17.19822138      -0.00120107       0.27671789      -0.12012395
H      -18.11453423      28.30182977     -15.55028975       0.09148029       0.11965670       0.44035557
O        2.89616643      26.86542851      -9.10063160       0.69083429      -1.09132405       1.78677704
H        3.50648632      26.91358078      -8.38955859      -0.75346174       0.01271137      -1.36451979
H        2.25619821      26.27523273      -8.82512657       0.09210435       0.79382232      -0.20879637
O      -18.08735631      19.00912126       1.93215086      -0.86556437      -0.76258796       0.68954106
H      -17.41461237      18.84309231       1.10876843       0.08733772      -0.04792202      -0.29561526
H      -18.93863218      18.48474172       1.71877489      -0.44616314      -0.02953334       0.11386531
O       11.70485571      17.57365219       7.06008113       0.35718185      -0.06587028      -0.55493973
H       12.59157597      17.29285514       6.73635739      -0.05920533      -0.06536497       0.22756290
H       11.19700622      18.25857083       6.59016055      -0.32167132      -0.16404600       0.12927472
O       -7.22628927     -11.21124405       5.17400079       0.04191547      -0.48431718      -0.70224811
H       -6.52050578     -11.25359015       4.54725587      -0.08820434       0.13303194      -0.22065572
H       -7.39072849     -12.05913930       5.65339672      -0.12992302       0.01065831       0.38300707
O      -24.14782066       3.39349052      10.70493898      -1.27859658      -1.25860658       0.19762909
H      -24.83888120       4.06236591      10.42524869      -0.26217742      -0.11112376      -0.12941958
H      -23.28200936       3.76765386      10.29780361       0.40478672       0.15317739      -0.21448635
O      -11.42981134      -8.22163464      18.45872744      -0.13764009      -0.83150469      -0.05039075
H      -10.65284689      -8.48815838      18.91168813       0.17201422      -0.01800386       0.26410587
H      -11.42935407      -8.35019026      17.56364665      -0.24990207       0.23776208      -0.09517543
O        8.58784835       7.34352036      16.91231075      -1.18048119       0.49126371      -0.54525533
H        9.59746756       7.30796033      16.81191973      -0.11869496      -0.07781143       0.19333451
H        8.17047231       6.79043218      16.26791146      -0.24685341       0.13774932       0.02429933
O      -11.63319393      -0.47709723      20.43595925       0.58763949       0.04414198       0.85369540
H      -12.52320813      -0.26727004      20.73838093       0.04110822       0.15441818      -0.07487419
H      -11.82245612      -0.62755146      19.42468219      -0.38848713      -0.21538776      -0.22667219
O       24.16458136       2.47832473      16.22492300      -0.56739231       0.91468536      -0.27150225
H       23.88005042       2.53323826      17.12858355      -0.02626677       0.05617231       0.12537275
H       23.97784838       1.74197820      15.58230925       0.01231928      -0.16301695      -0.69007749
O       -5.67595679     -17.94534164      -5.02963089      -0.13700018       0.76328646      -0.70271392
H       -4.75156015     -17.88907457      -4.91987296       0.13156217      -0.23162565      -0.49588406
H       -5.67317195     -18.69033244      -5.63983200       0.12509778      -0.36881042      -0.29263132
O       29.45657529      -8.97812544      -6.14369234      -1.16376103       0.98681363      -0.16301134
H       30.26517379      -8.96310188      -6.76804850       0.15419620       0.15062447       0.20989023
H       29.07915879      -9.77686405      -5.93846097      -0.46370566       0.07551188       0.20399652
O        8.81184259      -0.66643321       3.41860602      -0.34097276       0.37902270       0.52178736
H        8.29382812      -0.04200183       2.90806272       0.20794181      -0.02493298       0.17500327
H        8.30113208      -1.51004217       3.64986565       0.21549275       0.09629373      -0.09793452
O      -19.77315479      -3.14040465      24.77038090      -0.04013361       0.68891216       0.00328136
H      -20.09104920      -4.02873836      24.27859346       0.26191122      -0.09429349       0.18515458
H      -19.17102464      -3.46299079      25.59630955       0.01841053      -0.05296631      -0.02147340
O        2.40930724      -5.79520169      -6.02700898       1.89585201       0.95281074       0.33724050
H        2.41109111      -5.63821405      -5.13829006      -0.48065848      -0.24778865       0.13498583
H        1.95511210      -6.58794722      -6.20921647      -0.00063534      -0.31127857       0.00964429
O        9.84255717       8.27386549       7.94797044       0.48687249      -0.61904412       0.09380738
H       10.53700237       8.51914929       7.30977783      -0.17723352       0.04378976      -0.03647282
H       10.13351935       7.48705808       8.40453017      -0.37921663      -0.10155239      -0.04933734
O        5.36199067       9.74955866      -4.83226469       0.46671554      -0.08627345      -0.58194166
H        6.18417856       9.11619363      -4.79117047       0.13429077      -0.02914302      -0.04448545
H        4.81778731       9.66688854      -4.04621183       0.13861771       0.01048167      -0.32628197
O       13.75476344      29.45797874      15.87401865      -0.79525938      -0.37672713       0.10766343
H       12.95001722      28.99611677      16.03507529       0.04622079       0.05570164      -0.21603512
H       14.41764587      28.76438125      15.87353765      -0.00665517      -0.09351788      -0.15053726
O       -2.81538647       3.97864267       1.69949087      -0.57425190       0.76615351       0.26444052
H       -2.32125724       3.46535153       2.34751545       0.06843825      -0.77241771       0.35285171
H       -2.63227247       4.89715269       1.86603084       0.04235326      -0.21794044      -0.09449461
O        7.81498038     -14.01757197      10.96161906       0.58128200       0.08905223      -0.28414076
H        6.88201961     -14.53287381      11.03900051      -0.28720873      -0.28237727      -0.24686423
H        8.21289501     -14.16355173       9.98026989       0.04556826      -0.30439645      -0.13461575
O       -2.46864858      10.55588187      24.33290542      -1.07454523       0.04102265      -1.91198912
H       -2.01688231      10.07974906      23.63332973      -0.15402397       0.29609223       0.63528202
H       -3.28769443      11.15137246      24.29108836       0.09331204      -0.08097488       0.28892003
O       20.04993300      21.75285077       1.54850515      -0.69870596       0.49718879      -0.13484746
H       20.01596170      22.28662040       2.45122269       0.02285590       0.08951354      -0.02360477
H       19.77826737      20.78829545       1.33654932      -0.08953317       0.26105622      -0.08635569
O       12.16754231      10.01265443     -15.90655435       0.87408543       0.25993500       0.83367922
H       12.71412751       9.26969734     -15.52010339      -0.06787918       0.00348599      -0.40309227
H       12.56240274      10.06819890     -16.92598729       0.17642124       0.09964129      -0.08510164
O      -11.39516671      22.28145813       1.05442706       0.48839373       0.18549607      -0.15780814
H      -11.78833090      21.32855100       1.06604260      -0.45674218      -0.29876878      -0.12115696
H      -10.88271212      22.67112411       1.77392282      -0.22855495       0.22625238      -0.18590601
O        2.94358039     -15.03322651      16.11120282      -0.55032517      -0.44384805      -1.08659358
H        3.29035357     -15.74128367      16.73620120      -0.13390610       0.01612684       0.31832103
H        3.60477451     -14.36397139      15.97124512       0.27605515       0.04929898      -0.12776022
O        2.41277254      16.33501922       0.37124723      -1.08252666      -0.91253835      -0.16675849
H        2.00242211      16.22047026      -0.46063721       0.11907766       0.58355977       0.68063540
H        2.91508776      15.58010297       0.67640849       0.07582310       0.34395556       0.23163271
O       -5.70587088      -7.30867055       5.60117788      -1.45892823      -0.70283940       0.04096040
H       -5.29851817      -7.84939344       6.22005416       0.40275645       0.37058476       0.24680092
H       -5.04145464      -6.73230291       5.06144989      -0.09136892      -0.08743633      -0.06129932
O       -2.15644914       2.39858489       6.65650820       0.53996360       0.43853218       1.05025879
H       -2.07846313       3.38497260       6.85788152      -0.08257147      -0.18445897      -0.25248051
H       -1.83775418       1.74759212       7.46067472      -0.20018290       0.18685946      -0.51989691
O       13.18436244      -5.48685881      -1.46465770       0.61502289      -1.13305114      -0.27335950
H       13.94758659      -5.26058098      -1.91568452       0.23416706      -0.13343060      -0.03878592
H       12.90624049      -6.48527565      -1.63029416      -0.03137319      -0.34707668       0.32019259
O       11.82967596       4.89235511      22.72930394       0.11753179      -0.19872982      -0.33563679
H       11.22656082       4.13837156      23.00758742       0.06422345       0.12832440       0.02300160
H       11.91119555       4.73042670      21.78528629       0.04872397      -0.24668028       0.20771400
O        8.16022954      14.50069995      23.81585369      -1.01175179       0.30142467       1.20250644
H        9.04730273      14.90772677      23.90117272      -0.20832025      -0.26012513      -0.14178406
H        8.09032404      13.49611096      24.16252692       0.06829630      -0.10969431      -0.00731576
O       -8.06760214       6.99576620      11.41656058       0.87618534      -1.23403403       0.52009417
H       -7.32304376       6.63037063      10.91891865       0.19031226       0.25984335      -0.45975053
H       -8.33188602       6.38417784      12.08210047      -0.07187482       0.52247494       0.26301390
192
Lattice="12.746722917133367 0.0 0.0 -5.29061383778906e-07 12.746722917133367 0.0 -5.29061383778906e-07 -5.29061383778906e-07 12.746722917133367" Properties=species:S:1:pos:R:3:momenta:R:3 step=90 time_fs=9.0 phase=equilibration pbc="T T T"
O       11.64525668       0.72736741     -16.48419251       1.54674486       0.12335320       0.39092985
H       12.17781725       1.05566575     -15.73568027       0.11381730       0.04059845      -0.27212783
H       10.92603485       0.11241815     -16.51599319       0.27441536      -0.07194294       0.09960204
O       26.37341604      24.79205737       4.92741786       0.49082772      -0.11262418       1.57386528
H       26.80887839      23.93118689       4.59538592      -0.02330340       0.39427608       0.02675709
H       25.59718787      25.05936533       4.44939136       0.16165105       0.03167811      -0.12227501
O        4.55167939      -0.32521082       6.61056569      -0.35905211      -0.75784132      -0.80006379
H        5.05833139      -1.05667287       6.90546201       0.42469648      -0.08222052      -0.30234472
H        4.26091191       0.18999651       7.38187180       0.21212064       0.13040639      -0.25429309
O       -2.86131985      -4.38610517       1.04703035      -0.11284885       0.67162258       1.17049802
H       -2.62484043      -3.74170206       0.35149710       0.14298495       0.15387824      -0.34577560
H       -3.79049509      -4.13980151       1.31172276      -0.45280467       0.17147178      -0.20101951
O        4.29318447      15.87977714      10.71607892       1.26090621       0.71984461      -0.55263211
H        4.26181544      16.68224635      11.14264756      -0.03848531       0.10703983      -0.14314304
H        5.10317748      15.82969873      10.15183720      -0.38775578       0.13714457      -0.04914022
O       -1.37910219       6.59916075       5.13723342       0.37703252      -1.13428499      -0.11237079
H       -1.62377073       6.39614467       4.27337995      -0.75095883       0.15117506       0.00720221
H       -0.56031842       7.11616615       5.21716455      -0.03973751       0.30359461       0.08365223
O       22.82060744      12.32310551       5.78280912       0.47071303       0.61321412       0.32191126
H       23.20623422      13.16804790       6.14659921      -0.24035772      -0.37235119       0.08832205
H       22.23483824      12.20702183       4.94028589      -0.35737644      -0.20528525       0.31510498
O       -1.05319976     -15.75905097       6.79838901      -0.85479046       0.19177761      -0.41345244
H       -0.57464469     -16.05352411       6.05953970      -0.02013343      -0.04093498       0.01014236
H       -1.39793933     -14.75822500       6.55414950       0.01231510       0.29299117       0.07424368
O       15.47882936     -17.90590133       9.68309305       0.28287084      -0.33774198       0.42406559
H       16.17975192     -18.44294005      10.22684492      -0.04053885       0.17190389      -0.16887590
H       15.58514211     -16.98015195       9.48724643      -0.08008817      -0.32951979      -0.11507624
O        3.28192167     -14.66097459     -13.35159329       0.78629638      -0.00836585      -0.22161680
H        4.27169514     -14.90977007     -13.23791712       0.09749414       0.35576864      -0.05853364
H        2.65344634     -15.01338544     -12.73568470      -0.00785395      -0.20994496       0.04891042
O       -5.75597399       1.59832738       2.85346370      -0.48710803       0.70095098       0.02470719
H       -6.44871900       1.12676825       2.40835162       0.34293360       0.02128085       0.34206765
H       -5.43478242       2.46198105       2.51198241      -0.19294024      -0.04066282       0.18741846
O       -5.36629670      16.08769326      25.93764465      -0.46335663       1.25457113      -1.13093724
H       -5.29876791      15.57183798      25.11034085      -0.00287103       0.37949163      -0.29516826
H       -4.37358528      16.11045868      26.05585835       0.71189519      -0.44337086       0.31286388
O        7.47188606     -15.68958738      -8.46976519       0.85537048       0.46908586       1.69725616
H        8.02400167     -16.50779585      -8.22369118       0.33098108       0.02608381      -0.03932238
H        6.70904977     -15.52693553      -8.05603469       0.07150660       0.14917854      -0.19046450
O       13.66322752       8.56026105      17.97004536      -0.00279026       0.28140882       0.28808202
H       14.07710067       8.65460715      17.12223775      -0.25749422      -0.12714094       0.53587311
H       14.28936878       7.98144626      18.47603888      -0.18456752       0.26144019       0.06331881
O       -0.15652328       1.21778774      -1.20500489      -0.10826456       0.60341022       0.89882232
H        0.78571105       1.37318440      -1.25954199      -0.34004906      -0.20021507      -0.09497662
H       -0.45357506       0.32176369      -0.82235818      -0.30214814       0.06491844      -0.25456219
O      -14.15658017      12.65735703      15.75961230       0.55937141      -0.10220970      -0.90907193
H      -13.87530612      12.34633124      14.96618022       0.39507024      -0.13549686      -0.02773881
H      -15.00162104      12.26044310      16.13095868       0.48811037       0.17762348      -0.05843590
O      -16.39838511       5.91329691      12.32429484       1.82541744       0.30482073      -0.34081866
H      -16.95091599       6.06841505      11.57277295      -0.01040075       0.06689960      -0.26291557
H      -16.26855900       7.00699871      12.30750707      -0.30851165       0.42707839      -0.22526887
O       -9.95423198      32.91515518      -9.58132749      -0.40933052      -1.02610582      -0.25958837
H       -9.18121027      32.33774393      -9.37210562       0.03785724       0.32373874      -0.25098773
H      -10.71397268      32.28603509      -9.93636717       0.01608806       0.10354193       0.14189356
O       34.76574434      11.50310865      21.38291790       1.13160327      -0.49536843      -0.81647986
H       34.73071130      11.63605352      20.36186584      -0.10732908       0.21082984      -0.28897934
H       35.24487588      10.59581244      21.61194430      -0.10341955       0.24885390       0.07536368
O       30.39898870     -12.64602473       2.15095892       0.17662365       1.21588028      -0.48646123
H       29.60411422     -12.15678867       2.54290657      -0.29981765      -0.00882795       0.15006328
H       30.15955796     -12.60147742       1.21113008      -0.21533539       0.06415392      -0.38561640
O       17.58256062       9.30316528      -7.43643102      -0.12856853      -0.66400564      -0.36021281
H       17.34049310       8.28667332      -7.77399684      -0.41601361      -0.07165762      -0.24208560
H       17.45329928       9.55207607      -6.53698059       0.08906061       0.04941609       0.08446810
O       -5.15340688       2.58566329      32.19167197       0.99100134      -0.42765646       0.71440977
H       -5.82725141       2.01427715      31.74125713      -0.34174065      -0.50310708      -0.00725598
H       -4.37273968       2.14588700      32.53825260       0.16332606       0.29653472       0.38434288
O        3.80248437       0.86991838      -0.23368313       1.38647091       0.12461696       0.55616083
H        3.50472215      -0.05819914      -0.33963460       0.04705584      -0.04546205      -0.03313968
H        4.18674843       1.02374562      -1.06783193       0.43154910      -0.15763276      -0.41059655
O       23.21660526       3.22776142      11.65666381      -0.52216434      -0.08296872       0.12961223
H       23.23756340       3.59850559      12.70185259       0.28572328      -0.05219548       0.18636834
H       23.75508449       2.43518859      11.77849094      -0.37192956      -0.10426638       0.01035842
O       -1.42730413      31.82442735      15.03658171       0.31119130       0.71081788       0.64255404
H       -2.05444060      32.42190960      14.52915311      -0.06470779      -0.24620549       0.24321167
H       -0.62189195      31.80116347      14.55999187       0.10579690      -0.42200354       0.19455953
O        4.82069462      19.38937596       5.20870254      -0.88030611       0.10457947       0.12198775
H        4.06145076      18.92593104       5.72919932       0.13698443       0.15205745      -0.23860901
H        5.61573516      18.93039883       5.24532767       0.04324199      -0.16997216       0.04935618
O      -10.17002948      10.49929372       9.48932113      -1.23341913       0.46861649       0.42655847
H      -10.87849158      10.89212755       8.80926178      -0.36348849      -0.04501311      -0.04495027
H      -10.45492570      10.76363955      10.32333391       0.29095797      -0.16123412       0.51172206
O       17.68803451      17.75883212      26.14026446       0.00500685       0.34008248      -1.58843999
H       18.52871683      17.22204000      26.05303931      -0.18789953      -0.19870088       0.22391259
H       16.86983406      17.25962803      26.11879554      -0.13220076      -0.23217503       0.15127320
O        6.93120759      18.70558644      10.14063757      -0.24773430      -0.43511899       0.09925153
H        7.24479838      19.23458447       9.40385359       0.10861908      -0.08511576      -0.10952404
H        6.63245127      17.88322067       9.61954185      -0.04375966      -0.11944880       0.32515761
O       -0.63813774     -13.79444821      13.26383027      -0.65102119      -0.19925887       0.02297647
H       -1.41410721     -14.19720264      12.80402340       0.21389138      -0.23561169       0.30244267
H       -0.09665899     -14.64172146      13.52922442      -0.04012584       0.04683634      -0.35652660
O        1.14203929       6.10733892       1.11924533      -0.39386463      -1.67378374       0.85547469
H        1.63575911       5.18757020       1.08965454       0.32295903      -0.63491908       0.05129896
H        0.96992807       6.39486694       0.20791746      -0.01531366       0.48671407      -0.08882717
O        3.14751080       1.31445059       8.37624651       1.40773210      -0.28695526       0.94502685
H        2.10098943       1.03043491       8.24051245      -0.28735186       0.08959534      -0.06894448
H        3.38918032       1.42092487       9.30172055       0.22528288      -0.37026948      -0.40245116
O      -18.82935527      28.82743828     -16.16875586       0.46684771       0.95706364      -0.83708057
H      -18.71355966      29.00940219     -17.18672580       0.08846190       0.12490114       0.34167779
H      -18.11404961      28.32135413     -15.52173219      -0.09113554       0.30207843       0.13376312
O        2.90022444      26.85830232      -9.09122731       0.59064762      -0.83186794       0.99281809
H        3.45800202      26.91824336      -8.49839600      -0.12243434       0.11876863      -0.74693876
H        2.24197721      26.33455579      -8.83932493      -0.41926959       0.41881922      -0.06865849
O      -18.09205551      19.00314458       1.93540712      -0.92721455      -0.91539701       0.39686962
H      -17.41707248      18.83811412       1.09038160      -0.15301106      -0.03764723      -0.07902635
H      -18.96696202      18.48865219       1.73160348      -0.14791803       0.12640529       0.15034818
O       11.70651711      17.57235653       7.05632392       0.33422977      -0.10788617      -0.55603219
H       12.58070161      17.28980561       6.75796969      -0.13365181       0.01410427       0.21174471
H       11.17061736      18.23887355       6.60308605      -0.21040331      -0.21770942       0.13725849
O       -7.22586757     -11.21380336       5.16989465       0.00175458      -0.51338021      -0.56540344
H       -6.52621401     -11.24291516       4.52083243      -0.04550424       0.07517086      -0.30822728
H       -7.39860811     -12.05036055       5.68481579      -0.03429830       0.16270040       0.26235043
O      -24.15426163       3.38649904      10.70511677      -1.17141650      -0.96838173       0.01740548
H      -24.85531081       4.04510990      10.41479842      -0.08709223      -0.24413712      -0.07371382
H      -23.25616339       3.77654683      10.28212379       0.10569699       0.03444658      -0.09869314
O      -11.43042315      -8.22602124      18.45867178      -0.19242923      -0.72838852       0.29353631
H      -10.62948624      -8.49186385      18.93812587       0.26181861      -0.05531702       0.26861650
H      -11.45291282      -8.32954451      17.53598812      -0.24060464       0.18203499      -0.42466143
O        8.58098094       7.34639071      16.90855820      -0.94888869       0.54400504      -0.43765697
H        9.57304009       7.29981833      16.83165423      -0.36591288      -0.08166076       0.22210870
H        8.14448383       6.80093847      16.26085712      -0.27466979       0.08671946      -0.14754869
O      -11.62918701      -0.47692785      20.43961917       0.54852451       0.00481384       0.63588570
H      -12.52072477      -0.24929719      20.73398566       0.00140382       0.21468616       0.00348675
H      -11.85560758      -0.64764443      19.41027975      -0.30152957      -0.19720017      -0.05466738
O       24.16015909       2.48373096      16.22182860      -0.53376120       0.87473865      -0.48586544
H       23.87317031       2.53582233      17.14116114      -0.08658311      -0.00352056       0.12426149
H       23.97882694       1.73090774      15.52493258       0.02983158      -0.06014549      -0.46413429
O       -5.67710595     -17.94014408      -5.03402799      -0.28786232       0.63240429      -0.83267582
H       -4.72437986     -17.90458808      -4.96319880       0.39157940      -0.10392117      -0.40164446
H       -5.66590315     -18.72507596      -5.66820108       0.01900356      -0.31982617      -0.26159717
O       29.44902814      -8.97060207      -6.14515600      -0.90258905       1.29479046      -0.38319713
H       30.26623164      -8.95051852      -6.73758082      -0.09992608       0.09683724       0.40383265
H       29.02894927      -9.78227108      -5.91596457      -0.51908922      -0.15121625       0.24037645
O        8.80926173      -0.66484995       3.42170419      -0.34866314       0.13032118       0.54375225
H        8.30785439      -0.04136946       2.92458146       0.07502322       0.05469244       0.15293455
H        8.32475427      -1.49171678       3.63928546       0.26593951       0.25783472      -0.10915955
O      -19.77228158      -3.13746538      24.76951476       0.04357109       0.22566249       0.06756641
H      -20.05774136      -4.02062643      24.30725263       0.39887718       0.25601638       0.41952250
H      -19.17900169      -3.46148068      25.57987676      -0.19586425       0.08105143      -0.28839721
O        2.42120198      -5.78899445      -6.02566180       1.98144725       0.94026149       0.04599329
H        2.36480553      -5.65633423      -5.10405245      -0.46897721      -0.13843650       0.51940182
H        1.94997028      -6.62750261      -6.21248679      -0.07029437      -0.44998414      -0.06860735
O        9.84500425       8.26983011       7.94804873       0.43938967      -0.57262574       0.04961274
H       10.51865769       8.52430934       7.30741887      -0.18178038       0.06976389      -0.01113643
H       10.09757118       7.47439122       8.40127383      -0.34566246      -0.15575693      -0.00903079
O        5.36536001       9.74813462      -4.83592450       0.72834995      -0.23491443      -0.70844481
H        6.18652181       9.11861041      -4.79512015      -0.07885678       0.08562316      -0.04161583
H        4.82962592       9.66611150      -4.07566482       0.08598813      -0.02102806      -0.25116987
O       13.74974524      29.45462952      15.87390248      -0.63083435      -0.30091481       0.07771097
H       12.94377481      28.99640727      16.01431107      -0.16344846      -0.02658296      -0.19489825
H       14.41945815      28.75356161      15.85748734       0.04641057      -0.09422420      -0.16414174
O       -2.81869820       3.98251879       1.70101716      -0.52841563       0.50846188       0.28098356
H       -2.31616796       3.39013252       2.37882984       0.00753002      -0.72938733       0.25739019
H       -2.62497842       4.88406429       1.85752100       0.11071368      -0.03711561      -0.07265609
O        7.81754441     -14.01704970      10.95865933       0.37412974      -0.12057184      -0.53207143
H        6.87242900     -14.55080393      11.01268416       0.09076709      -0.10043479      -0.28055206
H        8.20828533     -14.19034564       9.98139425      -0.13314528      -0.25439719       0.17024205
O       -2.47553118      10.55626142      24.32088802      -1.22864776       0.26286174      -1.59617903
H       -2.02956294      10.10550894      23.68551707      -0.07205754       0.20461885       0.39991503
H       -3.27274818      11.13651086      24.31440870       0.19998180      -0.20602330       0.20805790
O       20.04454222      21.75478443       1.54793886      -0.77010739       0.45647352      -0.03013743
H       20.01629947      22.28209328       2.43582196       0.00074818      -0.16022247      -0.28462602
H       19.77152159      20.82599793       1.33719066      -0.03447390       0.51791535       0.09880892
O       12.17296518      10.01334511     -15.90105487       1.04558271       0.13598095       0.71671781
H       12.70042560       9.27781159     -15.56355585      -0.18147246       0.14117904      -0.48289354
H       12.57306868      10.07562099     -16.92402327       0.05374160       0.06357455       0.10533601
O      -11.39206931      22.28102941       1.05317242       0.34325107      -0.02033056      -0.25791065
H      -11.82292797      21.31605880       1.05708205      -0.25795673       0.06612248      -0.05891903
H      -10.90641183      22.68699408       1.75579267      -0.25465207       0.12863919      -0.16555542
O        2.94020283     -15.03579099      16.10425128      -0.48617430      -0.58629877      -0.94934733
H        3.27481844     -15.72909140      16.75871845      -0.18174054       0.22427773       0.15370775
H        3.63100589     -14.36058376      15.95835825       0.24286363      -0.01462886      -0.11655665
O        2.40644061      16.32916568       0.37116647      -0.92902474      -0.74328977       0.19442015
H        2.00651870      16.27415127      -0.40903749      -0.06216987       0.52829148       0.31865606
H        2.92199798      15.60983208       0.70068727       0.07902151       0.26710964       0.27298043
O       -5.71433202      -7.31172687       5.60025549      -1.35932098      -0.42525252      -0.22661794
H       -5.25332666      -7.81998756       6.25253871       0.49844602       0.25072853       0.39870715
H       -5.05819763      -6.74929883       5.06411263      -0.25394019      -0.26090811       0.11268970
O       -2.15273323       2.40129284       6.66342052       0.63522563       0.43970081       1.28063925
H       -2.08500655       3.35350932       6.83177934      -0.04884105      -0.41699253      -0.26616655
H       -1.86143325       1.77615329       7.40001568      -0.28731369       0.40246371      -0.71554964
O       13.18658289      -5.49479379      -1.46571050       0.33597917      -1.51532661      -0.11091328
H       13.98273018      -5.27206863      -1.92899157       0.45837166      -0.12077082      -0.21230513
H       12.90688666      -6.50205436      -1.59892683       0.05756061      -0.00410078       0.31814512
O       11.82964921       4.89038609      22.72650373       0.04928422      -0.35817758      -0.24085338
H       11.23581867       4.15760573      23.01024379       0.12450579       0.25693060       0.05886795
H       11.91636227       4.70829055      21.79877758       0.07087173      -0.20620275       0.07152968
O        8.15368166      14.50112185      23.82259398      -1.03858849       0.02263252       1.32952856
H        9.02294049      14.87921158      23.88688718      -0.24915113      -0.29540866      -0.12772055
H        8.09904601      13.50083395      24.15334490       0.11618946       0.22092155      -0.15943021
O       -8.06155430       6.98825348      11.41875449       0.99684644      -1.11670032       0.33774539
H       -7.30378706       6.65514173      10.87239565       0.17248185       0.25895949      -0.46223815
H       -8.34067761       6.42798134      12.11608738      -0.11025658       0.38040000       0.44199636
