192
Lattice="12.749513626098633 0.0 0.0 -5.291772140481044e-07 12.749513626098633 0.0 -5.291772140481044e-07 -5.291772140481044e-07 12.749513626098633" Properties=species:S:1:pos:R:3:momenta:R:3 step=0 time_fs=0.0 phase=equilibration pbc="T T T"
O       11.58024883       0.72498864     -16.52445793       1.11768299       0.20408896       0.69008038
H       11.81181717       0.78436756     -15.53965855       0.36097603       0.29840838      -0.15413935
H       10.76372814       0.18189090     -16.44460487       0.15239367      -0.02783003      -0.01289933
O       26.36344719      24.79401588       4.85561371       0.24636511       0.03920975       0.99621760
H       26.70196342      23.84678841       4.58326721       0.12184479       0.01628950       0.07550418
H       25.49327087      24.94361305       4.49529648       0.05278673       0.23805757      -0.02937182
O        4.55044222      -0.28422797       6.68408966       0.18357736      -0.60336600      -1.58355279
H        4.83529854      -1.07390165       7.11166525       0.10448683       0.13631298      -0.11614725
H        4.04536915       0.15737888       7.41435432       0.36563978      -0.23838440       0.01117406
O       -2.84938097      -4.43740463       0.99063027      -0.13847139       0.93324112       1.00592910
H       -2.61852217      -3.73749900       0.44086069       0.02390609       0.05773556      -0.13967824
H       -3.60226274      -4.18081188       1.49332213      -0.32121079      -0.05959153       0.02904448
O        4.24721289      15.84552383      10.73478317       0.77406131       0.72053872      -0.18935610
H        4.32293320      16.65563965      11.23829556      -0.04998140      -0.17280874      -0.22568214
H        5.19970036      15.68020821      10.36292934      -0.27684983       0.31185556      -0.07857528
O       -1.38442278       6.65292120       5.13221407      -0.29998804      -0.86003830       0.56052247
H       -1.16714787       6.34425259       4.30304146      -0.26192329      -0.03774898      -0.14091939
H       -0.51785862       7.04266024       5.23280573       0.06138793      -0.08591356      -0.18699957
O       22.81806755      12.30516911       5.78538847      -0.03611034       0.22222706       0.10281672
H       23.17335701      13.23964310       5.97626257       0.04774470      -0.10587278      -0.05483579
H       22.49505615      12.44190884       4.78045988      -0.10979553      -0.06147261      -0.12761717
O       -0.99380004     -15.77508926       6.81807756      -1.12930256       0.06070057      -0.19866128
H       -0.45485213     -16.08402252       6.13538647      -0.26455731       0.07140934      -0.14283130
H       -1.49262893     -14.86474609       6.47252512       0.00726189       0.11444236       0.02462237
O       15.45499039     -17.88147926       9.66319847       0.71554873      -0.84846998       0.31901162
H       16.20885658     -18.30376244      10.29202080      -0.11179112      -0.14408501      -0.08975696
H       15.70476151     -16.92102242       9.71442318      -0.05147608       0.00570373      -0.18449776
O        3.25135970     -14.66133022     -13.33013248       0.56196096       0.24625949      -0.92899846
H        4.07719374     -15.24898148     -13.27065277       0.23935606       0.30298645       0.19426001
H        2.57298112     -14.89321613     -12.72210789      -0.03020624      -0.17639601       0.17416975
O       -5.74231339       1.54765272       2.85520196      -0.27752205       0.73345619       0.19407663
H       -6.46929693       1.30210924       2.21823668       0.15668401       0.05421351       0.11795573
H       -5.43554926       2.35845280       2.31344628       0.00056469       0.28520842       0.02428775
O       -5.38575363      16.01581192      25.98963737       0.24082278       1.15880104      -0.80765703
H       -5.29129553      15.31565762      25.36113358      -0.20643089       0.15327365      -0.18578622
H       -4.35831404      16.55647278      26.03186607       0.31293957      -0.07020916      -0.11700203
O        7.41874647     -15.71936703      -8.56404495       1.21997197       0.89959466       1.26227987
H        7.76011896     -16.59404373      -8.22976398       0.14527660      -0.14253835       0.31242910
H        6.70255852     -15.71397018      -8.01100159      -0.04443893       0.12629761       0.15684724
O       13.68023586       8.54409504      17.93683052      -0.11775878       0.34180640       0.65368701
H       14.04198074       8.80058670      17.02638245       0.05969494      -0.18102529       0.05197249
H       14.22989178       7.91326284      18.49035072       0.21319994      -0.11560795      -0.02039969
O       -0.15136531       1.17568886      -1.25246716      -0.29810774       1.13698550       0.49280032
H        0.81402797       1.41365457      -1.19074392       0.06471013      -0.12778354       0.09091769
H       -0.07980151       0.32297695      -0.61002493      -0.11009807       0.00177145      -0.09896707
O      -14.19501877      12.66273403      15.80837536       0.41750254       0.31767226      -0.07410255
H      -14.08447456      12.39100170      14.93772030       0.06285908      -0.18000092      -0.23719382
H      -15.12377834      12.22245789      16.00036049       0.06986971       0.02356085       0.10639523
O      -16.50709915       5.89053583      12.35020161       1.51623836       0.55450928      -0.52765617
H      -17.07337189       5.99335480      11.63549519       0.17936770      -0.21601080      -0.07080799
H      -15.87981319       6.77748966      12.58092308      -0.01215924       0.27348859      -0.11656573
O       -9.93085670      32.95535660      -9.56657028      -0.55000669      -0.11690284      -0.36713513
H       -9.34108829      32.25430298      -9.17445087       0.18092215      -0.17787923      -0.18164064
H      -10.60434055      32.31637573     -10.11273479      -0.07187977      -0.08384961       0.31557481
O       34.72598267      11.51679993      21.45279121       0.59324470       0.00284148      -0.72890836
H       34.76889801      11.55188560      20.38697433       0.13530940      -0.16499782      -0.24584112
H       35.17197418      10.55581474      21.38193321       0.19084284       0.04784298       0.15258235
O       30.39016914     -12.69961739       2.17083836       0.18722109       0.49808324      -0.35911841
H       29.79241180     -12.15017319       2.64960074      -0.16825629       0.10676742      -0.12604383
H       30.32688141     -12.61913013       1.28064585      -0.11255702      -0.07698201       0.00660438
O       17.59328842       9.34982014      -7.42393255      -0.24585931      -0.93867906      -0.35434986
H       17.75654030       8.24436951      -7.47171736      -0.36041383       0.09765966      -0.25509811
H       17.49332619       9.50084782      -6.49755478      -0.17959036       0.00505733      -0.11572678
O       -5.19974279       2.63030171      32.17810059       0.97538472      -0.88582886       0.23191499
H       -5.76909018       2.18207788      31.62262344      -0.00747976      -0.19212541       0.08833667
H       -4.51727343       1.96271300      32.26456833      -0.02885235       0.12134229       0.13685072
O        3.72383595       0.83603644      -0.23808952       1.37466686       0.80689973      -0.17767484
H        3.50995302      -0.10580844      -0.28170851      -0.03981352       0.17432296       0.10966459
H        4.04864979       1.22581255      -0.97762311       0.10230744      -0.26465753      -0.00015098
O       23.25961304       3.22112799      11.66518211      -0.49309219       0.12668637      -0.00319194
H       22.89178276       3.69758320      12.53435612       0.14594465       0.04788751       0.13084338
H       23.95712090       2.57524610      11.70460510      -0.07650112      -0.15598604      -0.06248042
O       -1.44264293      31.80788803      14.97783184      -0.02892466       0.19056619       1.51447818
H       -1.90867865      32.56244278      14.49384594      -0.00796039      -0.15784413      -0.05212762
H       -0.63238788      31.96923447      14.54845619      -0.07604493       0.07443097      -0.24519894
O        4.83401251      19.39249229       5.20213461       0.02275903       0.04723308       0.20946672
H        4.19375563      18.92559814       5.89170027      -0.09765288      -0.04181807      -0.22633545
H        5.66431284      18.99529266       5.20644188      -0.08084804      -0.09109358       0.07100982
O      -10.11733818      10.47273445       9.45824909      -0.76228711       0.44939303       1.02210441
H      -10.56179523      10.95322704       8.62468815      -0.33562285       0.06550747       0.11316211
H      -10.49601841      10.85548878      10.17052078      -0.10413607      -0.06756761      -0.01769240
O       17.70605659      17.76738930      26.21935463      -0.20967728      -0.25245609      -1.01897234
H       18.51691628      17.23879242      26.00022125       0.18507433       0.17108451      -0.12765240
H       16.93769073      17.24535561      26.08018112      -0.23809291       0.08082729      -0.08926222
O        6.93529034      18.72588730      10.12019539       0.07341833      -0.25909691       0.50518909
H        7.17553711      19.43673134       9.56392574       0.11113316      -0.12062204      -0.21975919
H        6.77701330      17.86063004       9.62658024      -0.25692053       0.09525970      -0.18832899
O       -0.61552304     -13.79612541      13.26192093      -0.34424236      -0.43741294       0.02615325
H       -1.32075751     -13.98700047      12.60902309      -0.31401730       0.02713283       0.08843595
H       -0.07504050     -14.52363777      13.75675488       0.01315619      -0.05360847       0.01951889
O        1.14059913       6.22465849       1.06936646       0.23892814      -1.83844376       1.31915943
H        1.58913505       5.20397615       1.11494458       0.06190353      -0.10879540      -0.05939462
H        0.86076492       6.21000004       0.19304278       0.07865219      -0.02213342      -0.32436032
O        3.08428288       1.33452666       8.34316635       1.31109867      -0.12468486       0.71675497
H        2.14491916       0.71188623       8.18653011      -0.11296100       0.24489254       0.05005045
H        3.21509027       1.66781306       9.25075817       0.09725164      -0.17227556       0.19949001
O      -18.86823654      28.79443550     -16.13371277       0.42611937       0.78457256      -0.34435151
H      -18.57898712      28.67098045     -17.17761993      -0.07886164       0.36892000      -0.16750906
H      -18.02880287      28.11259079     -15.81260872      -0.02310026       0.18033927       0.01957137
O        2.89657831      26.89320755      -9.10925674       0.35732283      -0.31067644       0.29822691
H        3.39167643      26.84923363      -8.50101948      -0.21225492       0.26456683      -0.01531434
H        2.37178278      26.07023048      -8.79159164      -0.11104265       0.10430939      -0.07066824
O      -18.04356575      19.06403160       1.91016555      -0.87692777      -0.92050290       0.50662754
H      -17.35203743      18.82579613       1.07529342      -0.02691764      -0.02497704       0.17793354
H      -18.82352066      18.41457176       1.64946640      -0.18321686      -0.12144299      -0.05841319
O       11.69502831      17.57333946       7.08430672       0.04277370      -0.08067057      -0.12469572
H       12.57938862      17.40537834       6.63619947      -0.01109028      -0.02071164      -0.11250165
H       11.44980621      18.34218216       6.52200270      -0.13250432       0.04098728      -0.14018391
O       -7.21591282     -11.17987347       5.19630289      -0.76304215      -0.25456721      -0.04150717
H       -6.55555296     -11.33497524       4.52568722       0.36353407      -0.11724526       0.15620229
H       -7.33566570     -12.14186478       5.44856691       0.11960685      -0.19549482       0.12873058
O      -24.11656189       3.45878673      10.69699860      -0.78011849      -1.76542662       0.45032720
H      -24.75385094       4.16675711      10.53126049      -0.28486803       0.06949485      -0.10675007
H      -23.20468330       3.72668266      10.25629997       0.26703637       0.16928937      -0.06948314
O      -11.42477703      -8.17853928      18.47018814      -0.46077907      -0.83511270      -0.22385967
H      -10.61190796      -8.51080894      18.81251335      -0.04643492      -0.06230325       0.02910183
H      -11.33889198      -8.48281574      17.61085892       0.09235182       0.05312892      -0.11969884
O        8.64130497       7.31222343      16.93864441      -0.94357958       0.82492790      -0.38385450
H        9.65557957       7.37318468      16.82402420      -0.10653675      -0.08759155      -0.29404345
H        8.34004402       6.79352379      16.19911957      -0.07836829      -0.08088011       0.10402419
O      -11.66915131      -0.47635421      20.40851212       0.43168092      -0.05109410       0.65989409
H      -12.51255322      -0.31226641      20.80952263       0.05380325      -0.00590616       0.02978444
H      -11.54479408      -0.51122749      19.37783432      -0.03193989      -0.06717618      -0.03948341
O       24.20710564       2.47224188      16.24833298      -0.74415130       0.12701927      -0.57935209
H       23.82329369       2.48642898      17.10057259       0.13486798      -0.04368233       0.01177784
H       23.88504791       1.49528539      15.90733051       0.07866754       0.10058171      -0.25001862
O       -5.65780354     -17.97080421      -4.97955227      -0.15116650       0.51311426      -1.03320103
H       -4.91104460     -17.61366272      -4.62017727       0.06144900      -0.36785083      -0.16144795
H       -5.84719610     -18.62328148      -5.61049509       0.00511033      -0.27108224      -0.15546971
O       29.51348114      -9.01765537      -6.13924885      -0.96549591       1.00750409       0.16572019
H       30.18786430      -9.07189655      -6.90846157       0.09053696      -0.03935436      -0.05333147
H       29.35758591      -9.90000534      -5.99594784      -0.26233961      -0.05053035      -0.11927034
O        8.81016541      -0.69567221       3.37943673       0.53434142       0.68108958       1.00413937
H        8.13959217      -0.08129326       2.97969079       0.13663266      -0.10010913      -0.17653895
H        8.18504810      -1.42161870       3.76989532       0.12275381       0.05420162      -0.28199990
O      -19.77704430      -3.17595220      24.77496529       0.21088243       0.47084467       0.09792943
H      -20.24594879      -3.93345857      24.23261070      -0.03103501      -0.13388076      -0.22996701
H      -19.22686005      -3.35188770      25.64948273       0.12818889      -0.05332217      -0.03394620
O        2.33822227      -5.82634640      -6.04426193       1.09751282       0.38714205       0.29872204
H        2.60435629      -5.58678818      -5.23193264       0.02182389       0.24224533       0.28164996
H        1.84410310      -6.58979034      -6.15263700       0.14906759       0.09071014      -0.33468899
O        9.83052444       8.29157162       7.94427252       0.06168154      -0.13728112       0.12047930
H       10.55507374       8.67099094       7.39429855       0.15125569      -0.44607910      -0.08821577
H       10.27916145       7.62031031       8.47927094       0.04248208      -0.07881009      -0.22517930
O        5.33315372       9.75194168      -4.79990673       0.54144840       0.12472113      -0.56517681
H        6.11570072       9.05035877      -4.75399590       0.04973959       0.12938873       0.00463515
H        4.79601765       9.65584373      -3.99316049       0.12823201       0.00927406      -0.06008552
O       13.78490734      29.46945572      15.87139988      -0.76437171      -0.10884166       0.18507536
H       12.97367859      29.05727959      16.07074165       0.14039463      -0.02197240       0.07769412
H       14.51437759      28.85084534      15.94469070      -0.15700458      -0.12983786      -0.01405801
O       -2.79554796       3.97514725       1.67142200      -0.69690935       0.47453222       0.35814578
H       -2.09789133       3.54244971       2.37876797       0.04396733       0.05139176       0.33036224
H       -2.66680431       4.90871143       1.82570362      -0.07689622      -0.35910506       0.03598501
O        7.81044340     -14.01097202      10.98301983      -0.05054459      -0.38668680      -0.57015015
H        6.86072922     -14.50368881      11.26676464      -0.07210106       0.02593057      -0.07747072
H        8.08376408     -13.91688442       9.99806213       0.38869865      -0.15858089      -0.12438068
O       -2.40225267      10.55052280      24.40655136      -1.49132057       0.10837733      -1.23811470
H       -2.11677766      10.18962383      23.63982582      -0.08830300      -0.04791794      -0.11090571
H       -3.26164699      10.98137951      24.01273727       0.27985406       0.15731305       0.21694048
O       20.08693123      21.72748566       1.53467739      -0.58604532       0.67303738       0.37930701
H       19.91960526      22.10029221       2.53567410       0.12352020       0.16297592      -0.14306801
H       19.85652733      20.72363663       1.67248571      -0.06969790       0.13601563      -0.42534410
O       12.13112259       9.99456882     -15.93627644       0.95627332       0.30257013       0.03057169
H       12.65966415       9.41337395     -15.31909752       0.03450003      -0.16980029      -0.05276778
H       12.34766197       9.94609737     -16.98574066       0.17666397       0.20637652       0.43946529
O      -11.40509129      22.31270409       1.06221199      -0.06555812      -0.47748072      -0.27105557
H      -11.54109001      21.21931839       1.16522169      -0.16563836      -0.01595270       0.06562600
H      -10.82580090      22.41965103       1.83509648      -0.00666526       0.17378764      -0.03406725
O        2.95212603     -15.01799583      16.16424561      -0.24164693      -0.42772701      -0.99105234
H        3.49181795     -15.75963783      16.56245232      -0.25446908      -0.19391332       0.21407889
H        3.56264305     -14.31895351      16.05730057       0.14353394       0.21880966      -0.21149344
O        2.46401834      16.36612701       0.35240024      -1.28531600      -0.47844854       0.17318229
H        2.10474420      16.02274513      -0.38129756       0.07945182       0.16597073       0.04971692
H        2.72625208      15.46308708       0.61630619       0.28046748      -0.03934314      -0.14376543
O       -5.64552689      -7.28079033       5.59652519      -1.10029130      -0.62581800       0.21586385
H       -5.41443539      -8.04312229       6.03960514      -0.14474116       0.14799702       0.23199927
H       -4.82533407      -6.73557901       5.23846245      -0.38403580       0.13625095      -0.35811983
O       -2.16926670       2.36249566       6.64598942       0.24050713       0.73501765       0.10174734
H       -1.92925835       3.32724380       7.01350307      -0.20791820      -0.09797246      -0.03849963
H       -1.87211776       1.97126448       7.38212776      -0.03058112      -0.03615837      -0.01397616
O       13.16375923      -5.43200397      -1.44062662       0.11946546      -0.83156953      -0.09581129
H       13.87253857      -5.19277859      -1.97007370       0.24420524      -0.06552730      -0.06793999
H       12.83011246      -6.28154516      -1.97071934       0.17309491      -0.41691315       0.19467999
O       11.83367157       4.88765526      22.73101616      -0.42477033       0.05201119       0.12200384
H       11.19543076       4.19066000      23.06752205       0.15116230      -0.04661297      -0.10578292
H       11.82980919       5.03477716      21.78167343       0.20858811      -0.38540116       0.00706572
O        8.21489334      14.51268387      23.75709343      -0.88572619      -0.54380255       1.35478868
H        9.03183746      14.96227264      24.07449341      -0.00833823       0.02814942      -0.28410452
H        8.11122799      13.52015972      24.14614296      -0.11893903       0.02838982       0.06110553
O       -8.10852909       7.02339840      11.40487957       0.37916792      -0.04796728       0.39926609
H       -7.33910561       6.59090185      11.03143883       0.07219503      -0.29904156       0.00975969
H       -8.30591202       6.27672958      11.91421318       0.12295406       0.09194716      -0.05501639
192
Lattice="12.749456901800844 0.0 0.0 -5.291748596676352e-07 12.749456901800844 0.0 -5.291748596676352e-07 -5.291748596676352e-07 12.749456901800844" Properties=species:S:1:pos:R:3:momenta:R:3 step=10 time_fs=1.0 phase=equilibration pbc="T T T"
O       11.58702919       0.72607209     -16.51936469       1.11326841       0.15482352       0.93264072
H       11.84782931       0.81456722     -15.56363456       0.37727573       0.31911729      -0.32994076
H       10.77979230       0.17921535     -16.44795455       0.17404386      -0.02964924      -0.05342145
O       26.36534691      24.79316264       4.86164029       0.40523508      -0.27536268       0.97468553
H       26.70643159      23.86584200       4.59495090      -0.02731283       0.37202217       0.16285014
H       25.49905604      24.96514356       4.49170061       0.07244372       0.20467559      -0.04264177
O        4.55112922      -0.28738737       6.67446600       0.05541685      -0.43396730      -1.55503665
H        4.85095444      -1.06928012       7.10219508       0.21863021      -0.04429757      -0.07711596
H        4.08148100       0.13696269       7.41196864       0.36504575      -0.17175648      -0.04584455
O       -2.85012309      -4.43247997       0.99718490      -0.11975340       0.69479354       1.12633736
H       -2.61203918      -3.72185515       0.41751278       0.09513529       0.23666852      -0.31459640
H       -3.63846201      -4.18383215       1.49896641      -0.39513905      -0.00588188       0.06659607
O        4.25272975      15.84944454      10.73311529       1.00573921       0.56246442      -0.34436667
H        4.31955802      16.64456702      11.21789928      -0.02344103      -0.02402225      -0.17236900
H        5.16089868      15.71196742      10.35869179      -0.49217085       0.32952712      -0.02035972
O       -1.38641260       6.64787595       5.13641735      -0.33061622      -0.77952245       0.78562172
H       -1.19245815       6.33306719       4.27264640      -0.26583451      -0.17847122      -0.45076083
H       -0.50870263       7.03871522       5.21795798       0.11496708      -0.00053618      -0.11922340
O       22.81786637      12.30732268       5.78538513      -0.00192530       0.48070380      -0.10029488
H       23.17299929      13.21711136       5.96874364      -0.04653262      -0.33783010      -0.09476497
H       22.48698692      12.43362320       4.78120909      -0.05365563      -0.10699238       0.14431514
O       -1.00169892     -15.77350842       6.81722333      -1.43828977       0.42561963      -0.08136653
H       -0.47248240     -16.08050856       6.11196130      -0.10400217       0.00212380      -0.32920839
H       -1.48271640     -14.86770642       6.47895658       0.19401117      -0.17573094       0.10777858
O       15.46001037     -17.88646069       9.66576967       0.93372429      -0.80432165       0.52727629
H       16.18625239     -18.31216673      10.27284665      -0.34341547      -0.03200266      -0.29766840
H       15.69716573     -16.92700107       9.69524658      -0.10037228      -0.12439602      -0.20656820
O        3.25556278     -14.65995654     -13.33584774       0.78615436       0.17652320      -0.93128722
H        4.08974212     -15.21264549     -13.25140010       0.02281488       0.43576446       0.19883907
H        2.56919044     -14.91348478     -12.70372136      -0.02590436      -0.23293991       0.18242501
O       -5.74414937       1.55266286       2.85561686      -0.31359966       0.90735475      -0.04160086
H       -6.45187752       1.30431577       2.23552571       0.18588560      -0.01366166       0.22342608
H       -5.43639067       2.37893126       2.32451928      -0.01937355       0.13323891       0.20300482
O       -5.38363226      16.02340627      25.98478191       0.44283896       1.33477608      -0.73940832
H       -5.30941197      15.33072277      25.34139901      -0.16609842       0.15982902      -0.21412518
H       -4.34143123      16.53952874      26.02064183       0.03313221      -0.27447839      -0.11045363
O        7.42722665     -15.71449470      -8.55661149       1.52609569       0.65567003       1.17355081
H        7.77584203     -16.60084634      -8.20452723       0.17685094       0.00781598       0.19961939
H        6.68051326     -15.69744616      -7.98602178      -0.37857766       0.21327149       0.33091316
O       13.68000874       8.54589381      17.94037202       0.06178680       0.25046425       0.53801030
H       14.04350304       8.77786607      17.04645250      -0.02332322      -0.28032332       0.34997066
H       14.24395891       7.91214647      18.47991195       0.07515223       0.09450863      -0.19156614
O       -0.15262785       1.18195817      -1.24892091      -0.11675285       0.90517783       0.65969874
H        0.81281222       1.40091441      -1.18420176      -0.08477788      -0.13053727       0.04265323
H       -0.09429268       0.33270355      -0.62662928      -0.18841288       0.19701832      -0.24118677
O      -14.19335259      12.66427880      15.80857704       0.11582981       0.18995969       0.11085886
H      -14.07144722      12.37132002      14.90005494       0.19216354      -0.20661525      -0.47862948
H      -15.10703370      12.22997128      16.01318132       0.27421827       0.13117868       0.15415743
O      -16.49632138       5.89475617      12.34808034       1.96093972       0.83018240      -0.15337972
H      -17.06144983       5.97829116      11.61817866       0.06923075      -0.09486711      -0.27653130
H      -15.89665072       6.78679752      12.56109108      -0.33141423      -0.08138315      -0.28765910
O       -9.93436811      32.95319459      -9.56900698      -0.60646841      -0.54396339      -0.43895474
H       -9.32950462      32.24715742      -9.19538318       0.05808760       0.03713431      -0.24648876
H      -10.60160183      32.31861921     -10.07433674       0.12310837       0.13483655       0.46747026
O       34.73005552      11.51574739      21.44713435       0.78433939      -0.32708225      -1.08119314
H       34.77850725      11.54123598      20.37548180       0.06463901      -0.05280238       0.01233906
H       35.18322067      10.57344555      21.40201313       0.04368826       0.31266571       0.26038370
O       30.39178377     -12.69663062       2.16971155       0.36907593       0.46884972      -0.01722917
H       29.76793892     -12.13541775       2.63910324      -0.31797019       0.18373263      -0.09925833
H       30.31215912     -12.62480513       1.26112735      -0.18470391      -0.04182570      -0.38369011
O       17.59197929       9.34285070      -7.42638130      -0.15730469      -1.32079614      -0.45465276
H       17.71859676       8.27276656      -7.49568387      -0.41446050       0.48581932      -0.23663375
H       17.47571739       9.50251615      -6.50334272      -0.17994686       0.03071519      -0.00344989
O       -5.19336187       2.62536586      32.17990722       1.07303049      -0.71880544       0.38788443
H       -5.78240711       2.15915851      31.62261055      -0.25131364      -0.26746371      -0.07052786
H       -4.51299422       1.97214714      32.28107919       0.12509890       0.06412171       0.20629169
O        3.73184733       0.84064913      -0.23790046       1.24430299       0.70801636       0.23449045
H        3.50577333      -0.09017583      -0.27481343      -0.04877343       0.13706362       0.03252166
H        4.06568081       1.20544836      -0.99395717       0.24661065      -0.15459355      -0.33162790
O       23.25590628       3.22246927      11.66555620      -0.67033900       0.30669841       0.14288786
H       22.91545164       3.69409938      12.53532010       0.33975913      -0.11849372      -0.10952979
H       23.95129514       2.55904143      11.70215308      -0.04890552      -0.16850508       0.01229304
O       -1.44356845      31.80940173      14.98687311      -0.24463248       0.34629168       1.44299732
H       -1.90937337      32.54159745      14.49409678      -0.01038435      -0.25909664       0.05491690
H       -0.62798028      31.97437690      14.52133538       0.14071522       0.02964207      -0.29656474
O        4.83274948      19.39244331       5.20413980      -0.41475108      -0.03656526       0.44525335
H        4.19508808      18.93065097       5.85792464       0.12167103       0.14451480      -0.45945771
H        5.66735041      18.97980048       5.21322217       0.13408331      -0.21962022       0.06766856
O      -10.12183265      10.47526344       9.46263601      -0.72297685       0.39579753       0.43237283
H      -10.58855491      10.95291359       8.64723323      -0.21355039      -0.07004849       0.34724002
H      -10.51370630      10.85789759      10.18648088      -0.25471584       0.11172543       0.33678508
O       17.70541547      17.76576087      26.21272954       0.00953444      -0.25861550      -1.10333444
H       18.52694868      17.25762088      25.99059634       0.02064094       0.21369171      -0.06767859
H       16.91174442      17.25031471      26.07193217      -0.27390965       0.03192010      -0.07559471
O        6.93537368      18.72328080      10.12332394      -0.03237692      -0.54323083       0.51936956
H        7.18736318      19.42667028       9.53848902       0.12796880      -0.09402138      -0.29026333
H        6.75531608      17.88104301       9.61364849      -0.18867207       0.31707380      -0.07735542
O       -0.61737198     -13.79905046      13.26229211      -0.26724184      -0.53411069       0.10905052
H       -1.34627280     -13.98823832      12.62221596      -0.20396875      -0.05269237       0.18754463
H       -0.08239569     -14.52106566      13.74787794      -0.16217500       0.10177407      -0.19840692
O        1.14258166       6.21219983       1.07800675       0.38761011      -2.20980182       1.43440052
H        1.58806298       5.20899822       1.10963745      -0.08448740       0.21337929      -0.05035712
H        0.86470347       6.21110994       0.15055289       0.02318035       0.04395590      -0.48330553
O        3.09158983       1.33308048       8.34734517       1.07332480      -0.34038633       0.66286731
H        2.14776028       0.74624785       8.19575286       0.17108824       0.45602606       0.13885372
H        3.22218301       1.64829692       9.26600008       0.04809995      -0.22957820       0.10861277
O      -18.86430908      28.79836273     -16.13663927       0.82403451       0.53936625      -0.63032364
H      -18.59313085      28.70886003     -17.17629031      -0.21078416       0.40834803       0.18991841
H      -18.04415557      28.14029757     -15.81257685      -0.29334870       0.38965344      -0.02038547
O        2.89580607      26.89026228      -9.10988815      -0.55422457      -0.60391991      -0.47153790
H        3.41619822      26.87579025      -8.45347931       0.66274346       0.28981506       0.93558361
H        2.36378913      26.09248648      -8.80662632      -0.05322545       0.34373649      -0.23130402
O      -18.04884992      19.05755892       1.91218984      -0.86961987      -1.15702868       0.15660716
H      -17.36864985      18.82715284       1.10578610      -0.31254109       0.05400473       0.44514188
H      -18.82981423      18.41363062       1.64795680       0.04908655       0.10121713       0.02752637
O       11.69580302      17.57305177       7.08291369       0.22057691       0.01636441      -0.32264409
H       12.57388850      17.40092112       6.63094421      -0.09901448      -0.06840033       0.00428608
H       11.43264955      18.34354258       6.51317489      -0.21469480      -0.01781172      -0.03533068
O       -7.22049221     -11.18229148       5.19620650      -0.71647795      -0.55841611       0.00102851
H       -6.51765150     -11.34219966       4.53318998       0.39305968      -0.02838375       0.01630089
H       -7.32779653     -12.15108443       5.46299869       0.04157559       0.00937546       0.16519076
O      -24.12037006       3.44837068      10.69936226      -0.50954041      -1.59967887       0.32873000
H      -24.77654873       4.17108595      10.51973433      -0.16574039       0.00001764      -0.12390180
H      -23.19754370       3.73937549      10.25688256      -0.12616011       0.08893685       0.08425892
O      -11.42792055      -8.18326088      18.46937868      -0.56339588      -0.72916801      -0.03126293
H      -10.60768184      -8.52050863      18.82322661       0.11924536      -0.13238951       0.18889469
H      -11.33233216      -8.47871156      17.58295391       0.03853162       0.04016923      -0.42812776
O        8.63637883       7.31735499      16.93626112      -0.65894770       0.85428340      -0.37257725
H        9.63009228       7.36370522      16.79932731      -0.40179994      -0.10261827      -0.20860615
H        8.33027203       6.78377697      16.20479953      -0.12478778      -0.11745725       0.01467649
O      -11.66585290      -0.47673496      20.41153426       0.62533927      -0.07223901       0.35709482
H      -12.51113447      -0.31144393      20.81053197      -0.02454373       0.02252256      -0.00768236
H      -11.55439910      -0.51729516      19.38906755      -0.16492917      -0.05692805       0.27045657
O       24.20229481       2.47220408      16.24385676      -0.79080424      -0.13394676      -0.84609267
H       23.83365381       2.48368530      17.11138939       0.08461254      -0.01426453       0.20015450
H       23.89856137       1.52100188      15.88665871       0.19960547       0.42500124      -0.17016591
O       -5.66010718     -17.96743603      -4.98588430      -0.60382481       0.53988040      -1.05545091
H       -4.88644852     -17.64655144      -4.63500504       0.43508285      -0.31141047      -0.14493024
H       -5.84385710     -18.65267774      -5.62798435       0.06654266      -0.31227354      -0.18289865
O       29.50818310      -9.01062042      -6.13938741      -0.72444659       1.23680002      -0.21329733
H       30.18818082      -9.07177801      -6.90149236      -0.08377845       0.03863705       0.19823797
H       29.32628260      -9.92082012      -6.00077477      -0.36880221      -0.34036656       0.01095115
O        8.81224364      -0.69186225       3.38564738       0.16949137       0.56105826       1.01970547
H        8.15981945      -0.09272483       2.96476995       0.27159852      -0.12266886      -0.13566070
H        8.20675191      -1.40962920       3.73899737       0.31478063       0.17705652      -0.34199796
O      -19.77576879      -3.17361032      24.77564203       0.17334476       0.28503360       0.15303581
H      -20.24003261      -3.93741584      24.22058349       0.15177727       0.05467513      -0.01252913
H      -19.22196945      -3.35690090      25.63436604      -0.02793489      -0.04995760      -0.27009664
O        2.34505829      -5.82349155      -6.04359894       1.14429242       0.54617136      -0.04601670
H        2.61193342      -5.55984270      -5.18592381       0.11220080       0.28772102       0.60769029
H        1.85268642      -6.59261918      -6.18457112       0.03635763      -0.13766196      -0.31320179
O        9.83146456       8.29039322       7.94517847       0.25114078      -0.22719312       0.17939434
H       10.56420723       8.62682175       7.38738027       0.04275921      -0.44598525      -0.06574750
H       10.28347016       7.61593075       8.45328964       0.04803596      -0.03127125      -0.28901937
O        5.33701101       9.75195739      -4.80330959       0.72613866      -0.10173205      -0.55900947
H        6.10795569       9.07249055      -4.75342104      -0.20314533       0.32195834       0.00602651
H        4.81107412       9.65631226      -4.00249675       0.17350275       0.00069957      -0.12164318
O       13.78074526      29.46903083      15.87245443      -0.56857769       0.01088935       0.18092842
H       12.97709781      29.04899719      16.07903117      -0.07510256      -0.14506803       0.09438762
H       14.49996023      28.83501789      15.94285328      -0.13501953      -0.19091347      -0.02382764
O       -2.79927046       3.97728219       1.67411177      -0.52530014       0.18741125       0.51521214
H       -2.10375105       3.55224238       2.40000862      -0.16279225       0.14493087       0.10572400
H       -2.67193889       4.88020562       1.83050708      -0.02562824      -0.18127492       0.06716952
O        7.80952491     -14.01355735      10.97927469      -0.23219942      -0.47261088      -0.63636238
H        6.87094830     -14.49246168      11.25172395       0.27798860       0.19986542      -0.22848882
H        8.11669660     -13.93578270       9.99507100       0.28542492      -0.22918262       0.06501875
O       -2.41252685      10.55197547      24.39951193      -1.83140977       0.36057317      -1.04084225
H       -2.11285765      10.17367888      23.61153357       0.15661178      -0.26531603      -0.43878868
H       -3.22990210      10.99548622      24.04264811       0.35707101       0.13932825       0.39107932
O       20.08289429      21.73094456       1.53796245      -0.69558675       0.49456874       0.68610096
H       19.93322663      22.11000782       2.50684182       0.15645515       0.03798988      -0.44424812
H       19.85265185      20.74962861       1.62981693      -0.01137537       0.38912990      -0.44496802
O       12.13733448       9.99604738     -15.93648040       1.08156569       0.19669534      -0.11534173
H       12.65842042       9.40231289     -15.33542702      -0.05737272      -0.05608774      -0.28348385
H       12.36156003       9.96421856     -16.92618496       0.11273805       0.16491185       0.78027140
O      -11.40538509      22.30873889       1.06078218      -0.04823323      -0.77985320      -0.19473953
H      -11.55623023      21.23465268       1.16826030      -0.14442840       0.33145801      -0.00270890
H      -10.82800181      22.43729306       1.83044805      -0.03867731       0.18903029      -0.05995728
O        2.95067808     -15.02128424      16.15835224      -0.20179785      -0.62980873      -0.91213487
H        3.46265481     -15.77112712      16.58009378      -0.33899571      -0.03644707       0.14717532
H        3.58049928     -14.29398674      16.03566028       0.19459938       0.25034037      -0.22292533
O        2.45691584      16.36309626       0.35490782      -1.02940409      -0.49272974       0.63124354
H        2.09814729      16.03262701      -0.40064774      -0.20813197       0.04535650      -0.43421054
H        2.75395096      15.46476904       0.60421588       0.28635098       0.07573777      -0.10453371
O       -5.65194076      -7.28326019       5.59701169      -1.00184044      -0.20091219      -0.04508948
H       -5.42256430      -8.03964020       6.06859844      -0.02388628      -0.06797887       0.35844821
H       -4.87334608      -6.73114620       5.20955496      -0.59514736      -0.04654685      -0.23238108
O       -2.16806077       2.36849493       6.64580691       0.15506888       1.20762752      -0.13415230
H       -1.95350162       3.30830689       7.00251157      -0.28743197      -0.28404241      -0.18470034
H       -1.86712093       1.95445512       7.39971894       0.12539315      -0.29860369       0.35672925
O       13.16362946      -5.43828493      -1.44130417      -0.10795499      -1.21053529      -0.14860665
H       13.90830083      -5.19275740      -1.98366613       0.45371972       0.04847055      -0.18727286
H       12.84822114      -6.31114194      -1.94315101       0.20305557      -0.18639306       0.36744601
O       11.83094985       4.88775441      22.73196202      -0.43684210      -0.00683655       0.22128231
H       11.21367075       4.19201156      23.05231526       0.21627142       0.06595588      -0.19849308
H       11.84714401       4.99592033      21.78333635       0.14976841      -0.40934398       0.02156042
O        8.20943018      14.50855199      23.76580697      -0.89114855      -0.78063856       1.51199339
H        9.02660556      14.95906207      24.04464783      -0.09124733      -0.09074694      -0.32189838
H        8.10416256      13.53883082      24.14324619      -0.02362101       0.35362643      -0.11717319
O       -8.10582625       7.02354994      11.40682769       0.50688119       0.09329395       0.24249929
H       -7.32857014       6.56370550      11.02908317       0.12393422      -0.24701497      -0.04778839
H       -8.29974116       6.27532109      11.92076191       0.00434674      -0.11671026       0.18860489
192
Lattice="12.749279608552063 0.0 0.0 -5.291675009910449e-07 12.749279608552063 0.0 -5.291675009910449e-07 -5.291675009910449e-07 12.749279608552063" Properties=species:S:1:pos:R:3:momenta:R:3 step=20 time_fs=2.0 phase=equilibration pbc="T T T"
O       11.59373823       0.72692836     -16.51294923       1.12316988       0.13017834       1.05327193
H       11.88521369       0.84627573     -15.60040624       0.39661442       0.33186121      -0.40404903
H       10.79662716       0.17560805     -16.45396388       0.17114697      -0.04640826      -0.07080453
O       26.36782224      24.79039930       4.86754442       0.50357852      -0.47219351       0.98182076
H       26.69726464      23.91537016       4.61392023      -0.13784039       0.60949485       0.21613526
H       25.50744122      24.98293019       4.48713214       0.10699236       0.16825414      -0.04953963
O        4.55118804      -0.28976377       6.66477072      -0.00119809      -0.36647217      -1.57482540
H        4.87723136      -1.08093217       7.09559337       0.31514646      -0.17753908      -0.06602423
H        4.11448971       0.12539793       7.40797118       0.30495999      -0.05903389      -0.02183962
O       -2.85091510      -4.42832163       1.00429304      -0.15703985       0.67839555       1.17654656
H       -2.60314319      -3.69796752       0.38576659       0.07097598       0.21727707      -0.30426321
H       -3.67406619      -4.18242751       1.50252317      -0.31496857       0.03102211      -0.00792443
O        4.25898915      15.85207929      10.73046597       0.99964023       0.37484779      -0.44734944
H        4.31739278      16.65401745      11.20689186      -0.02313944       0.22626311      -0.04682868
H        5.11221168      15.74164424      10.35485436      -0.44972957       0.27258969      -0.08073745
O       -1.38814186       6.64311389       5.14120342      -0.21201633      -0.75244818       0.74377939
H       -1.22108976       6.31272246       4.22407495      -0.33428131      -0.21918170      -0.49373315
H       -0.49836247       7.04101070       5.20929811       0.08177554       0.04270565      -0.05579300
O       22.81750422      12.31051091       5.78395954      -0.02720806       0.57464115      -0.34712914
H       23.16631469      13.17952994       5.95939771      -0.06521421      -0.38643376      -0.08225539
H       22.48376988      12.42056975       4.80819693      -0.01028326      -0.16005884       0.40650753
O       -1.01126119     -15.76969499       6.81666908      -1.65845037       0.73077005      -0.10013125
H       -0.47782222     -16.08201624       6.07484475      -0.02547590      -0.02808982      -0.40196326
H       -1.45530356     -14.89844845       6.49347103       0.36387394      -0.45561729       0.19240950
O       15.46597550     -17.89111216       9.66937247       1.05112662      -0.79798585       0.67094068
H       16.14434795     -18.31103374      10.23597236      -0.48606687       0.03481517      -0.43447039
H       15.68562511     -16.94234964       9.67418862      -0.12720722      -0.17470593      -0.22213684
O        3.26060752     -14.65886777     -13.34112094       0.84094788       0.12067847      -0.83685657
H        4.08399334     -15.16570324     -13.23165728      -0.11723585       0.50822632       0.20365676
H        2.57102252     -14.93695615     -12.68938700       0.07356576      -0.24743531       0.09760075
O       -5.74583860       1.55883134       2.85486747      -0.24456839       1.11181861      -0.16682260
H       -6.43651413       1.29812537       2.25841908       0.10741507      -0.12068935       0.22886464
H       -5.43920615       2.38453985       2.35251525      -0.03855671      -0.01290204       0.36725364
O       -5.38018228      16.03187025      25.98003744       0.66112791       1.49212665      -0.69227627
H       -5.32367833      15.34697222      25.31955609      -0.12928892       0.17961113      -0.22380881
H       -4.35226690      16.50293542      26.00999082      -0.26062770      -0.46976353      -0.09986952
O        7.43680789     -15.71104922      -8.54904402       1.57942134       0.39913664       1.28984699
H        7.79441419     -16.59200163      -8.19113110       0.20429129       0.16892493       0.07316231
H        6.63730165     -15.67218596      -7.95318679      -0.45492964       0.29600297       0.30274524
O       13.68057947       8.54697565      17.94337826       0.15812433       0.14133040       0.55715112
H       14.03907468       8.74739062      17.08896324      -0.04660548      -0.32823757       0.47764925
H       14.24511034       7.93043936      18.45403612      -0.03515792       0.26707994      -0.31681506
O       -0.15290978       1.18677104      -1.24437456       0.00818514       0.67127436       0.80918812
H        0.79961179       1.38903154      -1.18245309      -0.16876936      -0.10776506      -0.00656619
H       -0.11673484       0.36079345      -0.65660226      -0.27255448       0.37178677      -0.36843917
O      -14.19312975      12.66468818      15.80878301      -0.08302069      -0.00135114      -0.01480272
H      -14.04913307      12.35374343      14.85527442       0.25076016      -0.13824637      -0.39309191
H      -15.07037369      12.24721477      16.02916481       0.46407901       0.21889196       0.17425246
O      -16.48298943       5.90059616      12.34782268       2.27312184       1.09054152       0.08856397
H      -17.05701021       5.97378026      11.58480876       0.03651473      -0.00325505      -0.37742207
H      -15.94244674       6.76259656      12.52537200      -0.59821270      -0.40002175      -0.43502315
O       -9.93812742      32.94815815      -9.57177764      -0.65929955      -0.92356565      -0.50242214
H       -9.32759938      32.26006235      -9.22102984      -0.00502807       0.22544877      -0.27268325
H      -10.58211430      32.34171006     -10.02303531       0.25249028       0.33645478       0.56666976
O       34.73495666      11.51265410      21.43914597       0.96360143      -0.61218773      -1.42149037
H       34.78073824      11.54122581      20.38904475      -0.00964146       0.05424734       0.27217395
H       35.18043361      10.61518157      21.43198199      -0.08308612       0.53054193       0.35815953
O       30.39390621     -12.69341873       2.17026089       0.43622890       0.54029000       0.16622602
H       29.73347331     -12.11712062       2.62740483      -0.35933224       0.17069822      -0.15600299
H       30.29085655     -12.62731517       1.21401370      -0.24004284      -0.01499237      -0.52642025
O       17.59099217       9.33351359      -7.42928517      -0.08919308      -1.65588698      -0.51047590
H       17.67604004       8.33693236      -7.51778341      -0.44949828       0.80639579      -0.22177442
H       17.45807489       9.50664539      -6.49930729      -0.17644996       0.05655626       0.07361243
O       -5.18674661       2.62124243      32.18200620       1.03908102      -0.63939878       0.41690174
H       -5.81311375       2.13326499      31.61293573      -0.34711423      -0.24227506      -0.08845586
H       -4.49295236       1.97515956      32.30409867       0.27272429       0.00674530       0.27198732
O        3.73917005       0.84490055      -0.23544191       1.17565851       0.69923600       0.52782377
H        3.50000194      -0.08027542      -0.27535354      -0.06898914       0.06435489      -0.04416743
H        4.09502685       1.19383389      -1.03850943       0.33978259      -0.10111525      -0.54508434
O       23.25110892       3.22469623      11.66669451      -0.77123207       0.41653607       0.26969203
H       22.95697727       3.67488392      12.51354257       0.51302400      -0.26776984      -0.32075107
H       23.94540622       2.54410304      11.70657488      -0.07451079      -0.12782836       0.08066956
O       -1.44517571      31.81149477      14.99514796      -0.24927454       0.47101499       1.31261091
H       -1.91185814      32.51352404      14.50307889      -0.04917311      -0.29379410       0.12534586
H       -0.61081508      31.97337587      14.49372598       0.18314318      -0.04606504      -0.24889917
O        4.82924359      19.39168989       5.20732162      -0.64244236      -0.11153704       0.58188332
H        4.21498838      18.95143791       5.80517336       0.25621672       0.26345749      -0.58700798
H        5.68610842      18.95447734       5.21926102       0.22086471      -0.27706809       0.05575101
O      -10.12621629      10.47756939       9.46375585      -0.77474067       0.42353682       0.02749145
H      -10.60319871      10.93968389       8.69151405      -0.09195229      -0.19491898       0.55736466
H      -10.54271389      10.87412726      10.23056617      -0.31922595       0.19979121       0.52439656
O       17.70555044      17.76385440      26.20531690       0.08465672      -0.28008574      -1.19162810
H       18.52167793      17.27875654      25.98613014      -0.11088801       0.21437125      -0.02065409
H       16.88754065      17.25311632      26.06542962      -0.20192862       0.03908359      -0.04799402
O        6.93485580      18.71926309      10.12630569      -0.09399701      -0.63841503       0.49570418
H        7.19935926      19.41589589       9.50985918       0.11538350      -0.13127399      -0.27962091
H        6.73937480      17.91857973       9.60996992      -0.14388275       0.42931801      -0.00875895
O       -0.61891912     -13.80232218      13.26295500      -0.25356678      -0.57457952       0.16016729
H       -1.35989627     -13.99702543      12.64565453      -0.07677729      -0.13291305       0.29545978
H       -0.10567926     -14.50521831      13.71900989      -0.30527244       0.20232412      -0.37763349
O        1.14512087       6.19745791       1.08631054       0.43531913      -2.56010479       1.24519097
H        1.57296152       5.24490582       1.10534048      -0.22200503       0.52017105      -0.03402245
H        0.86836823       6.21828680       0.10925031       0.05979708       0.10520884      -0.33517015
O        3.09741415       1.33036869       8.35117372       0.84028339      -0.53357314       0.61935342
H        2.17772595       0.79952657       8.21313471       0.43988823       0.62994637       0.21817440
H        3.22436690       1.62305945       9.27158887      -0.00234895      -0.28653571       0.01229114
O      -18.85786578      28.80060690     -16.14111419       1.17628967       0.33165074      -0.89689321
H      -18.61939437      28.74981389     -17.14219830      -0.33268697       0.44081117       0.49052345
H      -18.08441061      28.18676048     -15.81544884      -0.52634500       0.56108532      -0.03541840
O        2.89105943      26.88556338      -9.11360572      -0.84638981      -0.76783188      -0.65959091
H        3.50119879      26.90600918      -8.34136566       0.97618162       0.33991173       1.22910447
H        2.35927167      26.13215080      -8.83415005      -0.06509774       0.44070471      -0.32369642
O      -18.05392210      19.04953265       1.91211603      -0.86923003      -1.36331324      -0.15781718
H      -17.41073713      18.83587314       1.16070851      -0.53484195       0.12938991       0.66718150
H      -18.81500685      18.43314571       1.65510099       0.23519452       0.29724719       0.12286171
O       11.69740836      17.57323515       7.08022522       0.34218219       0.12250076      -0.51519300
H       12.56091164      17.39180381       6.63624116      -0.15380639      -0.11369923       0.10004102
H       11.40843990      18.33769015       6.51545807      -0.27579041      -0.09770544       0.08378731
O       -7.22431407     -11.18656555       5.19602562      -0.54423485      -0.88055661      -0.04972923
H       -6.48276973     -11.33993142       4.53183774       0.30338742       0.07110020      -0.03137837
H       -7.32742677     -12.13988705       5.48019392      -0.03582175       0.21160486       0.18735773
O      -24.12250891       3.43924906      10.70081112      -0.30641580      -1.35099828       0.19262656
H      -24.78396866       4.16441194      10.50767707       0.00750854      -0.14044726      -0.11739863
H      -23.22840230       3.74366571      10.27222517      -0.50465721       0.00017129       0.22813366
O      -11.43115126      -8.18761147      18.46913674      -0.50760762      -0.75021184       0.00568508
H      -10.59282098      -8.53484302      18.84734502       0.15276456      -0.15399718       0.29582416
H      -11.33193557      -8.47215314      17.53440664      -0.03569448       0.10736823      -0.51364380
O        8.63275420       7.32250380      16.93367129      -0.52569340       0.84707500      -0.40242158
H        9.58242193       7.35390520      16.78319055      -0.52918526      -0.09142642      -0.12009738
H        8.31510868       6.77125278      16.20256829      -0.18529103      -0.13115548      -0.04774213
O      -11.66130959      -0.47719216      20.41266305       0.79357130      -0.07399097       0.12974029
H      -12.51616163      -0.30806403      20.80726011      -0.07440156       0.04519505      -0.05636945
H      -11.57627459      -0.52224229      19.42866022      -0.28311318      -0.04483276       0.52588847
O       24.19688322       2.47062874      16.23787890      -0.86696303      -0.35079949      -0.99866306
H       23.84093070       2.48328308      17.13532133       0.08151326       0.00511141       0.27003870
H       23.92302453       1.57667737      15.87397199       0.30351192       0.69799349      -0.09015577
O       -5.66481727     -17.96396220      -4.99250510      -0.91562195       0.50670350      -1.12120952
H       -4.83144858     -17.67576387      -4.65015666       0.65037815      -0.30586769      -0.18210252
H       -5.83367284     -18.68018153      -5.64270668       0.14178129      -0.24223181      -0.10772293
O       29.50383873      -9.00289009      -6.14157609      -0.58488838       1.18777646      -0.50192788
H       30.17152703      -9.06489082      -6.87041993      -0.23727284       0.09561099       0.42311767
H       29.28768466      -9.95608192      -5.99585842      -0.40000424      -0.32904748       0.07642863
O        8.81242540      -0.68865867       3.39183681      -0.02704880       0.49907900       1.00544061
H        8.19004446      -0.10222106       2.95140557       0.33558088      -0.05496312      -0.14906145
H        8.24281702      -1.39193004       3.70589502       0.39931534       0.14888171      -0.31787931
O      -19.77458907      -3.17235296      24.77631101       0.11741341       0.12028446       0.16903256
H      -20.21620142      -3.92305548      24.22951873       0.32816109       0.23268391       0.19844180
H      -19.23111396      -3.36181422      25.59797965      -0.15765380      -0.05476171      -0.45587469
O        2.35231740      -5.81944304      -6.04411891       1.23159107       0.74665882      -0.10556861
H        2.62194741      -5.53502823      -5.12451525       0.07641103       0.20176878       0.60027185
H        1.85353003      -6.61299566      -6.21184907      -0.00503553      -0.26085582      -0.24182886
O        9.83329015       8.28873804       7.94625276       0.37567367      -0.26547971       0.20175524
H       10.56460245       8.58617976       7.37912705      -0.02433196      -0.37721219      -0.11023353
H       10.28894250       7.61008936       8.42603667       0.07132650      -0.10415013      -0.25502273
O        5.34195783       9.75062987      -4.80682393       0.89669589      -0.26532321      -0.62110140
H        6.07861487       9.11101898      -4.75303852      -0.36826102       0.44946421      -0.00209478
H        4.82751643       9.65578779      -4.01410818       0.15012878      -0.00770637      -0.10073535
O       13.77760307      29.46892314      15.87335273      -0.40751274       0.06865572       0.18743476
H       12.96006610      29.02948155      16.08835524      -0.25171468      -0.23649431       0.09582864
H       14.48737428      28.81380530      15.93945776      -0.12536712      -0.23026265      -0.04270254
O       -2.80198146       3.97713656       1.67769075      -0.37098036      -0.21561867       0.65879680
H       -2.12909310       3.56946765       2.39954444      -0.35451464       0.20326718      -0.11225528
H       -2.67169000       4.87818399       1.83900517       0.02764196       0.14550119       0.10572083
O        7.80755758     -14.01645759      10.97499371      -0.36063982      -0.52946593      -0.70818271
H        6.91304728     -14.46559948      11.22252619       0.57595747       0.33970437      -0.36523677
H        8.13877866     -13.96099025      10.01028542       0.16685647      -0.29052166       0.24725437
O       -2.42414953      10.55434133      24.39291030      -1.90493534       0.41127819      -1.04027225
H       -2.08984443      10.14201252      23.56276649       0.28884237      -0.35104579      -0.49708461
H       -3.19663570      11.01057343      24.08613976       0.29343461       0.18923568       0.49174681
O       20.07812703      21.73338510       1.54291178      -0.75086534       0.42707664       0.90314938
H       19.94923487      22.10796231       2.45104815       0.17230606      -0.06168618      -0.67319508
H       19.85261607      20.79464512       1.58666673       0.00469122       0.50003971      -0.43658334
O       12.14397060       9.99692728     -15.93699843       1.10079856       0.15386193      -0.05787279
H       12.64958442       9.40101737     -15.37243938      -0.10615395       0.01583275      -0.45892441
H       12.37160872       9.97771316     -16.84058897       0.11794724       0.11460488       0.88527184
O      -11.40548953      22.30277225       1.05976847      -0.03740442      -1.05405665      -0.13355028
H      -11.56895458      21.28245784       1.16462310      -0.12129115       0.64461968      -0.07240858
H      -10.83260534      22.45622994       1.82395660      -0.05501683       0.20845977      -0.06894378
O        2.94977990     -15.02503289      16.15263201      -0.07408684      -0.63132883      -0.88890452
H        3.42712909     -15.76656882      16.59101295      -0.37999743       0.11796754       0.08537637
H        3.59601737     -14.27637543      16.01494103       0.11132303       0.08645257      -0.19235560
O        2.45111155      16.35962785       0.35965997      -0.88118890      -0.58051381       0.85297137
H        2.06765714      16.03465324      -0.45862478      -0.38879520       0.02861058      -0.69474765
H        2.78200400      15.47656096       0.59621560       0.29307378       0.16073268      -0.05438605
O       -5.65778633      -7.28347223       5.59606735      -0.93767649       0.05401885      -0.20870827
H       -5.42005449      -8.05206884       6.10674052       0.06499653      -0.15843025       0.40566480
H       -4.93894197      -6.74390646       5.19294980      -0.73243498      -0.20772430      -0.11252684
O       -2.16718918       2.37686215       6.64459801       0.13518277       1.46820213      -0.18260361
H       -1.98446747       3.27501712       6.97833208      -0.34183645      -0.36656310      -0.29972515
H       -1.85036906       1.91671461       7.44464851       0.19576460      -0.44513683       0.51147322
O       13.16270294      -5.44656917      -1.44272539      -0.09508197      -1.49463197      -0.34067614
H       13.95254766      -5.18682732      -2.00127662       0.42163223       0.05562458      -0.15148696
H       12.86989221      -6.31740273      -1.90007493       0.24567453       0.05364126       0.50901961
O       11.82821581       4.88760614      22.73330890      -0.38775865      -0.00477506       0.31659301
H       11.23507089       4.20079847      23.03008862       0.21045260       0.09712916      -0.23944772
H       11.85923882       4.95545661      21.78388510       0.10517798      -0.41618707      -0.01271264
O        8.20366259      14.50289251      23.77511553      -0.96212063      -0.97920821       1.61388403
H        9.01598902      14.94523017      24.01223662      -0.10871189      -0.17986173      -0.33176441
H        8.10652511      13.58712810      24.12374904       0.07105992       0.61626892      -0.26430614
O       -8.10204012       7.02406661      11.40767477       0.69058687       0.06726865       0.09847049
H       -7.31806760       6.54461393      11.02343042       0.07741998      -0.13493655      -0.06010745
H       -8.30382935       6.25757455      11.94824542      -0.08206921      -0.21342856       0.35656617
192
Lattice="12.749002902090307 0.0 0.0 -5.291560161015945e-07 12.749002902090307 0.0 -5.291560161015945e-07 -5.291560161015945e-07 12.749002902090307" Properties=species:S:1:pos:R:3:momenta:R:3 step=30 time_fs=3.0 phase=equilibration pbc="T T T"
O       11.60034066       0.72765268     -16.50624057       1.10210978       0.11002747       0.98415593
H       11.92566154       0.87944005     -15.63648196       0.44400909       0.35070784      -0.31774308
H       10.81248672       0.17000213     -16.46051364       0.15930686      -0.06843740      -0.06747537
O       26.37030862      24.78721590       4.87373553       0.46760632      -0.32493737       1.08699632
H       26.68347385      23.97148183       4.63350647      -0.10414020       0.48423258       0.16927508
H       25.51836395      24.99756632       4.48175848       0.12430906       0.14736124      -0.05896511
O        4.55111361      -0.29219469       6.65496098       0.01981082      -0.45109187      -1.56134557
H        4.91040915      -1.09960735       7.08671739       0.35717579      -0.18285314      -0.12564287
H        4.13974674       0.12615956       7.40884956       0.21404340       0.07450418       0.04432469
O       -2.85198786      -4.42367478       1.01142177      -0.21388502       0.81818175       1.14261674
H       -2.60005773      -3.68413272       0.36249712      -0.01386831       0.05066752      -0.16084617
H       -3.69706822      -4.17805209       1.49587968      -0.15098469       0.05512230      -0.13018975
O        4.26433099      15.85370973      10.72758438       0.74388985       0.29876325      -0.38435105
H        4.31449175      16.68566943      11.20710657      -0.03628661       0.40260013       0.04007595
H        5.08188268      15.76323397      10.33851085      -0.14103929       0.17500254      -0.26463241
O       -1.38874451       6.63830829       5.14491140       0.01424451      -0.77018428       0.48130409
H       -1.25894902       6.29255660       4.18330957      -0.44391741      -0.18381101      -0.31990170
H       -0.49490902       7.04571405       5.20717278      -0.01858505       0.05193437       0.01374870
O       22.81656682      12.31346095       5.78090475      -0.12094133       0.43955923      -0.58811973
H       23.16310080      13.14940559       5.95501589       0.02448229      -0.19341362       0.00501749
H       22.48280447      12.40158589       4.85790037      -0.01183932      -0.22349165       0.58751748
O       -1.02162181     -15.76436593       6.81545076      -1.67649670       0.82793051      -0.25497911
H       -0.48112517     -16.08374831       6.03916055      -0.05690541      -0.00980686      -0.30291265
H       -1.41461686     -14.95137971       6.51514642       0.43643132      -0.57595410       0.23739667
O       15.47187494     -17.89557240       9.67329413       0.93151874      -0.76435225       0.63639948
H       16.09856512     -18.30955722      10.19427563      -0.39764003      -0.04527395      -0.37560777
H       15.67265913     -16.95647724       9.65161615      -0.12895402      -0.10761747      -0.23757515
O        3.26538240     -14.65778172     -13.34561870       0.70504293       0.14605923      -0.72587152
H        4.07255864     -15.11658154     -13.21084354      -0.08063375       0.47410461       0.22036719
H        2.58383018     -14.96043436     -12.68518266       0.18655241      -0.23819489      -0.01750064
O       -5.74681680       1.56620209       2.85373164      -0.11423361       1.28519484      -0.16308888
H       -6.43354859       1.27964214       2.27744870      -0.05635740      -0.26063132       0.15596347
H       -5.44305741       2.37831117       2.39432393      -0.03707052      -0.09614897       0.47863950
O       -5.37526288      16.04111320      25.97530558       0.90825351       1.62747359      -0.67041838
H       -5.33482819      15.36523181      25.29733417      -0.10581668       0.20082555      -0.21960882
H       -4.39265434      16.44813050      26.00041849      -0.57131041      -0.64107545      -0.08385635
O        7.44596714     -15.70894157      -8.54019518       1.44042710       0.18936436       1.53955363
H        7.81435592     -16.56733822      -8.18954899       0.20245063       0.32659648      -0.03959274
H        6.59881179     -15.64079942      -7.93142661      -0.30971658       0.33148156       0.12940179
O       13.68100218       8.54741621      17.94699609       0.03575052       0.07763187       0.77162553
H       14.03755838       8.71718874      17.12677850       0.03724009      -0.26860644       0.24464033
H       14.24061087       7.95839116      18.42336647      -0.02417022       0.27303223      -0.26478332
O       -0.15277705       1.19035833      -1.23913601       0.01035924       0.54177478       0.85870976
H        0.78385134       1.38076500      -1.18512437      -0.13270981      -0.05768381      -0.04624008
H       -0.14712182       0.40121641      -0.69558429      -0.34814520       0.41900787      -0.40447626
O      -14.19344856      12.66395966      15.80751386      -0.07542170      -0.12308075      -0.30476807
H      -14.02366660      12.34512522      14.82726862       0.25940126      -0.03083521      -0.16490137
H      -15.02073160      12.26955219      16.04649145       0.50744624       0.22443336       0.19323048
O      -16.46836939       5.90756710      12.34821102       2.31578933       1.15598141       0.08448217
H      -17.05034273       5.97599158      11.54951255       0.10298774       0.04368130      -0.32159934
H      -16.00720280       6.71547998      12.47819823      -0.69005953      -0.49212570      -0.50825006
O       -9.94188806      32.94129185      -9.57465385      -0.60628839      -1.00816098      -0.48020338
H       -9.32640758      32.28642123      -9.24612527       0.04611682       0.30556439      -0.23593453
H      -10.55956540      32.37695663      -9.96877049       0.15363018       0.35425369       0.50930366
O       34.74044761      11.50826763      21.42897534       1.04081809      -0.67532558      -1.72713634
H       34.77535437      11.55086498      20.42751451      -0.08419741       0.14528071       0.51639218
H       35.16924447      10.66951303      21.47041634      -0.10086843       0.53096769       0.43765721
O       30.39578323     -12.68932937       2.17116515       0.37142503       0.71526451       0.10787399
H       29.70042501     -12.10454125       2.60654553      -0.29273000       0.07212915      -0.27511972
H       30.26521479     -12.62761196       1.16886175      -0.26800319       0.00194871      -0.35843752
O       17.59017144       9.32289097      -7.43217756      -0.06313036      -1.64069818      -0.46213496
H       17.63164374       8.41718728      -7.54012124      -0.44592345       0.74005389      -0.25384825
H       17.44077135       9.51334217      -6.49063875      -0.16997963       0.08616026       0.09149626
O       -5.18051220       2.61711614      32.18367926       0.95811760      -0.70469288       0.34838366
H       -5.84411789       2.11471074      31.60912765      -0.27038130      -0.13092018       0.04059152
H       -4.46365940       1.97601425      32.33170697       0.30271911       0.02632313       0.30122537
O        3.74641815       0.84940665      -0.23201249       1.23323747       0.78448051       0.53756018
H        3.49248869      -0.07700339      -0.28350394      -0.08099217       0.01024903      -0.12305637
H        4.12735813       1.18164008      -1.09046345       0.30254413      -0.16717385      -0.47097621
O       23.24583703       3.22717134      11.66810129      -0.76120636       0.38075502       0.22329892
H       23.01229398       3.64502653      12.47843992       0.61392727      -0.31520819      -0.34225151
H       23.93452179       2.53543033      11.71718335      -0.14159662      -0.04611148       0.13955562
O       -1.44623265      31.81390954      15.00243131      -0.08347134       0.52644213       1.16900375
H       -1.92062968      32.48611167      14.51624457      -0.14159429      -0.23839733       0.14123892
H       -0.59600046      31.96366393      14.47468381       0.10887500      -0.14026917      -0.12750345
O        4.82565773      19.39064395       5.21054101      -0.41546898      -0.06861280       0.46018020
H        4.23523622      18.97472492       5.75267365       0.10964913       0.18996515      -0.44172982
H        5.70432148      18.92853278       5.22349338       0.13084586      -0.23194124       0.03181609
O      -10.13120783      10.48028596       9.46343922      -0.92254176       0.53611422       0.01314190
H      -10.60779117      10.91642013       8.75204668      -0.02827197      -0.25661835       0.65065705
H      -10.57042989      10.89138979      10.27899187      -0.23253308       0.13767669       0.43559126
O       17.70546918      17.76176716      26.19719734      -0.01197416      -0.26408412      -1.26384490
H       18.50787790      17.29642753      25.98467795      -0.14547801       0.14335375      -0.00301088
H       16.87391619      17.25841502      26.06200220      -0.06430616       0.07994946      -0.00974658
O        6.93410907      18.71525587      10.12909059      -0.09034286      -0.50389222       0.49019514
H        7.20904375      19.39970476       9.48586009       0.08595892      -0.18946953      -0.20217933
H        6.72524702      17.95770253       9.60857372      -0.15289549       0.34968169      -0.03045283
O       -0.62066179     -13.80525459      13.26366721      -0.33530530      -0.44124268       0.15267181
H       -1.36243256     -14.01404328      12.67813392       0.01080817      -0.22426392       0.36512646
H       -0.13847834     -14.48616168      13.67753521      -0.34205681       0.14769417      -0.44175706
O        1.14782385       6.18067932       1.09311407       0.43212858      -2.81035763       0.96925731
H        1.54588359       5.30779598       1.10388216      -0.30979492       0.72108550       0.01046601
H        0.87658626       6.23156121       0.08694957       0.10877047       0.17158026      -0.11894592
O        3.10186424       1.32651991       8.35457939       0.65354002      -0.70031032       0.54233431
H        2.23196776       0.86753368       8.23746832       0.64990476       0.75235972       0.27882486
H        3.22182748       1.59291345       9.26956183      -0.04429945      -0.32641339      -0.03640736
O      -18.84949506      28.80160197     -16.14691902       1.36326487       0.22929517      -1.07023143
H      -18.65662023      28.79385377     -17.08525888      -0.42807789       0.47542969       0.61174993
H      -18.14215274      28.24529050     -15.81683243      -0.62419491       0.61865097       0.01881824
O        2.88650204      26.88033268      -9.11670122      -0.56401933      -0.70601690      -0.39883867
H        3.59129976      26.93975735      -8.23189628       0.83297026       0.34861255       0.97487591
H        2.34724759      26.17163414      -8.86668692      -0.19175900       0.35532929      -0.32560333
O      -18.05907660      19.04040697       1.91070924      -0.96294754      -1.43263902      -0.20887833
H      -17.46371034      18.85026317       1.22806509      -0.49398126       0.15745712       0.64776390
H      -18.78836279      18.46778812       1.67198413       0.26440597       0.39357033       0.21799835
O       11.69939767      17.57390722       7.07646335       0.37144268       0.21704463      -0.64551542
H       12.54611946      17.37815417       6.64856057      -0.12804464      -0.15884631       0.14552941
H       11.37895142      18.32440753       6.52865154      -0.32262842      -0.16036081       0.18368060
O       -7.22678305     -11.19253638       5.19529041      -0.30373670      -1.11834825      -0.16176424
H       -6.46059014     -11.32847185       4.52823043       0.14173541       0.15495756      -0.03609702
H       -7.33449234     -12.11186672       5.49923242      -0.11287256       0.33629633       0.20750931
O      -24.12346407       3.43160195      10.70140879      -0.20531255      -1.13420022       0.09228487
H      -24.77563291       4.14400513      10.49697946       0.13479052      -0.26629535      -0.09571819
H      -23.29070804       3.73984236      10.29875605      -0.73776295      -0.06803859       0.29936116
O      -11.43342006      -8.19240423      18.46852809      -0.29482451      -0.87927388      -0.08503118
H      -10.58307303      -8.54844635      18.87615967       0.01977852      -0.12220513       0.28190246
H      -11.33831684      -8.45537788      17.49120622      -0.09389528       0.23822127      -0.32794392
O        8.62896085       7.32737087      16.93063144      -0.70404282       0.77960455      -0.47452568
H        9.53692655       7.34644832      16.77431774      -0.34763350      -0.05535500      -0.06124861
H        8.29401808       6.75958281      16.19693636      -0.24081922      -0.09566374      -0.04840986
O      -11.65583765      -0.47757831      20.41294509       0.89125307      -0.05364113       0.16560296
H      -12.52369416      -0.30292564      20.79850035      -0.07949320       0.05880047      -0.11317103
H      -11.60792413      -0.52629682      19.48277279      -0.36346572      -0.04182254       0.53258982
O       24.19084110       2.46834281      16.23149828      -0.91615642      -0.30309167      -0.91387511
H       23.85035367       2.48436780      17.15868263       0.12952130       0.01767292       0.19503060
H       23.95426834       1.64758333      15.86527088       0.32726374       0.68058630      -0.11246273
O       -5.67060945     -17.96060457      -4.99939983      -0.96783588       0.45746543      -1.15360754
H       -4.76796055     -17.70763700      -4.67308983       0.60975510      -0.36371734      -0.30239345
H       -5.81610792     -18.69696212      -5.64699572       0.21441357      -0.10188077       0.02324768
O       29.49950152      -8.99613866      -6.14487454      -0.66512911       0.93231806      -0.56693307
H       30.14588528      -9.05371916      -6.82446296      -0.23568046       0.12482936       0.47330563
H       29.24941207      -9.97700174      -5.98724505      -0.36615953      -0.08453651       0.09324774
O        8.81214627      -0.68540888       3.39779665       0.03479858       0.57720240       0.95589709
H        8.22227571      -0.10076693       2.93376883       0.32007282       0.09286094      -0.21769887
H        8.27849313      -1.38788896       3.68020509       0.31286978      -0.09640696      -0.19602674
O      -19.77367488      -3.17180062      24.77672459       0.03647545       0.06584544       0.12975370
H      -20.17656933      -3.89432526      24.25680849       0.46449623       0.33340780       0.35740635
H      -19.24994981      -3.36837056      25.54801515      -0.22128471      -0.08800213      -0.53318081
O        2.36003329      -5.81421290      -6.04425739       1.28870251       0.89995752       0.03909269
H        2.62464814      -5.52242697      -5.07606981      -0.02459305       0.04988317       0.36798946
H        1.85412359      -6.63900977      -6.23089711       0.03078106      -0.25329466      -0.15018159
O        9.83563099       8.28688958       7.94736090       0.45502662      -0.28087266       0.21889390
H       10.56014644       8.55391390       7.36464703      -0.05871823      -0.27880311      -0.18608602
H       10.29731330       7.59354139       8.40431444       0.10215735      -0.23184679      -0.18948289
O        5.34745303       9.74878476      -4.81090514       0.88577415      -0.22333238      -0.74883209
H        6.04503914       9.15272367      -4.75409406      -0.26148449       0.36587230      -0.02260724
H        4.83730838       9.65489297      -4.01903210       0.04233696      -0.00366057       0.00689244
O       13.77498858      29.46852712      15.87424833      -0.37176324      -0.01646728       0.22097714
H       12.93281676      29.00474084      16.09569268      -0.27094967      -0.24151328       0.05415956
H       14.47344647      28.79064519      15.93378970      -0.16235465      -0.22307200      -0.06636327
O       -2.80370330       3.97475886       1.68217582      -0.20693309      -0.48902094       0.81748036
H       -2.17202641       3.59065209       2.37869078      -0.52169766       0.22687361      -0.30845675
H       -2.66735484       4.90501762       1.85002087       0.05327090       0.37016349       0.11305741
O        7.80513582     -14.01941668      10.97017972      -0.32153278      -0.50877365      -0.78464689
H        6.97829021     -14.42840449      11.18082091       0.71546215       0.39033485      -0.47597242
H        8.14811475     -13.99173520      10.04200106       0.02633847      -0.34568660       0.39760994
O       -2.43511758      10.55612682      24.38550697      -1.64368410       0.21727403      -1.21010606
H       -2.06181748      10.11062861      23.52322002       0.26256055      -0.26645423      -0.27634260
H       -3.17783594      11.03456755      24.13421677       0.07623928       0.31441204       0.49027823
O       20.07319967      21.73571624       1.54838098      -0.69261628       0.49870486       0.82748560
H       19.96441852      22.10182390       2.38523146       0.13811219      -0.02198950      -0.61152328
H       19.85025086      20.83709524       1.54466836      -0.05671174       0.33742899      -0.42847957
O       12.14997308       9.99784357     -15.93594991       0.90826123       0.23681895       0.31622149
H       12.64110313       9.40021213     -15.41755229      -0.04029702      -0.05815607      -0.43180954
H       12.38741476       9.98713893     -16.77020274       0.22188339       0.09246957       0.48198334
O      -11.40541120      22.29527307       1.05904963      -0.01342362      -1.18406226      -0.10368773
H      -11.58033396      21.35444361       1.15417610      -0.12712074       0.78818429      -0.13776899
H      -10.83743807      22.47773055       1.81787628      -0.04207628       0.24657713      -0.04695694
O        2.94958304     -15.02824799      16.14673385       0.01717738      -0.50455217      -0.92942035
H        3.39049459     -15.75011335      16.59745102      -0.35769562       0.19428504       0.06504990
H        3.60119140     -14.27826173      15.99819173      -0.00245378      -0.13118220      -0.14297706
O        2.44561650      16.35518840       0.36454121      -0.91389790      -0.75550950       0.69280098
H        2.02771012      16.04303187      -0.52379048      -0.41077211       0.16684478      -0.59790046
H        2.81199252      15.49339388       0.59508742       0.32865074       0.18108939       0.03762989
O       -5.66351161      -7.28294240       5.59466422      -1.00102008       0.01483971      -0.17040939
H       -5.41130153      -8.06481204       6.14372189       0.10519776      -0.08435791       0.33999851
H       -5.01007889      -6.76785935       5.18493710      -0.68977666      -0.25951656      -0.07063597
O       -2.16616077       2.38543745       6.64385620       0.18892290       1.25989317       0.00750352
H       -2.01816571       3.24621598       6.94700739      -0.34052219      -0.16590674      -0.32007110
H       -1.83335857       1.87399050       7.48790574       0.13764215      -0.40725238       0.34194815
O       13.16231715      -5.45619193      -1.44549799       0.08288703      -1.64628009      -0.56260084
H       13.98573872      -5.18365676      -2.01062096       0.25439580       0.00158315      -0.03532579
H       12.89500297      -6.30261962      -1.84587107       0.26677010       0.21986134       0.58604634
O       11.82591303       4.88770989      22.73495034      -0.26866519       0.08718076       0.36785272
H       11.25116278       4.20703115      23.00723282       0.11019955       0.01465681      -0.20763927
H       11.86795783       4.91535469      21.77887006       0.08294485      -0.40101527      -0.08271061
O        8.19723020      14.49658616      23.78448089      -1.07849736      -0.89436867       1.57115749
H        9.00864207      14.92629013      23.97978436      -0.01839755      -0.18297685      -0.32233853
H        8.11566338      13.64751186      24.09570019       0.10251277       0.53785813      -0.26414708
O       -8.09712287       7.02365700      11.40785877       0.84550850      -0.18195257       0.06159869
H       -7.31435538       6.53814723      11.01725509      -0.00508961       0.00755449      -0.06287249
H       -8.31386994       6.24011806      11.98521966      -0.12141605      -0.11264096       0.38687849
192
Lattice="12.748711719098715 0.0 0.0 -5.291439303539505e-07 12.748711719098715 0.0 -5.291439303539505e-07 -5.291439303539505e-07 12.748711719098715" Properties=species:S:1:pos:R:3:momenta:R:3 step=40 time_fs=4.0 phase=equilibration pbc="T T T"
O       11.60669117       0.72823802     -16.50037740       1.05184162       0.08672419       0.79506838
H       11.97165584       0.91461964     -15.65870742       0.50344518       0.36967517      -0.14267742
H       10.82742954       0.16242145     -16.46560469       0.15468705      -0.08541097      -0.04004955
O       26.37215524      24.78585340       4.88080330       0.31808754       0.09106416       1.25695686
H       26.68009719      23.99950383       4.64420620       0.06145857       0.07583609       0.04473347
H       25.53013858      25.01124750       4.47563168       0.12881717       0.14777744      -0.06363285
O        4.55129555      -0.29546794       6.64549050       0.07359602      -0.62253917      -1.45695139
H        4.94470828      -1.11273967       7.06906608       0.34047178      -0.07223764      -0.23800670
H        4.15672596       0.13883012       7.41521596       0.14408992       0.17464125       0.07847761
O       -2.85340900      -4.41801044       1.01819997      -0.26775618       0.99323421       1.06883628
H       -2.60601407      -3.68908130       0.35542731      -0.10841324      -0.15364665       0.01627151
H       -3.70286588      -4.17163829       1.47730426       0.02735108       0.07492444      -0.24631122
O        4.26786251      15.85545188      10.72557037       0.45376189       0.41647952      -0.17937553
H        4.30988891      16.72489723      11.21024592      -0.05532230       0.37441602       0.00847759
H        5.08581637      15.77529607      10.30199074       0.20669927       0.08571064      -0.47163503
O       -1.38790756       6.63332513       5.14679816       0.24075250      -0.80745177       0.17038340
H       -1.30670517       6.27781683       4.16389221      -0.52960950      -0.11028490      -0.06860057
H       -0.50269482       7.04996509       5.21104201      -0.14099743       0.03558657       0.06271613
O       22.81512902      12.31510940       5.77701775      -0.15653172       0.18282482      -0.57876607
H       23.17142944      13.14414851       5.96085866       0.15744717       0.09129655       0.11646143
H       22.47689689      12.37721168       4.91350671      -0.12026432      -0.26609720       0.50257193
O       -1.03124207     -15.75978236       6.81335616      -1.43155579       0.48332971      -0.36356061
H       -0.49009848     -16.08328493       6.01821202      -0.12846118       0.00871801      -0.11830031
H       -1.37822850     -14.99469766       6.53491988       0.27534502      -0.25159932       0.15237901
O       15.47622671     -17.89945337       9.67636515       0.57469370      -0.61654602       0.41589098
H       16.07394839     -18.32440904      10.16885202      -0.07500892      -0.28447670      -0.12122547
H       15.66014485     -16.96123881       9.62741048      -0.11873500       0.00109459      -0.25346456
O        3.26882418     -14.65625937     -13.34951129       0.42905262       0.24907206      -0.64928851
H        4.07395042     -15.07538279     -13.18762905       0.13266351       0.35651295       0.25153335
H        2.60574832     -14.98234517     -12.69168077       0.25349114      -0.21814714      -0.11572143
O       -5.74711854       1.57423623       2.85292504      -0.04845122       1.30957621      -0.06858611
H       -6.44666498       1.24767427       2.28890208      -0.20256080      -0.38714872       0.08821983
H       -5.44474497       2.37023047       2.44259172       0.00799245      -0.04172593       0.49521281
O       -5.36885316      16.05103197      25.97057777       1.09676921       1.69945401      -0.68398881
H       -5.34532866      15.38483236      25.27566282      -0.12115043       0.20421297      -0.21439280
H       -4.46114002      16.37976263      25.99311278      -0.78374952      -0.72591670      -0.04715250
O        7.45402710     -15.70777627      -8.52980511       1.22818991       0.10352884       1.76992952
H        7.83320923     -16.52991221      -8.19690611       0.19315236       0.41053424      -0.10293292
H        6.57901869     -15.60846059      -7.92829966      -0.08661897       0.31849997      -0.06930182
O       13.68006243       8.54774879      17.95210346      -0.25153829       0.10834029       1.01172608
H       14.04706575       8.69680131      17.12919950       0.16222470      -0.14416479      -0.18984416
H       14.24410882       7.97752476      18.40770387       0.11672888       0.10639148      -0.03060830
O       -0.15299207       1.19392830      -1.23420424      -0.09017678       0.67109529       0.70866025
H        0.77689812       1.37806503      -1.19095797      -0.00008132       0.00292926      -0.07235748
H       -0.18419145       0.43326912      -0.72912868      -0.41307538       0.19729873      -0.25682136
O      -14.19286723      12.66290229      15.80415420       0.19544620      -0.10868630      -0.68368726
H      -13.99884037      12.34734822      14.82352600       0.23972170       0.08234702       0.09791180
H      -14.97932213      12.28630939      16.06765485       0.29971641       0.10853286       0.25661804
O      -16.45449559       5.91360843      12.34790212       2.03983962       0.79628949      -0.11737118
H      -17.03549996       5.98021142      11.52415478       0.19252171       0.03429648      -0.18629504
H      -16.06634607       6.68251416      12.42992744      -0.49061691      -0.11085154      -0.45790583
O       -9.94486492      32.93502608      -9.57707325      -0.42544080      -0.75001971      -0.37318333
H       -9.31485801      32.31399909      -9.26505707       0.20007817       0.26011222      -0.15134057
H      -10.55932337      32.40221091      -9.92761987      -0.17907659       0.15663399       0.31895529
O       34.74581862      11.50452680      21.41739142       0.94534796      -0.42364157      -1.82811265
H       34.76337615      11.56864485      20.48218837      -0.14131702       0.22589730       0.55180908
H       35.16491400      10.70753160      21.51635303       0.04943031       0.21781287       0.51784160
O       30.39696246     -12.68397730       2.17120628       0.23097010       0.93758147      -0.09223300
H       29.67653907     -12.10355886       2.57377806      -0.18069525      -0.05929105      -0.39151056
H       30.23803907     -12.62654604       1.14854031      -0.27180150       0.01301245      -0.04843293
O       17.58935946       9.31407168      -7.43428676      -0.07200979      -1.10056714      -0.25355572
H       17.58912122       8.46262669      -7.56971941      -0.41953232       0.13645169      -0.36823555
H       17.42469247       9.52286279      -6.48394223      -0.14806700       0.11062480       0.02769467
O       -5.17467529       2.61234216      32.18482458       0.91079115      -0.83622487       0.26464014
H       -5.86313393       2.10795203      31.62090851      -0.11586796      -0.00783909       0.21828188
H       -4.43728676       1.98220093      32.36011453       0.22428659       0.10764777       0.29219304
O        3.75430128       0.85448109      -0.22923459       1.36737428       0.86506927       0.34802820
H        3.48463311      -0.07642836      -0.29907290      -0.07553429       0.01220864      -0.19414289
H        4.15092041       1.15938515      -1.12388835       0.17568885      -0.29063325      -0.19913858
O       23.24090584       3.22888812      11.66833728      -0.66704957       0.18490409      -0.09507520
H       23.07196510       3.61918596      12.45660193       0.60642278      -0.18678402      -0.05788477
H       23.91716762       2.53441827      11.73233852      -0.19570928       0.01739798       0.17054670
O       -1.44596435      31.81639600      15.00888690       0.16596605       0.51281848       1.04861339
H       -1.94085495      32.46804789      14.52839566      -0.27791938      -0.11025045       0.11088913
H       -0.59072693      31.94463075      14.46906456      -0.00286784      -0.23447860       0.02048343
O        4.82450412      19.39014496       5.21243436       0.09622971       0.05473904       0.18615319
H        4.22997374      18.98386046       5.72393047      -0.22871865      -0.00113157      -0.13641402
H        5.70838971      18.91025737       5.22511943      -0.05289141      -0.12974159       0.00439086
O      -10.13684463      10.48348674       9.46436011      -0.96237458       0.56301149       0.40854915
H      -10.61423121      10.89470582       8.80795525      -0.13908925      -0.15785642       0.45310394
H      -10.58528213      10.89817133      10.31127362      -0.07330328       0.00249583       0.22806820
O       17.70440381      17.75996220      26.18868936      -0.21043337      -0.17931358      -1.30802453
H       18.49568702      17.30390970      25.98350634      -0.08302668       0.01064611      -0.01215686
H       16.87431603      17.26779873      26.06235550       0.07488655       0.11686002       0.02811179
O        6.93352473      18.71246243      10.13195639      -0.04402191      -0.26006607       0.52272776
H        7.21591571      19.37921303       9.47047867       0.05963878      -0.21569325      -0.10932381
H        6.70775048      17.98143701       9.60161605      -0.20845114       0.13327929      -0.11280232
O       -0.62316396     -13.80670300      13.26410145      -0.49103906      -0.10632178       0.08115914
H       -1.36130873     -14.04004219      12.71333843      -0.00998896      -0.31370339       0.34664210
H       -0.16673607     -14.48252310      13.63733222      -0.21099625      -0.10885108      -0.35458863
O        1.14983213       6.16387438       1.09801429       0.18880516      -2.52631276       0.62820186
H        1.52127394       5.36623812       1.10858386      -0.15098509       0.38935793       0.09266293
H        0.88934767       6.25180848       0.08688815       0.15122997       0.24834652       0.11796426
O        3.10598570       1.32204310       8.35740474       0.78517754      -0.71333144       0.43791446
H        2.29218774       0.94002270       8.26432453       0.50262635       0.69449443       0.25566222
H        3.21739507       1.56105005       9.26809741      -0.03162301      -0.31627845       0.03523315
O      -18.84119871      28.80268800     -16.15285648       1.13344275       0.37608174      -0.93568327
H      -18.69891170      28.84129776     -17.03818593      -0.43661008       0.51516555       0.27226096
H      -18.19390934      28.29728059     -15.80602702      -0.39398149       0.42189953       0.22122911
O        2.88427524      26.87603024      -9.11821682      -0.13868825      -0.48505057      -0.18072857
H        3.66055514      26.97032979      -8.15272906       0.59642177       0.28854163       0.65562248
H        2.32031811      26.19673934      -8.89372241      -0.36881040       0.16165569      -0.22621556
O      -18.06508903      19.03167605       1.91038096      -1.12590367      -1.22678414       0.17228578
H      -17.49570889      18.86233262       1.27499089      -0.13591423       0.08594691       0.27337319
H      -18.77039808      18.50269910       1.69499694       0.05784751       0.30028170       0.24033252
O       11.70127344      17.57504659       7.07217773       0.31687374       0.27647722      -0.68213184
H       12.53802309      17.36012263       6.66246526      -0.02353570      -0.20135633       0.13500056
H       11.34529950      18.30722447       6.54939510      -0.36137880      -0.17443195       0.23556176
O       -7.22766892     -11.19940586       5.19369502      -0.03571347      -1.16736551      -0.32840741
H       -6.45563159     -11.31011729       4.52533717      -0.04514854       0.21089163      -0.01774114
H       -7.34922628     -12.07908691       5.52113359      -0.19272588       0.30163380       0.24999782
O      -24.12450696       3.42475457      10.70179688      -0.36075438      -1.11323003       0.14504251
H      -24.76157752       4.11575662      10.48845000       0.11463617      -0.28987276      -0.07771163
H      -23.35752794       3.73356042      10.32416508      -0.57037459      -0.03774711       0.19546861
O      -11.43416859      -8.19808719      18.46721186      -0.03403816      -1.03176648      -0.20708272
H      -10.59094336      -8.55759095      18.89835714      -0.19023088      -0.06872948       0.17302416
H      -11.34863640      -8.42526541      17.47410169      -0.11927375       0.37300135      -0.00447910
O        8.62327127       7.33164628      16.92702093      -1.10048261       0.66180978      -0.58090760
H        9.52084147       7.34304614      16.76952072       0.03345038      -0.01124404      -0.03202059
H        8.26856220       6.75391259      16.19447852      -0.27330236      -0.01132233       0.01361244
O      -11.65002379      -0.47783138      20.41444621       0.90513816      -0.03227655       0.51459323
H      -12.53025314      -0.29673036      20.78496894      -0.05849897       0.06823313      -0.14889091
H      -11.64515366      -0.53111018      19.52004468      -0.39981063      -0.06076096       0.19445614
O       24.18471963       2.46758538      16.22647392      -0.88868111       0.11482827      -0.57343256
H       23.86594086       2.48652215      17.16946411       0.20267864       0.02639407       0.02538438
H       23.98240497       1.69639938      15.84569074       0.25209021       0.28135189      -0.30090138
O       -5.67602458     -17.95755149      -5.00637043      -0.81213829       0.40684070      -1.14651105
H       -4.71837459     -17.74653233      -4.71024524       0.38446941      -0.44286688      -0.46491493
H       -5.79212597     -18.69856118      -5.63766261       0.27139934       0.05683371       0.16107114
O       29.49384201      -8.99109907      -6.14772129      -0.99142859       0.64266727      -0.37407546
H       30.13186178      -9.04086499      -6.78591809      -0.00752911       0.13256488       0.28400556
H       29.21564108      -9.97059904      -5.97782358      -0.31136622       0.21246463       0.09574854
O        8.81266570      -0.68138631       3.40340519       0.19779644       0.73055456       0.89659715
H        8.25149088      -0.08431982       2.90882874       0.28673420       0.23256731      -0.28549431
H        8.30140986      -1.41283069       3.66805667       0.16341636      -0.40668064      -0.05815115
O      -19.77330071      -3.17090463      24.77665650      -0.06187394       0.25281096       0.02656416
H      -20.12898097      -3.86460848      24.29268740       0.47150469       0.22836075       0.34904097
H      -19.26846564      -3.38017096      25.50023234      -0.13627225      -0.16065428      -0.39007821
O        2.36790933      -5.80834997      -6.04327206       1.28558375       0.95095888       0.23792915
H        2.61691146      -5.52511404      -5.05465487      -0.13166779      -0.10607690       0.06546520
H        1.86141403      -6.65829380      -6.24056156       0.12688417      -0.13056562      -0.04987201
O        9.83850506       8.28481137       7.94865907       0.56494349      -0.34692374       0.26907974
H       10.55294036       8.53168271       7.34250417      -0.08579327      -0.17329701      -0.26275324
H       10.30698410       7.56609778       8.38730592       0.09088446      -0.31573671      -0.16507171
O        5.35210275       9.74784194      -4.81577422       0.63864702       0.00528042      -0.86213248
H        6.03554060       9.17543855      -4.75717998       0.09249760       0.08620762      -0.04197158
H        4.83525358       9.65507997      -4.01301228      -0.07519335       0.01380147       0.10245339
O       13.77217208      29.46714598      15.87539098      -0.45827852      -0.22820675       0.27047070
H       12.91135874      28.98373094      16.09711218      -0.14763444      -0.16674445      -0.02033384
H       14.45414367      28.77040163      15.92601288      -0.22798204      -0.17479523      -0.08441740
O       -2.80452020       3.97159293       1.68752080      -0.11581985      -0.44705105       0.89658094
H       -2.22699805       3.61084198       2.34335583      -0.56459386       0.16123479      -0.36768165
H       -2.66244403       4.94231087       1.85948295       0.04102293       0.35916610       0.07550482
O        7.80401465     -14.02167694      10.96494752       0.06819662      -0.30051018      -0.82008823
H        7.03836315     -14.39573215      11.13299348       0.44536173       0.23804289      -0.47595363
H        8.14531688     -14.02693166      10.08217927      -0.05975789      -0.37649269       0.39073098
O       -2.44401208      10.55641396      24.37696156      -1.27182478      -0.04394549      -1.39050812
H       -2.04139703      10.09213008      23.50977253       0.14685620      -0.10121737       0.01281760
H       -3.18176984      11.07102569      24.17878519      -0.14873622       0.43103196       0.43202147
O       20.06891007      21.73853690       1.55235285      -0.54587181       0.57214378       0.43781424
H       19.97368750      22.10824444       2.34283403       0.05575943       0.18418679      -0.21549274
H       19.83907158      20.85424228       1.50232012      -0.16775799       0.01451435      -0.44176237
O       12.15430192       9.99958173     -15.93222882       0.58294509       0.41038051       0.77732910
H       12.64417709       9.38495985     -15.45052591       0.11524021      -0.26015520      -0.24283940
H       12.41559700       9.99662209     -16.75378762       0.36508344       0.11054891      -0.16097114
O      -11.40503142      22.28806961       1.05830105       0.07034769      -0.91886315      -0.13721197
H      -11.59592223      21.42076226       1.13905344      -0.21521966       0.50324238      -0.16437982
H      -10.83926157      22.50374578       1.81596988      -0.00087007       0.29725590       0.00737716
O        2.94965977     -15.03037686      16.14036487       0.01163056      -0.29086125      -1.03537580
H        3.35960160     -15.73190185      16.60536063      -0.26465924       0.15220047       0.11757583
H        3.59610911     -14.30019552      15.98635000      -0.09323728      -0.31442577      -0.09420676
O        2.43967938      16.34968402       0.36795195      -1.00288521      -0.90779932       0.42071822
H        1.98975295      16.06638970      -0.57068220      -0.35616228       0.30996885      -0.34823450
H        2.84568489      15.51014563       0.60291626       0.35569203       0.17111777       0.11062211
O       -5.67018376      -7.28349443       5.59413565      -1.23487377      -0.27896649       0.06509689
H       -5.40046541      -8.06507544       6.17039541       0.11019215       0.08433739       0.20263478
H       -5.06645734      -6.78916801       5.17484697      -0.44483343      -0.16066661      -0.15197829
O       -2.16479321       2.39168343       6.64437488       0.23864790       0.77636214       0.20466586
H       -2.04963673       3.24895192       6.91821292      -0.30403673       0.23038863      -0.26028490
H       -1.82421655       1.83938392       7.50891790       0.04923351      -0.29298661       0.09240307
O       13.16338571      -5.46594940      -1.44932495       0.38253439      -1.51701194      -0.67204222
H       14.00043178      -5.18681195      -2.00755375       0.05236799      -0.06891244       0.09784653
H       12.91853385      -6.28312513      -1.79010576       0.20496108       0.12233586       0.53439233
O       11.82445761       4.88855911      22.73665787      -0.11727450       0.22677053       0.34397582
H       11.25428479       4.20128449      22.99014858      -0.04348511      -0.13376167      -0.12845484
H       11.87541610       4.87762466      21.76744359       0.07712474      -0.36900228      -0.13295557
O        8.19005420      14.49204171      23.79305947      -1.19455016      -0.43596506       1.38881175
H        9.01444296      14.91165558      23.94823018       0.14500697      -0.10373688      -0.31554553
H        8.12352979      13.67652470      24.07632096       0.05560544       0.01484277      -0.10734643
O       -8.09140501       7.02132015      11.40810147       0.94685637      -0.53090812       0.11304036
H       -7.31811833       6.54571424      11.01024329      -0.06930133       0.14717344      -0.07893732
H       -8.32635545       6.23876978      12.02054884      -0.13573936       0.09598614       0.33614247
192
Lattice="12.74848339667141 0.0 0.0 -5.291344536766803e-07 12.74848339667141 0.0 -5.291344536766803e-07 -5.291344536766803e-07 12.74848339667141" Properties=species:S:1:pos:R:3:momenta:R:3 step=50 time_fs=5.0 phase=equilibration pbc="T T T"
O       11.61283936       0.72872994     -16.49575131       1.02930044       0.08447619       0.63086396
H       12.02191960       0.95056702     -15.66529046       0.52077043       0.36142665      -0.01628020
H       10.84258201       0.15365910     -16.46679570       0.16123637      -0.09360120       0.01337287
O       26.37311885      24.78736577       4.88898173       0.15877318       0.52753268       1.43221681
H       26.69481852      23.98491564       4.64166493       0.24065377      -0.34377881      -0.09109997
H       25.54256492      25.02543157       4.46913824       0.13745607       0.15060678      -0.06939832
O        4.55178854      -0.29979345       6.63699194       0.10728164      -0.77936457      -1.25988804
H        4.97532053      -1.11192297       7.03990538       0.28554476       0.09154015      -0.35521943
H        4.16934248       0.15770045       7.42120302       0.12477644       0.19959750       0.03302776
O       -2.85509260      -4.41139035       1.02448483      -0.28804296       1.12124824       0.98688078
H       -2.62037479      -3.71275918       0.36467188      -0.18000864      -0.31997284       0.16049878
H       -3.69345157      -4.16298691       1.44917184       0.14591326       0.10398189      -0.31930983
O        4.27013484      15.85838481      10.72488471       0.35975080       0.63684577      -0.00237962
H        4.30427087      16.75278691      11.20514479      -0.05291376       0.18714858      -0.11979164
H        5.11464944      15.78117363      10.25026234       0.33373170       0.05257438      -0.55472312
O       -1.38589306       6.62805372       5.14680005       0.38798532      -0.87904806      -0.13774566
H       -1.36070381       6.27159567       4.17081645      -0.57222231      -0.01286705       0.21467183
H       -0.52115440       7.05243483       5.21829343      -0.22519460       0.02225470       0.08498671
O       22.81398800      12.31532774       5.77408648      -0.05804237      -0.01225124      -0.31200089
H       23.19161266      13.16397188       5.97646650       0.25098035       0.29075789       0.19557546
H       22.45539063      12.34981598       4.94848810      -0.32230982      -0.28902546       0.19719926
O       -1.03896724     -15.75820970       6.81080012      -1.09035329      -0.07170760      -0.42633999
H       -0.50594857     -16.08191719       6.01613747      -0.19460044       0.01153754       0.07572832
H       -1.36433250     -14.99248299       6.54274959       0.00605863       0.30224669       0.00904694
O       15.47825389     -17.90235389       9.67797836       0.19395426      -0.44118300       0.18072410
H       16.08361626     -18.36354122      10.17015629       0.25844660      -0.50107317       0.13173316
H       15.64942790     -16.95723324       9.60251734      -0.09135604       0.05983126      -0.24793575
O        3.27058514     -14.65410250     -13.35314414       0.18536642       0.36391607      -0.61847211
H        4.09949149     -15.04646328     -13.16138145       0.38300195       0.23905817       0.27921344
H        2.63081505     -15.00265521     -12.70565310       0.25037710      -0.20746775      -0.16666025
O       -5.74751120       1.58178508       2.85279654      -0.14166373       1.12635635       0.03799054
H       -6.46838265       1.20693847       2.29710827      -0.21576605      -0.42749714       0.09743368
H       -5.44032526       2.37426280       2.48761418       0.08052185       0.13728809       0.41747391
O       -5.36262615      16.06089830      25.96577647       0.81199223       1.57583748      -0.73564274
H       -5.35972597      15.40357536      25.25400653      -0.18060356       0.18658662      -0.22033116
H       -4.52689723      16.31361290      25.99164338      -0.47441912      -0.59392298       0.03242154
O        7.46055972     -15.70659256      -8.51829593       0.92746614       0.22686795       1.91400221
H        7.85377252     -16.49253593      -8.20650273       0.24548862       0.31877431      -0.08290578
H        6.58249486     -15.57899378      -7.94453576       0.16314062       0.27691347      -0.26594169
O       13.67748582       8.54848599      17.95832457      -0.47525883       0.18119077       1.07531555
H       14.06613825       8.68753613      17.09454249       0.21157151      -0.05544801      -0.45767026
H       14.26310009       7.97855952      18.41700523       0.26704752      -0.06832089       0.21526348
O       -0.15385987       1.19883311      -1.23057429      -0.18350150       0.94037948       0.46378888
H        0.78407636       1.38107571      -1.19903321       0.14118983       0.05726763      -0.09367208
H       -0.22808819       0.43519466      -0.74287112      -0.49102637      -0.16270780      -0.02354900
O      -14.19025284      12.66222755      15.79842445       0.57382899      -0.03421798      -1.08503556
H      -13.97703510      12.36045166      14.84577078       0.19985935       0.18794152       0.36007919
H      -14.96496294      12.28866047      16.09660434      -0.00951692      -0.05581372       0.34227478
O      -16.44291110       5.91665829      12.34613990       1.63753630       0.22441244      -0.38403020
H      -17.01259206       5.98076054      11.51315390       0.26955386      -0.02535437      -0.03483418
H      -16.09780240       6.70230180      12.39031762      -0.15920272       0.53091488      -0.35021616
O       -9.94666304      32.93091627      -9.57884595      -0.22329057      -0.40532763      -0.26531649
H       -9.28547001      32.33450093      -9.27474943       0.40055767       0.17469493      -0.05233700
H      -10.59632863      32.40460620      -9.90682483      -0.58030570      -0.08897929       0.10995042
O       34.75054259      11.50266409      21.40641087       0.80182624      -0.13656166      -1.57100917
H       34.74683422      11.59526167      20.52107638      -0.18561943       0.33200040       0.19680256
H       35.17900405      10.70930982      21.57116048       0.24819344      -0.16563943       0.61757312
O       30.39733466     -12.67729927       2.16985088       0.06803242       1.15960195      -0.33956953
H       29.66374886     -12.11520713       2.53175956      -0.07729292      -0.17756154      -0.45648025
H       30.21191649     -12.62490306       1.15928550      -0.24688599       0.01286962       0.25871438
O       17.58858582       9.30920916      -7.43481686      -0.07545152      -0.45489658       0.03647971
H       17.54839998       8.44126258      -7.61182866      -0.41427033      -0.53634461      -0.48815742
H       17.41190543       9.53324708      -6.48731862      -0.10494726       0.09578372      -0.10829367
O       -5.16907305       2.60673903      32.18564552       0.88576637      -0.96844793       0.19495478
H       -5.86586495       2.11262581      31.65025678       0.05739431       0.10011296       0.39228337
H       -4.42099575       1.99732994      32.38676219       0.10716499       0.20200362       0.26514425
O        3.76305433       0.85984404      -0.22783137       1.50266037       0.87419420       0.10525787
H        3.47805451      -0.07287920      -0.32067638      -0.05745265       0.06667463      -0.24480183
H        4.16101651       1.12552333      -1.12809130       0.03487683      -0.39733892       0.11073480
O       23.23664597       3.22925531      11.66624898      -0.59648048      -0.03879334      -0.51612871
H       23.12783425       3.61184655      12.47119425       0.54647079       0.04387064       0.36578947
H       23.89751368       2.53617230      11.74870457      -0.18681074       0.00501670       0.16453843
O       -1.44417838      31.81890305      15.01469124       0.39515778       0.49511956       0.92661955
H       -1.97418468      32.46306835      14.53750791      -0.39744567       0.01166437       0.08728351
H       -0.59642002      31.91697503      14.47794585      -0.11175457      -0.31880878       0.16422473
O        4.82660109      19.39049262       5.21266855       0.58711123       0.16184065      -0.06159266
H        4.19153422      18.97427692       5.72477106      -0.53456759      -0.17511625       0.13595181
H        5.69321182      18.90258103       5.22436002      -0.25331364      -0.02432445      -0.01624720
O      -10.14240293      10.48661091       9.46837845      -0.90063630       0.51149891       0.96211040
H      -10.63797093      10.88798428       8.83473564      -0.35883309       0.02802624       0.09105014
H      -10.58411739      10.89124616      10.32335665       0.09340606      -0.14046780       0.02600193
O       17.70222570      17.75897815      26.18011499      -0.37858214      -0.02805208      -1.32981743
H       18.49226439      17.29713535      25.98094989       0.01952436      -0.14204317      -0.03049262
H       16.88570464      17.27918103      26.06606839       0.14905796       0.11371796       0.05527177
O        6.93329174      18.71124078      10.13507351       0.00473820      -0.04461742       0.54337227
H        7.22065512      19.35793607       9.46387020       0.04218829      -0.20896171      -0.02529056
H        6.68403487      17.98304277       9.58663273      -0.27341071      -0.08112912      -0.18145102
O       -0.62665204     -13.80585874      13.26412598      -0.64067814       0.29405609       0.01006346
H       -1.36786309     -14.07405168      12.74255396      -0.13636184      -0.38644964       0.24988117
H       -0.17639236     -14.50952345      13.61030199       0.01595896      -0.44720864      -0.19413786
O        1.14981545       6.15004370       1.10077840      -0.19442011      -1.92448199       0.28254475
H        1.52133309       5.37344878       1.12269096       0.16170772      -0.25622148       0.19853936
H        0.90554410       6.27973313       0.10931523       0.17981312       0.32514246       0.33777747
O        3.11205532       1.31800109       8.35964433       1.25126979      -0.58053782       0.34846132
H        2.31756034       0.99742898       8.28417793      -0.02404394       0.46960145       0.14870979
H        3.21731229       1.53230729       9.27860753       0.03413544      -0.27293373       0.18308090
O      -18.83523503      28.80524971     -16.15747406       0.69124188       0.62629475      -0.66300945
H      -18.74015300      28.89404584     -17.03927429      -0.41744689       0.58139508      -0.30610691
H      -18.21239882      28.32210237     -15.76971585       0.01562576       0.09314932       0.52355963
O        2.88459707      26.87321470      -9.11858576       0.25345165      -0.29335202       0.02657647
H        3.70767144      26.99519827      -8.10321170       0.34570152       0.23006830       0.33832569
H        2.27516447      26.20274281      -8.91078365      -0.53739057      -0.00605897      -0.13007436
O      -18.07200817      19.02488479       1.91307694      -1.21387982      -0.86833510       0.71342695
H      -17.48631719      18.86520664       1.27774179       0.31881700      -0.01748636      -0.20992759
H      -18.78189058      18.52135859       1.71685994      -0.31659954       0.07984435       0.20525249
O       11.70277582      17.57646349       7.06795054       0.24428374       0.27630228      -0.64506183
H       12.54116630      17.33902404       6.67363016       0.08520309      -0.21817840       0.09438098
H       11.30851342      18.29116110       6.57251225      -0.38537239      -0.14325514       0.23290433
O       -7.22689621     -11.20606405       5.19098378       0.24798807      -1.04710917      -0.52338182
H       -6.46938922     -11.28810363       4.52508000      -0.23997083       0.22976173       0.01529883
H       -7.37102163     -12.05684491       5.54867035      -0.24790458       0.13772817       0.32053299
O      -24.12723780       3.41739225      10.70300884      -0.67808914      -1.28647088       0.32324953
H      -24.75587133       4.09068314      10.48052765      -0.01811420      -0.21103926      -0.08558267
H      -23.39215965       3.73542875      10.33265849      -0.12945032       0.08686811      -0.02650383
O      -11.43345339      -8.20467532      18.46527186       0.18554889      -1.15196921      -0.30717050
H      -10.61901874      -8.56182247      18.90855010      -0.37813028      -0.02600749       0.04686544
H      -11.36064993      -8.38330286      17.48927101      -0.12993730       0.47755772       0.30529928
O        8.61520981       7.33517175      16.92274978      -1.44249276       0.53094377      -0.71605073
H        9.54031031       7.34361342      16.76739150       0.33043682       0.02219116      -0.00320945
H        8.24147614       6.75786339      16.19976029      -0.27257825       0.09691080       0.10130102
O      -11.64431857      -0.47794875      20.41861417       0.88243554      -0.00893032       0.95109221
H      -12.53442076      -0.28954891      20.76981847      -0.03120067       0.07936054      -0.14958588
H      -11.68452810      -0.53854365      19.51559575      -0.40999183      -0.09236433      -0.27310853
O       24.17900502       2.46982052      16.22390035      -0.83003184       0.61777033      -0.18314544
H       23.88854856       2.48878370      17.16247992       0.26561071       0.01564631      -0.15843082
H       24.00198733       1.69994897      15.80507705       0.16215096      -0.19360518      -0.51644114
O       -5.68013121     -17.95475835      -5.01313540      -0.54666768       0.41571894      -1.07017000
H       -4.69509135     -17.79265858      -4.76318183       0.08846777      -0.50407568      -0.61730103
H       -5.76399198     -18.68756705      -5.61771846       0.29599891       0.13843742       0.22522047
O       29.48594091      -8.98784071      -6.14905744      -1.40748677       0.37498392      -0.10246472
H       30.14574612      -9.02788646      -6.77122384       0.29868022       0.12761274       0.02039636
H       29.18792201      -9.93573009      -5.96882514      -0.24482502       0.49089267       0.08360044
O        8.81400232      -0.67652120       3.40868523       0.26040702       0.82961709       0.84621511
H        8.27921381      -0.05964288       2.88075059       0.29393596       0.24676264      -0.27117961
H        8.31242272      -1.46125923       3.66587523       0.08646722      -0.54095550      -0.00564257
O      -19.77360436      -3.16805647      24.77606451      -0.14947688       0.68416396      -0.06810363
H      -20.08941039      -3.85763564      24.31619088       0.31386080      -0.11548773       0.11396062
H      -19.27054534      -3.39975617      25.47816978       0.10295055      -0.24155410      -0.03133637
O        2.37564696      -5.80242922      -6.04111157       1.24473054       0.93746892       0.42542859
H        2.59928587      -5.54246114      -5.06304736      -0.22607574      -0.24900540      -0.23480546
H        1.87951712      -6.66246925      -6.24022170       0.24625853       0.04572450       0.05480352
O        9.84230927       8.28215580       7.95037098       0.74288946      -0.47860054       0.33319426
H       10.54226675       8.51973487       7.31397090      -0.13468714      -0.06954485      -0.31371241
H       10.31270503       7.53383630       8.37036242       0.02197496      -0.33441979      -0.18443199
O        5.35492457       9.74844311      -4.82110987       0.31899948       0.22981343      -0.88695707
H        6.06283412       9.16908475      -4.76178184       0.44568142      -0.19519550      -0.05169060
H        4.82488721       9.65731450      -4.00227931      -0.11865968       0.03460372       0.09584339
O       13.76867913      29.46445777      15.87693288      -0.60616205      -0.47363532       0.32591687
H       12.90491790      28.97209395      16.09097733       0.02019676      -0.05904023      -0.09837264
H       14.42912335      28.75542846      15.91687058      -0.27177529      -0.12602198      -0.09671791
O       -2.80553311       3.96987002       1.69251931      -0.26013347      -0.05070716       0.70594125
H       -2.27276920       3.61593014       2.31749008      -0.34348033      -0.07800453      -0.12399264
H       -2.65996191       4.96891899       1.86370311       0.00728095       0.17220121       0.00930078
O        7.80613518     -14.02224352      10.95991173       0.68084795       0.04475634      -0.73331711
H        7.05242916     -14.38695336      11.09175105      -0.18817326      -0.07693002      -0.35504889
H        8.14054958     -14.06342768      10.11001092      -0.01445486      -0.37461408       0.15065389
O       -2.45078092      10.55527846      24.36744053      -0.96942478      -0.24604116      -1.56942663
H       -2.03411731      10.09125080      23.52452726      -0.00158806       0.08886216       0.29606178
H       -3.20318285      11.11543345      24.21754794      -0.26565844       0.46398454       0.37515061
O       20.06570030      21.74167445       1.55350464      -0.38855829       0.56003128      -0.04325418
H       19.97400083      22.13732373       2.34545149      -0.04135095       0.40371274       0.24954781
H       19.81699428      20.84159037       1.45913209      -0.27087155      -0.23198501      -0.43457656
O       12.15674879      10.00240572     -15.92595887       0.31287310       0.55029827       1.13846426
H       12.66207191       9.35001401     -15.46518128       0.24137962      -0.43507228      -0.08051300
H       12.45712465      10.00870242     -16.79661823       0.47847127       0.14134677      -0.67331803
O      -11.40386207      22.28373892       1.05735394       0.25653322      -0.34009925      -0.15863458
H      -11.62435387      21.44157522       1.12310095      -0.37791373      -0.08407260      -0.15922787
H      -10.83806592      22.53406594       1.81800018       0.01426028       0.32630277       0.02611369
O        2.94938164     -15.03123022      16.13329717      -0.10487009      -0.09140387      -1.17180162
H        3.33986099     -15.72262299      16.62149708      -0.13864367       0.02477547       0.22467462
H        3.58518827     -14.33552227      15.97844325      -0.11077625      -0.39023827      -0.06855285
O        2.43320663      16.34344648       0.36971545      -1.09123664      -1.02434294       0.15747765
H        1.96035881      16.10077778      -0.58861999      -0.23770723       0.39331225      -0.00813955
H        2.87924186      15.52682315       0.61395309       0.32584642       0.17987909       0.10571587
O       -5.67857377      -7.28625232       5.59541762      -1.53156558      -0.66135476       0.38886327
H       -5.39007890      -8.04755827       6.18236392       0.10031121       0.26922291       0.04603939
H       -5.09391047      -6.79657437       5.15285709      -0.11931244       0.00813369      -0.30064402
O       -2.16312671       2.39490165       6.64610219       0.29553154       0.30559603       0.40408055
H       -2.07729737       3.28803483       6.89644738      -0.26589133       0.53941188      -0.18717210
H       -1.82383432       1.81919316       7.50520503      -0.04370893      -0.10770863      -0.16968184
O       13.16661464      -5.47409829      -1.45349452       0.74779790      -1.14673636      -0.68456504
H       13.99576689      -5.19659741      -1.99174727      -0.13770164      -0.13177947       0.22215807
H       12.93190101      -6.28653694      -1.74449663       0.06694776      -0.21879477       0.39491904
O       11.82391745       4.89019901      22.73810602      -0.00221698       0.31891907       0.25144937
H       11.24318785       4.18200874      22.98110928      -0.16752775      -0.24476216      -0.05329760
H       11.88253218       4.84352040      21.75433064       0.07257918      -0.32808704      -0.11466626
O        8.18232245      14.49082864      23.80057273      -1.26471637       0.11230535       1.20948456
H        9.03502168      14.90486078      23.91695769       0.26224123      -0.04279418      -0.31948175
H        8.12619879      13.64770202      24.07434853       0.00891276      -0.57366719       0.06653370
O       -8.08531803       7.01690515      11.40888742       0.97311718      -0.85601041       0.21778255
H       -7.32587531       6.56524556      11.00071511      -0.08108969       0.24624730      -0.11705379
H       -8.33936823       6.25903116      12.04927978      -0.13066706       0.32107816       0.25423033
192
Lattice="12.748310040982645 0.0 0.0 -5.291272584311901e-07 12.748310040982645 0.0 -5.291272584311901e-07 -5.291272584311901e-07 12.748310040982645" Properties=species:S:1:pos:R:3:momenta:R:3 step=60 time_fs=6.0 phase=equilibration pbc="T T T"
O       11.61913711       0.72935879     -16.49186679       1.08934041       0.13328856       0.58215657
H       12.07007713       0.98346039     -15.66552957       0.45660731       0.30571261      -0.01383659
H       10.85844774       0.14411916     -16.46190318       0.16609143      -0.10310774       0.08480415
O       26.37348934      24.79109015       4.89813301       0.10372467       0.73757990       1.55510772
H       26.72241391      23.94006504       4.62822336       0.30513889      -0.50666396      -0.16678848
H       25.55658668      25.03917466       4.46159259       0.16036363       0.13443563      -0.08583514
O        4.55237533      -0.30486742       6.62989319       0.09458210      -0.85640190      -1.02354989
H        5.00010111      -1.09558015       7.00067156       0.22845685       0.23253275      -0.43951753
H        4.18206004       0.17565704       7.41932111       0.14066527       0.16093123      -0.07643090
O       -2.85671422      -4.40442914       1.03040507      -0.24086280       1.09069081       0.96441904
H       -2.63862260      -3.74675083       0.38197601      -0.17776779      -0.34542183       0.15891263
H       -3.67947482      -4.15054662       1.41798319       0.10779785       0.15377737      -0.30225795
O        4.27270907      15.86274867      10.72488587       0.53126153       0.84782518       0.02640873
H        4.30029248      16.75950451      11.18568723      -0.02440147      -0.04243658      -0.27533581
H        5.14129613      15.78687826      10.19940302       0.18086146       0.07488644      -0.46353190
O       -1.38337582       6.62222311       5.14502399       0.40213938      -0.99671287      -0.40168449
H       -1.41704396       6.27492873       4.20484132      -0.57950816       0.07741428       0.46980797
H       -0.54322641       7.05562891       5.22721031      -0.20829825       0.05550261       0.09955196
O       22.81396087      12.31502687       5.77319972       0.16469608       0.00677168       0.04789016
H       23.21559946      13.19266181       5.99571167       0.22436531       0.26009301       0.18217218
H       22.41323949      12.32135734       4.95158985      -0.52751514      -0.28482694      -0.11399360
O       -1.04476357     -15.75995234       6.80790941      -0.83187063      -0.51737916      -0.48625795
H       -0.52716221     -16.08082377       6.03147045      -0.23353710       0.00452746       0.22741493
H       -1.37510633     -14.93851807       6.53755529      -0.20417587       0.75379131      -0.09997589
O       15.47850565     -17.90454884       9.67858804      -0.00356662      -0.38142941       0.09244397
H       16.11718666     -18.41464199      10.18830743       0.39359294      -0.51307873       0.20839507
H       15.64264162     -16.95182784       9.57996841      -0.04038955       0.03579856      -0.20736229
O        3.27138378     -14.65144417     -13.35670168       0.12911361       0.42274294      -0.59532986
H        4.14376981     -15.02592738     -13.13392411       0.49054985       0.19391560       0.27178656
H        2.65295586     -15.02292138     -12.72240289       0.20094892      -0.21513303      -0.17603041
O       -5.74891478       1.58778561       2.85320016      -0.34887537       0.83196173       0.09748530
H       -6.48329003       1.16844816       2.31035859      -0.07169725      -0.34355734       0.18294257
H       -5.42992242       2.39664850       2.52276058       0.12205036       0.30944574       0.30443718
O       -5.35943960      16.06962879      25.96060168       0.17362538       1.33295388      -0.84385205
H       -5.38052795      15.42183048      25.23296427      -0.24753664       0.19774802      -0.19968118
H       -4.54181581      16.26639541      25.99943434       0.19513106      -0.36859222       0.13834956
O        7.46506873     -15.70419004      -8.50618860       0.57756625       0.49698700       1.98043853
H        7.88277159     -16.47142801      -8.21095274       0.35641481       0.10080671      -0.00633596
H        6.61055471     -15.55454735      -7.97937641       0.40742553       0.21870866      -0.44431777
O       13.67433906       8.54958563      17.96423469      -0.44245491       0.19644454       0.90348339
H       14.08317311       8.68282077      17.05254397       0.12294420      -0.05255588      -0.33927836
H       14.29138786       7.96897591      18.44408614       0.28714864      -0.09264941       0.31147337
O       -0.15507306       1.20530732      -1.22835853      -0.19852828       1.14370771       0.27417940
H        0.80144027       1.38812111      -1.20893317       0.19076467       0.07658632      -0.10599594
H       -0.27957097       0.40473537      -0.73584147      -0.55480460      -0.42003105       0.14179206
O      -14.18558468      12.66206875      15.79059616       0.84758639       0.03586224      -1.34951368
H      -13.95946617      12.38222741      14.89050694       0.16206274       0.24921805       0.52984453
H      -14.97729598      12.27646213      16.13246500      -0.21456661      -0.17656329       0.38489947
O      -16.43363177       5.91652299      12.34290206       1.34845019      -0.18239996      -0.59920244
H      -16.98300919       5.97483837      11.51648484       0.32615865      -0.09425276       0.09681065
H      -16.10006277       6.78043883      12.36029394       0.07967664       1.01368275      -0.26945722
O       -9.94745377      32.92864802      -9.58013311      -0.10238716      -0.23888881      -0.20877938
H       -9.23923457      32.34910452      -9.27654256       0.51127800       0.15234570      -0.00339052
H      -10.66671245      32.38766027      -9.90272306      -0.80779519      -0.21613798      -0.00011277
O       34.75478951      11.50198422      21.39784265       0.76299361      -0.08890803      -1.11219848
H       34.72599689      11.63366686      20.51462265      -0.22864661       0.44999781      -0.30986473
H       35.20865618      10.68193232      21.63462835       0.33749240      -0.33052018       0.66425635
O       30.39691866     -12.66945536       2.16700204      -0.05404795       1.32394642      -0.56739343
H       29.65797641     -12.13546132       2.48829977      -0.05324008      -0.22468215      -0.41365148
H       30.19029784     -12.62449678       1.19471934      -0.18326308      -0.01230535       0.43583581
O       17.58787962       9.30743074      -7.43382179      -0.07952095      -0.17788238       0.22076100
H       17.50761962       8.37168655      -7.66076107      -0.41365190      -0.78827523      -0.49147431
H       17.40392922       9.53950130      -6.50511029      -0.05473229       0.03068811      -0.25061658
O       -5.16361068       2.60051832      32.18629571       0.87596157      -1.02480985       0.17186373
H       -5.85285371       2.12586029      31.69487197       0.19324340       0.15843092       0.51762330
H       -4.41558710       2.02050302      32.41076763       0.01081324       0.26532564       0.23816805
O        3.77255442       0.86504462      -0.22787165       1.59687905       0.81162934      -0.10143420
H        3.47301314      -0.06321747      -0.34560000      -0.04933117       0.12735141      -0.25878977
H        4.15893534       1.08398971      -1.10449341      -0.06163413      -0.43802482       0.34662663
O       23.23269197       3.22853431      11.66192147      -0.59934058      -0.15314472      -0.78989991
H       23.17841526       3.62608278      12.52332292       0.50423262       0.22615190       0.65620539
H       23.88184114       2.53317757      11.76349047      -0.12279767      -0.07173878       0.14075912
O       -1.44129310      31.82157697      15.01975940       0.51279014       0.52650066       0.79140772
H       -2.01554158      32.46701317      14.54640868      -0.43454192       0.06482821       0.10741545
H       -0.61163964      31.88215023      14.49957056      -0.19219784      -0.38278033       0.27440185
O        4.83088287      19.39131404       5.21189260       0.74592193       0.16994595      -0.12621214
H        4.13394035      18.95394800       5.74374204      -0.58779246      -0.20204529       0.20997288
H        5.66132463      18.90322347       5.22217255      -0.37503431       0.02739753      -0.02536432
O      -10.14763630      10.48949003       9.47573974      -0.86477357       0.48507822       1.44403451
H      -10.68271796      10.89878184       8.82714583      -0.54229767       0.18102726      -0.21699727
H      -10.56681762      10.87070856      10.31645343       0.25599343      -0.27382197      -0.15846210
O       17.69951692      17.75913008      26.17154599      -0.39208403       0.15754591      -1.34641427
H       18.49756350      17.27679518      25.97711883       0.08074155      -0.26073641      -0.03761131
H       16.89938441      17.28748604      26.07183330       0.11855121       0.05183353       0.06805577
O        6.93327380      18.71105212      10.13815508       0.00960923       0.03929915       0.49109567
H        7.22435703      19.33876299       9.46466733       0.03871893      -0.17401202       0.04010831
H        6.65532216      17.96881590       9.56879700      -0.30631343      -0.18286012      -0.16422493
O       -0.63086954     -13.80298166      13.26391301      -0.72381963       0.53572066      -0.01117776
H       -1.38771572     -14.11420724      12.76183727      -0.25810919      -0.43582419       0.15918729
H       -0.16590744     -14.56487382      13.59703943       0.17413455      -0.65232480      -0.09414628
O        1.14753966       6.13985122       1.10157626      -0.51139970      -1.42109903       0.00623204
H        1.55086214       5.32007845       1.14653504       0.41568890      -0.77933436       0.28136384
H        0.92423510       6.31408087       0.15142696       0.20322017       0.37492701       0.51238339
O        3.12140450       1.31490618       8.36156489       1.78681802      -0.43144118       0.32830533
H        2.28520163       1.03158414       8.29289057      -0.61626362       0.24527147       0.03452572
H        3.22394037       1.50727646       9.30148638       0.10175194      -0.24433927       0.27292738
O      -18.83194597      28.80933421     -16.16071156       0.32720942       0.81481087      -0.49785312
H      -18.77920166      28.95234118     -17.08986988      -0.38218283       0.60505215      -0.66053027
H      -18.19374367      28.31764228     -15.70738400       0.32356751      -0.14419945       0.70915468
O        2.88719150      26.87129077      -9.11726890       0.58760017      -0.24122501       0.38456651
H        3.71862037      27.01326627      -8.09269199      -0.15824923       0.14386766      -0.14851171
H        2.22269347      26.20150339      -8.91871922      -0.49883786       0.02450641      -0.03718945
O      -18.07915573      19.02023536       1.91867169      -1.16879164      -0.59418670       1.05641137
H      -17.43800598      18.85999400       1.23992458       0.61123921      -0.07293280      -0.50971154
H      -18.83083770      18.51860120       1.73540942      -0.66323829      -0.11182650       0.18050941
O       11.70399655      17.57775494       7.06408517       0.21495233       0.21263172      -0.58219343
H       12.55168363      17.31874717       6.68065778       0.11744950      -0.18362740       0.05328348
H       11.27090651      18.27910230       6.59334072      -0.37680235      -0.10006519       0.19196590
O       -7.22439405     -11.21181291       5.18722817       0.52470630      -0.87842656      -0.65658880
H       -6.50151438     -11.26639361       4.52779775      -0.40995069       0.20507849       0.03460889
H       -7.39457076     -12.05216093       5.58341223      -0.22296179      -0.03448943       0.38808704
O      -24.13199005       3.40877397      10.70543516      -0.95616669      -1.49544120       0.50390645
H      -24.76551664       4.07559561      10.47096706      -0.18721701      -0.09915829      -0.10726536
H      -23.38233126       3.75052528      10.31870658       0.30320934       0.21543797      -0.24741339
O      -11.43183028      -8.21178102      18.46312074       0.25739220      -1.17819497      -0.27830775
H      -10.66014621      -8.56412223      18.90913954      -0.43672892      -0.03746184      -0.00943291
H      -11.37336423      -8.33383422      17.52578916      -0.13337298       0.52451829       0.39048297
O        8.60586142       7.33799915      16.91767259      -1.51220357       0.43177171      -0.86022423
H        9.57460582       7.34630536      16.76903128       0.31881290       0.03056976       0.04489555
H        8.21649255       6.77248110      16.21299867      -0.23310513       0.20106456       0.16648606
O      -11.63885800      -0.47795297      20.42502651       0.83964040       0.00099459       1.16781165
H      -12.53575549      -0.28120215      20.75566277       0.00221928       0.09211454      -0.13447275
H      -11.72422102      -0.54868734      19.47275918      -0.40396060      -0.11161276      -0.54153654
O       24.17376792       2.47471256      16.22326095      -0.76966069       0.93359999      -0.01727071
H       23.91550979       2.48837566      17.14076761       0.28384482      -0.02870684      -0.25573247
H       24.01472753       1.66575397      15.74926475       0.11732602      -0.44870027      -0.58612019
O       -5.68249884     -17.95163396      -5.01914549      -0.25478266       0.54013674      -0.89661834
H       -4.69955180     -17.84214915      -4.82829212      -0.16006392      -0.50060103      -0.70370050
H       -5.73648402     -18.67686282      -5.59872058       0.25109460       0.04330785       0.13454196
O       29.47591190      -8.98595748      -6.14907028      -1.68316986       0.23774123       0.03002933
H       30.18475611      -9.01639747      -6.77764290       0.47105974       0.10244243      -0.11823160
H       29.16683421      -9.87860272      -5.96159176      -0.18642385       0.64065881       0.06619835
O        8.81525142      -0.67147240       3.41372905       0.16505025       0.78988139       0.81509486
H        8.30969346      -0.04041648       2.85893858       0.33624908       0.13428281      -0.16490206
H        8.32193825      -1.50948672       3.66336186       0.12667402      -0.41383780      -0.05782758
O      -19.77444373      -3.16238007      24.77517783      -0.20277716       1.12496573      -0.09583222
H      -20.06780739      -3.88811087      24.31290002       0.13490112      -0.49258366      -0.16049323
H      -19.24831398      -3.42636506      25.49243089       0.32729915      -0.29694001       0.30189329
O        2.38309365      -5.79668612      -6.03801390       1.19196439       0.90909948       0.53213596
H        2.57366117      -5.57255303      -5.09769733      -0.29189193      -0.36235179      -0.45116621
H        1.90887689      -6.64970033      -6.22977577       0.35019062       0.20461166       0.15604208
O        9.84741871       8.27860432       7.95243659       0.97042614      -0.64488338       0.36740866
H       10.52531706       8.51753662       7.28267055      -0.21513642       0.02380297      -0.31725613
H       10.30985085       7.50215511       8.35060523      -0.08077464      -0.30636212      -0.22011161
O        5.35618686       9.74997473      -4.82633030       0.15971404       0.27120198      -0.82269830
H        6.11352424       9.14354647      -4.76654875       0.53778000      -0.28292853      -0.04547964
H        4.81538876       9.66104704      -3.99777673      -0.05953865       0.04177248      -0.01879561
O       13.76424897      29.46049723      15.87891606      -0.77518455      -0.67292581       0.39181609
H       12.91362537      28.97128677      16.07794508       0.14840887       0.04757923      -0.16058996
H       14.40302519      28.74355069      15.90675862      -0.24570268      -0.11864970      -0.10602621
O       -2.80777764       3.97105304       1.69593471      -0.48139146       0.45461542       0.41436497
H       -2.29137195       3.59357599       2.32237515      -0.04212683      -0.37758428       0.22331905
H       -2.66094516       4.97448364       1.86115877      -0.02701495      -0.05975413      -0.05995156
O        7.81180541     -14.02080170      10.95585020       1.14134278       0.33577889      -0.52698723
H        7.00458334     -14.40842309      11.06290887      -0.73121997      -0.33776682      -0.24688427
H        8.14437371     -14.09945330      10.10780647       0.09555552      -0.37021547      -0.19361414
O       -2.45615512      10.55334041      24.35696593      -0.82176508      -0.31012570      -1.71848076
H       -2.04190764      10.10899487      23.56564424      -0.15511065       0.27077225       0.53841369
H       -3.22813604      11.15677565      24.25149691      -0.22274318       0.36648388       0.32829949
O       20.06337140      21.74457075       1.55210810      -0.29651283       0.47277041      -0.36395522
H       19.96555649      22.18083976       2.38358917      -0.12115825       0.46301051       0.48118239
H       19.78770523      20.81633944       1.41994036      -0.31231577      -0.24103291      -0.35777346
O       12.15832432      10.00570542     -15.91846009       0.31277131       0.53771241       1.15902504
H       12.68646103       9.30577924     -15.47092404       0.23632996      -0.43179166      -0.07405489
H       12.50366750      10.02310935     -16.86791840       0.44680066       0.14960259      -0.68743196
O      -11.40149302      22.28304806       1.05640488       0.45593283       0.17113909      -0.13956561
H      -11.66786385      21.40811445       1.10867196      -0.49925830      -0.53971369      -0.13286744
H      -10.83793480      22.56437367       1.81901846      -0.02470988       0.28708873      -0.01502198
O        2.94805432     -15.03136976      16.12556347      -0.32793306      -0.05651794      -1.26181347
H        3.33164891     -15.72630875      16.64837947      -0.03803413      -0.09343202       0.32319681
H        3.57876372     -14.37032052      15.97106608       0.00218064      -0.30222015      -0.08525118
O        2.42619277      16.33664364       0.36988158      -1.18498595      -1.11412511      -0.10155174
H        1.94437313      16.14143474      -0.57100403      -0.08688044       0.44147103       0.37149278
H        2.90821365      15.54481542       0.62247429       0.26756315       0.19225112       0.06733836
O       -5.68869647      -7.29117929       5.59861311      -1.77516496      -0.94304117       0.65291339
H       -5.38043098      -8.01403273       6.18017163       0.10096876       0.40066902      -0.07816378
H       -5.09182620      -6.78907952       5.11743948       0.13845231       0.12615520      -0.40900696
O       -2.16103522       2.39578849       6.64927566       0.38049991       0.04167221       0.67216772
H       -2.10178585       3.34515298       6.87983731      -0.23859024       0.57934389      -0.16368183
H       -1.83303162       1.82019675       7.47486133      -0.14674404       0.13460625      -0.45301596
O       13.17200791      -5.47986978      -1.45760413       1.03725058      -0.78432305      -0.65326325
H       13.97521099      -5.21186525      -1.96566672      -0.25966718      -0.17874266       0.29817826
H       12.93132910      -6.32578179      -1.71273646      -0.06621579      -0.56575139       0.26479359
O       11.82386409       4.89205280      22.73895906       0.02089361       0.28337103       0.12346415
H       11.22452444       4.15738748      22.97781217      -0.19466386      -0.23806032      -0.01427475
H       11.88902302       4.81368644      21.74681516       0.06327571      -0.28213170      -0.02279156
O        8.17442246      14.49249543      23.80739725      -1.25951975       0.42655503       1.14602542
H        9.06078785      14.89962032      23.88499538       0.24431156      -0.07773871      -0.32963517
H        8.12693703      13.57523867      24.08495239       0.01946368      -0.82456008       0.12962011
O       -8.07939904       7.01075785      11.41049961       0.90471286      -1.09780038       0.36146339
H       -7.33127698       6.59139297      10.98619304      -0.01985364       0.28132789      -0.18195050
H       -8.35085870       6.30041610      12.06931449      -0.10459385       0.52240527       0.16112848
192
Lattice="12.748111521876131 0.0 0.0 -5.29119018760972e-07 12.748111521876131 0.0 -5.29119018760972e-07 -5.29119018760972e-07 12.748111521876131" Properties=species:S:1:pos:R:3:momenta:R:3 step=70 time_fs=7.0 phase=equilibration pbc="T T T"
O       11.62603067       0.73043995     -16.48794002       1.22380512       0.22741241       0.62184818
H       12.10844298       1.00891286     -15.67026477       0.32772948       0.21293470      -0.09521073
H       10.87432879       0.13337287     -16.44947469       0.16226822      -0.11774152       0.16604117
O       26.37392204      24.79495605       4.90770837       0.18974727       0.60017045       1.57378332
H       26.74813750      23.89785871       4.61263592       0.21116548      -0.30474994      -0.13652236
H       25.57342691      25.05028028       4.45213811       0.19267607       0.09980812      -0.10734731
O        4.55268578      -0.31001457       6.62413320       0.01772344      -0.79453652      -0.83436322
H        5.02150826      -1.07013742       6.95620107       0.22677036       0.26407465      -0.45793935
H        4.19679368       0.18817683       7.40570519       0.16171590       0.09503236      -0.19772206
O       -2.85786690      -4.39826838       1.03654009      -0.14570360       0.87134538       1.05647147
H       -2.65179802      -3.77396414       0.38898272      -0.08183592      -0.19208930      -0.04035024
H       -3.67740772      -4.13241166       1.39305673      -0.08213024       0.21838400      -0.20020177
O        4.27672709      15.86816271      10.72467042       0.80299650       0.97216603      -0.05960864
H        4.29981924      16.74641254      11.15243456       0.01737685      -0.19615965      -0.39045394
H        5.14676473      15.79584368      10.16197501      -0.07135251       0.11448484      -0.29604841
O       -1.38113045       6.61564567       5.14211977       0.31377977      -1.10093348      -0.46815448
H       -1.47308219       6.28417217       4.25605960      -0.57166980       0.09613996       0.53372691
H       -0.55860434       7.06473487       5.23757465      -0.09729302       0.13909719       0.11436881
O       22.81535961      12.31536034       5.77428579       0.39419614       0.17692772       0.30084222
H       23.23117364      13.20867428       6.00901809       0.09098610       0.05652857       0.08442834
H       22.35511265      12.29518915       4.93222084      -0.63469132      -0.24320572      -0.23869283
O       -1.04967304     -15.76316754       6.80461614      -0.82251254      -0.52159129      -0.54774224
H       -0.54947810     -16.08103531       6.05654043      -0.21097581      -0.01756935       0.26321433
H       -1.39760205     -14.85962975       6.52703836      -0.22186029       0.77577867      -0.09250941
O       15.47816109     -17.90678901       9.67913325      -0.00644380      -0.45203390       0.14979892
H       16.15350620     -18.45724983      10.20529491       0.33510535      -0.34927563       0.12716691
H       15.64132918     -16.95103380       9.56227087       0.01785720      -0.02932262      -0.15235741
O        3.27257361     -14.64865970     -13.35999368       0.31108769       0.39926487      -0.54037198
H        4.18767988     -15.00548826     -13.10999343       0.38048485       0.23036419       0.20583475
H        2.66950870     -15.04460730     -12.73881362       0.13826259      -0.23749455      -0.16052630
O       -5.75157967       1.59209627       2.85383463      -0.53448617       0.60433239       0.12075988
H       -6.48021627       1.14223847       2.33299751       0.13305107      -0.18902510       0.27841477
H       -5.41856286       2.43037866       2.54761168       0.09682486       0.35655156       0.21273019
O       -5.36028118      16.07686460      25.95461191      -0.43612068       1.12131755      -0.97319551
H       -5.40778858      15.44205981      25.21463998      -0.31323690       0.22145973      -0.16989748
H       -4.48952442      16.23993170      26.01837195       0.83846798      -0.18412934       0.25912996
O        7.46777352     -15.70011871      -8.49393937       0.40039386       0.72439783       1.94050828
H        7.92243329     -16.47150063      -8.20771741       0.44963499      -0.09042581       0.06409867
H        6.65697641     -15.53554669      -8.02745232       0.49948352       0.17372540      -0.51330103
O       13.67206414       8.55042679      17.96880462      -0.20948018       0.10766819       0.67837599
H       14.08781382       8.67546582      17.03474827      -0.02662697      -0.09925786      -0.00498692
H       14.31349639       7.96560818      18.47156658       0.15255016       0.04403922       0.23864073
O       -0.15620625       1.21231461      -1.22683143      -0.17115096       1.10235397       0.24216391
H        0.81631530       1.39337346      -1.21859346       0.09453951       0.01996717      -0.08723010
H       -0.33263259       0.36440256      -0.72171926      -0.51429642      -0.35332055       0.11699130
O      -14.18004571      12.66229715      15.78224435       0.82716325       0.10378890      -1.20919978
H      -13.94273464      12.40494278      14.93842112       0.19237166       0.19942157       0.39672012
H      -14.99846144      12.25750693      16.16786991      -0.18112824      -0.18794270       0.32773385
O      -16.42532670       5.91531572      12.33866181       1.31321906      -0.09629934      -0.70150784
H      -16.95031624       5.96216141      11.52889030       0.33021547      -0.16420093       0.14677722
H      -16.08859968       6.88254752      12.33661987       0.11934269       0.99848109      -0.21351911
O       -9.94800753      32.92632533      -9.58129776      -0.15305088      -0.39475492      -0.22859827
H       -9.19321524      32.36679246      -9.27826950       0.39959125       0.23443237      -0.04546373
H      -10.73969319      32.36902258      -9.90078579      -0.63757571      -0.12622702       0.05782076
O       34.75918454      11.50069628      21.39200227       0.85833891      -0.29692100      -0.71518712
H       34.70294936      11.67870363      20.46915746      -0.22408154       0.45810528      -0.55414021
H       35.23735468      10.65682677      21.69291554       0.24031302      -0.13746627       0.50990471
O       30.39605729     -12.66088867       2.16311227      -0.04609741       1.38600464      -0.65243188
H       29.64846684     -12.15555349       2.45388310      -0.14967456      -0.17944774      -0.28583160
H       30.17500543     -12.62708192       1.23688877      -0.12957745      -0.04212759       0.38961626
O       17.58704310       9.30572472      -7.43235955      -0.10640197      -0.38199311       0.17872283
H       17.46871668       8.30414357      -7.70299526      -0.37204477      -0.54688774      -0.36505008
H       17.40024972       9.53917884      -6.53290248      -0.01976578      -0.02780127      -0.29663998
O       -5.15804926       2.59444379      32.18701146       0.91956754      -0.90738914       0.23924752
H       -5.83296218       2.13976035      31.74618375       0.18226772       0.10687406       0.52305459
H       -4.41634976       2.04675090      32.43293059      -0.01144801       0.26046495       0.23260174
O        3.78232635       0.86963140      -0.22864223       1.58138957       0.67418650      -0.10176248
H        3.46728517      -0.04943563      -0.36950400      -0.07171665       0.14926155      -0.22520118
H        4.15332118       1.04412722      -1.06904043      -0.02439140      -0.35924958       0.32423732
O       23.22857916       3.22764533      11.65704578      -0.61599908      -0.09910366      -0.67754055
H       23.22607780       3.64979592      12.58562646       0.48086259       0.23342962       0.56621404
H       23.87269506       2.52234491      11.77554915      -0.06384121      -0.14241083       0.10913288
O       -1.43825100      31.82455151      15.02405403       0.42826353       0.61283161       0.69745406
H       -2.05537679      32.47222728      14.55941541      -0.36605329       0.03985629       0.17039514
H       -0.63059992      31.84232734      14.52814715      -0.17121426      -0.41985438       0.29604539
O        4.83465958      19.39186833       5.21136754       0.45087914       0.11073376      -0.00146374
H        4.08577291      18.93982953       5.75871899      -0.37569258      -0.06585798       0.08122887
H        5.62599876      18.90363546       5.21941292      -0.31606587      -0.03264207      -0.02989620
O      -10.15299720      10.49243317       9.48505058      -0.95174425       0.53472119       1.54946119
H      -10.73682493      10.91817755       8.80050650      -0.53290227       0.19322131      -0.27902281
H      -10.53591282      10.83968619      10.29618843       0.35525161      -0.34052661      -0.21546362
O       17.69729585      17.76034859      26.16279348      -0.21281555       0.32104057      -1.37502795
H       18.50403749      17.24814838      25.97360756       0.03881001      -0.30832417      -0.02206943
H       16.90572893      17.28736680      26.07827630       0.00950929      -0.05289568       0.07184313
O        6.93306535      18.71085066      10.14067696      -0.05401074      -0.03535517       0.37587162
H        7.22867009      19.32465275       9.47020606       0.05604027      -0.10278799       0.06856813
H        6.62571291      17.95101950       9.55751559      -0.29113206      -0.15790955      -0.05038786
O       -0.63541572     -13.79955676      13.26367878      -0.75572729       0.45405112       0.00403706
H       -1.41393445     -14.15692178      12.77598986      -0.25575181      -0.43492822       0.15037725
H       -0.14818674     -14.62696038      13.58728051       0.16165317      -0.58016502      -0.12129786
O        1.14408922       6.13136775       1.10130655      -0.55549463      -1.40706385      -0.04201012
H        1.59364428       5.23876000       1.17470294       0.41507895      -0.79152942       0.28054807
H        0.94461134       6.35162840       0.20425025       0.21145393       0.39496909       0.53994149
O        3.13334875       1.31247042       8.36359178       2.04571169      -0.37715530       0.38703422
H        2.20691211       1.04913160       8.29163350      -0.90768749       0.14257393      -0.04707158
H        3.23654651       1.48382681       9.32788463       0.15163137      -0.24182782       0.24743568
O      -18.83016453      28.81416091     -16.16357991       0.20303462       0.88016499      -0.53932928
H      -18.81313554      29.00749496     -17.15202026      -0.31863650       0.52312634      -0.56520427
H      -18.15786480      28.30034005     -15.63924104       0.36058815      -0.16686996       0.65004640
O        2.89139901      26.86920708      -9.11357717       0.76288266      -0.31540205       0.74954689
H        3.67926987      27.02237605      -8.13021761      -0.59118674       0.05489642      -0.58446652
H        2.18169724      26.21078998      -8.91953524      -0.34055159       0.17938466       0.00513135
O      -18.08557092      19.01655015       1.92513288      -1.00925009      -0.54997854       0.99824672
H      -17.38188744      18.85218315       1.19153048       0.46754120      -0.07483184      -0.42751191
H      -18.89977637      18.50480355       1.75224914      -0.69458662      -0.13232670       0.16659158
O       11.70517390      17.57847738       7.06057750       0.23320899       0.10774268      -0.52719352
H       12.56077526      17.30429819       6.68417189       0.06150900      -0.10115505       0.02236937
H       11.23595530      18.27060111       6.60929619      -0.33088639      -0.07247877       0.13722239
O       -7.22063746     -11.21666149       5.18312682       0.61068925      -0.77483194      -0.61626242
H       -6.54485361     -11.24914849       4.52881213      -0.45022587       0.13907235      -0.03525476
H       -7.41305861     -12.05901202       5.62142203      -0.15954542      -0.08112930       0.37359753
O      -24.13786588       3.39927622      10.70861034      -1.03275175      -1.53556851       0.54960785
H      -24.79033804       4.06934246      10.46001761      -0.31441414      -0.04518281      -0.10803428
H      -23.34026163       3.77370671      10.28797202       0.49020007       0.23311919      -0.34830418
O      -11.43039527      -8.21867139      18.46169351       0.12220670      -1.09441280      -0.07178709
H      -10.69730009      -8.57179108      18.91045399      -0.30135321      -0.13545709       0.06127665
H      -11.38631670      -8.28221737      17.55372564      -0.13651719       0.52972713       0.14506913
O        8.59688428       7.34040950      16.91181091      -1.34076041       0.40621496      -0.94668507
H        9.59414278       7.34870912      16.77593918       0.06127604       0.01906669       0.10188667
H        8.19582355       6.79527901      16.22926341      -0.19326869       0.25653422       0.15546580
O      -11.63376685      -0.47797353      20.43161798       0.75166607      -0.01270975       1.03507581
H      -12.53303962      -0.27159122      20.74289054       0.05159184       0.10506360      -0.12162125
H      -11.76182101      -0.55936777      19.42141641      -0.36524814      -0.10376818      -0.45601616
O       24.16884041       2.48051072      16.22232542      -0.71252555       0.92369985      -0.27042786
H       23.94107746       2.48230558      17.11843282       0.23907875      -0.09830147      -0.16398812
H       24.02628388       1.62451168      15.69840112       0.13498269      -0.34918158      -0.41958194
O       -5.68331979     -17.94752702      -5.02396512      -0.07321899       0.69906394      -0.70782678
H       -4.71976174     -17.88652963      -4.89683909      -0.21685641      -0.40394311      -0.69149410
H       -5.71769555     -18.68280093      -5.59509398       0.12473055      -0.17478607      -0.06598655
O       29.46513098      -8.98404481      -6.14908753      -1.61923136       0.39129703      -0.11080073
H       30.22790144      -9.00795384      -6.78624129       0.38158281       0.06768947      -0.02369100
H       29.14835939      -9.81994375      -5.95416091      -0.19835698       0.51139568       0.09564607
O        8.81565562      -0.66700420       3.41863412       0.01109031       0.64907014       0.80430902
H        8.34414421      -0.03434891       2.84930607       0.36781993      -0.00684233      -0.03416799
H        8.33845859      -1.53782424       3.65320043       0.21782647      -0.15821904      -0.15180147
O      -19.77540429      -3.15472702      24.77434598      -0.20295681       1.28656325      -0.03877406
H      -20.05869437      -3.94613555      24.28982343       0.07171233      -0.64369712      -0.26425696
H      -19.21227670      -3.45518828      25.52783465       0.36869842      -0.28127098       0.38214833
O        2.39025221      -5.79104111      -6.03484519       1.15632193       0.90640295       0.41919587
H        2.54438423      -5.61062952      -5.14272217      -0.29272922      -0.40279349      -0.41263363
H        1.94557485      -6.62586668      -6.21066506       0.38808029       0.25535349       0.22261198
O        9.85395582       8.27398368       7.95456182       1.20643787      -0.81711208       0.35887702
H       10.49944692       8.52333756       7.25371422      -0.31310879       0.09308051      -0.26662470
H       10.29657564       7.47524439       8.32702738      -0.18625310      -0.23789762      -0.26164020
O        5.35718355       9.75109264      -4.83097469       0.21685693       0.12358007      -0.71238249
H        6.15854621       9.12024873      -4.77041462       0.36040560      -0.17242437      -0.03567900
H        4.81490578       9.66482916      -4.00727732       0.05396635       0.03815232      -0.17808802
O       13.75886514      29.45553220      15.88126755      -0.89084723      -0.77700056       0.45094629
H       12.92953860      28.97925382      16.06020301       0.15638954       0.11503345      -0.19219977
H       14.38315351      28.73008229      15.89579000      -0.14936031      -0.15259752      -0.11362654
O       -2.81117380       3.97515733       1.69775252      -0.60957660       0.86550298       0.21989926
H       -2.28433492       3.54527373       2.35720076       0.15251613      -0.58171877       0.45293709
H       -2.66469629       4.95679417       1.85248286      -0.04693928      -0.29678497      -0.11280503
O        7.81911084     -14.01812005      10.95313960       1.20704003       0.42524369      -0.31680191
H        6.92485230     -14.44520796      11.04017474      -0.81052425      -0.37943212      -0.23375575
H        8.15703068     -14.13548276      10.07505134       0.14770516      -0.37351753      -0.44067561
O       -2.46122290      10.55159661      24.34612722      -0.88229190      -0.16200398      -1.62419836
H       -2.06134143      10.13976889      23.62141917      -0.21646946       0.33063416       0.55342507
H       -3.24322461      11.18350204      24.28034136      -0.07806666       0.17545858       0.26714296
O       20.06127483      21.74684281       1.54953445      -0.30018887       0.38064914      -0.42663016
H       19.95116524      22.22125548       2.42911712      -0.16014033       0.35154436       0.41124944
H       19.75776519      20.79954352       1.39080077      -0.28630071      -0.07901005      -0.23663277
O       12.16069927      10.00842021     -15.91170304       0.53970273       0.38222121       0.95675023
H       12.70393604       9.27147743     -15.48383893       0.11479903      -0.24991259      -0.20992046
H       12.54006654      10.03617649     -16.91852860       0.29754387       0.11602671      -0.33899862
O      -11.39815781      22.28443278       1.05566177       0.54882165       0.32644268      -0.09445997
H      -11.71655413      21.34983627       1.09742743      -0.47857987      -0.57626341      -0.09858895
H      -10.84373289      22.58723158       1.81392326      -0.09935080       0.18370950      -0.09007003
O        2.94523917     -15.03190614      16.11755322      -0.56505371      -0.22367227      -1.24570152
H        3.33004233     -15.73652763      16.68113578      -0.00693597      -0.09560881       0.33520656
H        3.58827224     -14.39119894      15.96054870       0.19856302      -0.12856422      -0.12672695
O        2.41855105      16.32937093       0.36847579      -1.29260435      -1.16269386      -0.34659340
H        1.94358487      16.18557007      -0.51669544       0.06837022       0.46397065       0.73120056
H        2.93116833      15.56334618       0.62692378       0.20492222       0.18924705       0.02430817
O       -5.69996095      -7.29708900       5.60284087      -1.89867658      -0.96917950       0.70879985
H       -5.36879274      -7.97337517       6.17010312       0.14526491       0.40723581      -0.10734045
H       -5.07237842      -6.77620028       5.07723573       0.22416640       0.10921854      -0.38737519
O       -2.15841133       2.39589349       6.65414222       0.45214100       0.04889734       0.91955107
H       -2.12355303       3.39242886       6.86276225      -0.20627501       0.36426588      -0.18783254
H       -1.85177894       1.84496376       7.41832632      -0.22724210       0.35822870      -0.67648946
O       13.17842444      -5.48412795      -1.46134357       1.07165353      -0.68568523      -0.56104012
H       13.95044572      -5.22995685      -1.93740772      -0.21396359      -0.18732349       0.26120719
H       12.92134073      -6.38898340      -1.69065832      -0.11765232      -0.68459202       0.19986561
O       11.82368472       4.89331678      22.73893422      -0.02683744       0.14066089      -0.01569431
H       11.20747419       4.13857310      22.97686160      -0.14327574      -0.13635421       0.00017813
H       11.89445107       4.78855492      21.75059597       0.05189615      -0.23116331       0.10953069
O        8.16676190      14.49476613      23.81424459      -1.18419791       0.33833837       1.21837406
H        9.07853630      14.88704187      23.85228139       0.10971679      -0.18053056      -0.33216404
H        8.13108822      13.50253263      24.09363328       0.06973251      -0.61025241       0.03923727
O       -8.07406328       7.00347336      11.41293938       0.79402793      -1.21491464       0.47607987
H       -7.32805989       6.61821372      10.96463121       0.08539403       0.26522489      -0.25525986
H       -8.35937648       6.35805503      12.08158677      -0.07523357       0.64186374       0.10844085
192
Lattice="12.747812560568939 0.0 0.0 -5.291066101690611e-07 12.747812560568939 0.0 -5.291066101690611e-07 -5.291066101690611e-07 12.747812560568939" Properties=species:S:1:pos:R:3:momenta:R:3 step=80 time_fs=8.0 phase=equilibration pbc="T T T"
O       11.63374491       0.73212872     -16.48356497       1.37468347       0.32456771       0.67315592
H       12.13293485       1.02458947     -15.68349511       0.18155540       0.10959592      -0.17848517
H       10.88982128       0.12142856     -16.42881289       0.16426156      -0.12405802       0.25004134
O       26.37490874      24.79720393       4.91717036       0.33724757       0.31248866       1.54225637
H       26.76076484      23.88390084       4.60298115       0.05840531       0.03580701      -0.05578117
H       25.59263102      25.05759987       4.44035781       0.21038499       0.06315202      -0.13309653
O        4.55229809      -0.31433959       6.61915883      -0.11433120      -0.60407239      -0.75659634
H        5.04689681      -1.04872783       6.91330580       0.30839657       0.15648784      -0.41108283
H        4.21277289       0.19463383       7.38199099       0.16320372       0.04313207      -0.27292194
O       -2.85842808      -4.39363555       1.04344807      -0.06914400       0.61461309       1.20165874
H       -2.65353481      -3.78263083       0.37213824       0.04355756       0.00518139      -0.29982263
H       -3.69564283      -4.10798850       1.37913762      -0.28215452       0.27708390      -0.09034636
O        4.28237218      15.87366465      10.72351619       1.06211329       0.90298034      -0.25196188
H        4.30347715      16.72740339      11.11271398       0.05787512      -0.14384994      -0.39745064
H        5.12727224      15.80822589      10.14161949      -0.32008850       0.14340777      -0.11975797
O       -1.37942124       6.60865709       5.13969194       0.24800354      -1.10544758      -0.24095107
H       -1.52904887       6.29004399       4.29934365      -0.58181871       0.01454748       0.31895487
H       -0.56217638       7.08238599       5.24889713       0.01250477       0.21951594       0.11603458
O       22.81765379      12.31673958       5.77617969       0.50381583       0.35903976       0.32434247
H       23.23144235      13.20224278       6.01134539      -0.07355063      -0.17767875      -0.03309023
H       22.29373691      12.27420033       4.91352426      -0.59072255      -0.17897495      -0.10591906
O       -1.05526532     -15.76507544       6.80111927      -1.02702429      -0.20008257      -0.51799547
H       -0.56538515     -16.08453920       6.07735856      -0.10343795      -0.06613075       0.14532703
H       -1.41421115     -14.79637486       6.52118370      -0.11275527       0.49905611      -0.02467443
O       15.47800298     -17.90947823       9.68014856       0.08150293      -0.56465203       0.25849066
H       16.17939855     -18.48014181      10.21112082       0.19746502      -0.12477963      -0.00585641
H       15.64533332     -16.95740799       9.54989370       0.07145145      -0.11039703      -0.09725764
O        3.27533834     -14.64603489     -13.36278272       0.62318397       0.34157773      -0.46764351
H        4.21401839     -14.97967997     -13.09438107       0.15142163       0.29272608       0.10573637
H        2.67981682     -15.06894784     -12.75271254       0.07658188      -0.26914985      -0.13134175
O       -5.75500597       1.59549074       2.85460289      -0.60002080       0.54301305       0.16048597
H       -6.45884004       1.13113828       2.36278458       0.28465231      -0.04726589       0.31993196
H       -5.41297600       2.46114996       2.56530949       0.00674797       0.25576117       0.15642086
O       -5.36375026      16.08301299      25.94771359      -0.63648070       1.02376230      -1.06861768
H       -5.44053812      15.46460263      25.19896290      -0.35086754       0.25577821      -0.13174155
H       -4.39225545      16.22599065      26.04773214       1.04678811      -0.11941513       0.34127876
O        7.47059486     -15.69512286      -8.48235632       0.64938006       0.74162977       1.74837201
H        7.96681914     -16.48349300      -8.19989229       0.44167688      -0.13140391       0.08134059
H        6.69670920     -15.51813944      -8.07237913       0.26951708       0.18461188      -0.38380070
O       13.67132579       8.55049540      17.97192155       0.07089965      -0.02139384       0.48284940
H       14.07742048       8.66300621      17.05148028      -0.17679586      -0.15064826       0.34849443
H       14.31877595       7.97886301      18.48801262      -0.03909264       0.23281338       0.10608931
O       -0.15720893       1.21848829      -1.22517874      -0.16287672       0.90666006       0.29115129
H        0.81781025       1.39065124      -1.22514464      -0.06539390      -0.07799264      -0.04522332
H       -0.37716176       0.34189064      -0.71626815      -0.39175613      -0.09530212      -0.01178594
O      -14.17538856      12.66284869      15.77584881       0.55866824       0.17210820      -0.72233470
H      -13.91922608      12.41765643      14.95891414       0.28934593       0.05896165       0.00951885
H      -15.00601327      12.24224637      16.19283509       0.03544842      -0.11123534       0.18297997
O      -16.41651586       5.91557122      12.33412909       1.45531866       0.23721607      -0.64915863
H      -16.92058824       5.94311293      11.54030373       0.25647666      -0.21868752       0.06633134
H      -16.07932265       6.96670016      12.31808919       0.05461739       0.71374246      -0.16248225
O       -9.94907529      32.92228155      -9.58260027      -0.27592221      -0.67354747      -0.26894677
H       -9.16382707      32.39460987      -9.28578203       0.19618432       0.35112096      -0.11283564
H      -10.78551426      32.36420974      -9.88960232      -0.29966853       0.04526467       0.16647873
O       34.76399095      11.49783738      21.38767698       0.96711455      -0.53821872      -0.57566802
H       34.68216655      11.72003225      20.41690982      -0.18193538       0.38827737      -0.46238114
H       35.25274098      10.65788644      21.73092102       0.09542823       0.16257145       0.28100400
O       30.39540436     -12.65205798       2.15935221       0.07458856       1.39231139      -0.52532477
H       29.62593324     -12.16880287       2.43278129      -0.29821282      -0.09826950      -0.14698535
H       30.16201807     -12.63170454       1.26367782      -0.12970072      -0.05752728       0.13303041
O       17.58589265       9.30205347      -7.43177936      -0.13227449      -0.76034880      -0.07907620
H       17.43536658       8.26858083      -7.73056143      -0.30021448      -0.16934465      -0.20130757
H       17.39822973       9.53544493      -6.55690303      -0.01957286      -0.03513066      -0.17024965
O       -5.15205401       2.58958990      32.18806733       0.99768314      -0.63575733       0.35331131
H       -5.82180241       2.14369739      31.79241876       0.02580368      -0.03569276       0.43034686
H       -4.41457689       2.06893795      32.45593012       0.05835618       0.18771776       0.25999618
O        3.79157188       0.87317561      -0.22860457       1.44598248       0.48258798       0.13786590
H        3.45858989      -0.03440864      -0.38885515      -0.10476812       0.16053824      -0.17140246
H        4.15817631       1.01633075      -1.05009870       0.13822652      -0.20612150       0.03678237
O       23.22435961       3.22723557      11.65351207      -0.56779139      -0.01721595      -0.37536085
H       23.27086567       3.66866974      12.62762000       0.44791823       0.15111021       0.29373081
H       23.86671738       2.50736487      11.78402583      -0.05751743      -0.15146799       0.06894806
O       -1.43644293      31.82794784      15.02792407       0.12347593       0.74136750       0.69121732
H       -2.08393724      32.47166316      14.57967588      -0.21001435      -0.04153785       0.25242990
H       -0.64024591      31.79970097      14.55294447      -0.01109805      -0.43786862       0.20612154
O        4.83583751      19.39200515       5.21173827      -0.04463131       0.08836455       0.16270416
H        4.06220592      18.94151298       5.75816968      -0.10393933       0.11064520      -0.09060316
H        5.60395721      18.89335603       5.21599893      -0.12121004      -0.17755031      -0.03857167
O      -10.15894200      10.49559087       9.49347736      -1.05219987       0.56329383       1.21190116
H      -10.78146414      10.93284175       8.77838191      -0.37776540       0.10653099      -0.15466089
H      -10.50148465      10.80782971      10.28250548       0.32629937      -0.29041722      -0.02086124
O       17.69642296      17.76224526      26.15360412       0.06774823       0.41958639      -1.42141484
H       18.50155370      17.21825794      25.97244677      -0.09053542      -0.28786968       0.01306391
H       16.90051046      17.27661138      26.08485199      -0.10130373      -0.15396148       0.07641142
O        6.93223043      18.70966971      10.14235231      -0.17083531      -0.21583095       0.24750817
H        7.23553866      19.31885953       9.47631127       0.08946823      -0.00562654       0.05708042
H        6.59958453      17.93994432       9.56030872      -0.23717791      -0.05203980       0.11634616
O       -0.64013500     -13.79733114      13.26341708      -0.79067638       0.14337268       0.00788589
H       -1.43380142     -14.19657690      12.79269904      -0.13989983      -0.37730054       0.20515265
H       -0.13758910     -14.67172849      13.57081829       0.04876929      -0.33125939      -0.21349483
O        1.14105830       6.12164066       1.10162457      -0.40587731      -1.74345256       0.19899126
H        1.62667570       5.17558406       1.19889109       0.25339421      -0.48351168       0.20959117
H        0.96423362       6.39149508       0.24892270       0.18529504       0.43487098       0.33781972
O        3.14540893       1.30998864       8.36611612       1.85680890      -0.42932581       0.50482764
H        2.12612861       1.06418374       8.28617812      -0.68892023       0.17869653      -0.04837193
H        3.25149435       1.45899343       9.34439490       0.14715564      -0.27097344       0.07753839
O      -18.82831813      28.81880885     -16.16675795       0.26841773       0.84680460      -0.61946509
H      -18.84039487      29.05181949     -17.19422803      -0.24791286       0.39649599      -0.29760525
H      -18.12880251      28.28850995     -15.58427406       0.21271967      -0.05154994       0.45925183
O        2.89622844      26.86632082      -9.10791117       0.84253428      -0.41258235       1.03506603
H        3.61065429      27.02319227      -8.20103007      -0.81648301      -0.02849582      -0.87860334
H        2.15581862      26.23505690      -8.91870671      -0.19091234       0.32671690       0.00645698
O      -18.09101350      19.01241356       1.93050208      -0.91787556      -0.66635607       0.75589279
H      -17.35147801      18.84531454       1.16094788       0.14427187      -0.05514654      -0.19488916
H      -18.95761914      18.49639238       1.76822245      -0.48258024      -0.02025957       0.16436207
O       11.70641239      17.57837482       7.05730908       0.25593883      -0.00588603      -0.48473815
H       12.56199063      17.29905730       6.68479736      -0.03134034       0.00328781      -0.00756767
H       11.20704530      18.26348675       6.61996585      -0.25200452      -0.06841564       0.08609797
O       -7.21715291     -11.22108134       5.17988167       0.44223159      -0.76182948      -0.37447129
H       -6.58350554     -11.23971339       4.51650379      -0.32686312       0.04638459      -0.23043638
H       -7.42533221     -12.06288905       5.65261057      -0.09314331       0.01133889       0.25680445
O      -24.14323439       3.39031444      10.71137979      -0.88017774      -1.32754175       0.41685088
H      -24.82144984       4.06309542      10.45053937      -0.31040333      -0.09688119      -0.07785358
H      -23.29773658       3.79105411      10.25650070       0.32823224       0.11134253      -0.27057575
O      -11.43008456      -8.22482692      18.46162802      -0.11172487      -0.97416808       0.18981018
H      -10.71588787      -8.59132933      18.92182905      -0.08667750      -0.26824818       0.17621389
H      -11.39937810      -8.23027507      17.54977183      -0.13415971       0.53252151      -0.21194615
O        8.58926074       7.34289636      16.90562521      -1.07092120       0.47458118      -0.91987140
H        9.58447050       7.34955516      16.78796651      -0.25226107       0.00166847       0.15077791
H        8.17699394       6.81953833      16.23915850      -0.19830641       0.23127502       0.03854349
O      -11.62921333      -0.47810518      20.43663378       0.64414910      -0.03470261       0.74637833
H      -12.52552102      -0.26057248      20.73130634       0.09209537       0.12238696      -0.10371129
H      -11.79406518      -0.56846296      19.38818959      -0.29903034      -0.08245421      -0.20761610
O       24.16408456       2.48569272      16.21882188      -0.65200264       0.77481574      -0.76198982
H       23.96006611       2.46866940      17.11278564       0.16069716      -0.18197040       0.06739095
H       24.04063182       1.60242637      15.67030548       0.17108114      -0.09366342      -0.14269170
O       -5.68357471     -17.94259015      -5.02785472      -0.07812660       0.74376414      -0.62008539
H       -4.73531265     -17.91921713      -4.96174362      -0.08297565      -0.27491536      -0.64230141
H       -5.71204274     -18.70708977      -5.60896973      -0.00860461      -0.30318708      -0.19819556
O       29.45537017      -8.98036363      -6.15052002      -1.31501681       0.75817584      -0.41469634
H       30.25269521      -9.00297942      -6.77782662       0.12797573       0.02842609       0.20165471
H       29.12492270      -9.78507040      -5.94097730      -0.27380673       0.18224354       0.17724529
O        8.81513296      -0.66361228       3.42354658      -0.09881622       0.44182372       0.83121116
H        8.37936531      -0.04005679       2.85062705       0.34729047      -0.09607146       0.04901684
H        8.36383799      -1.53987642       3.63371773       0.30179340       0.10926061      -0.24355692
O      -19.77610901      -3.14721827      24.77375288      -0.17354536       1.08949749       0.03158351
H      -20.04890975      -4.00300603      24.26774725       0.13158330      -0.48690678      -0.15150488
H      -19.18124107      -3.47873072      25.55860711       0.24299181      -0.19544283       0.24079266
O        2.39725646      -5.78522943      -6.03321697       1.15046797       0.95503101       0.03176630
H        2.51949778      -5.64690909      -5.16534909      -0.20526481      -0.32707619      -0.00230337
H        1.98112209      -6.60582491      -6.18930668       0.32569217       0.12017165       0.19512782
O        9.86176140       8.26829574       7.95647478       1.39940855      -0.96504240       0.32166250
H       10.46438389       8.53457473       7.23133321      -0.39576911       0.13911952      -0.18833568
H       10.27401614       7.45587480       8.29943021      -0.26495549      -0.15914507      -0.29812310
O        5.35883807       9.75101901      -4.83495668       0.37716093      -0.07412869      -0.63608118
H        6.18091578       9.11131393      -4.77337846       0.09624393      -0.00362738      -0.02782696
H        4.82509594       9.66791012      -4.03097162       0.14820036       0.02793876      -0.29472609
O       13.75306359      29.44998474      15.88377517      -0.86713769      -0.79641822       0.48263319
H       12.93860853      28.99037342      16.04100910       0.01289334       0.11609346      -0.18904933
H       14.37379998      28.71277557      15.88404902      -0.03898723      -0.18368934      -0.11973918
O       -2.81470072       3.98077458       1.69912181      -0.53315616       0.92405395       0.27587115
H       -2.26990383       3.48802878       2.40034668       0.10524938      -0.55325023       0.38740278
H       -2.66887620       4.92022016       1.84039143      -0.03288023      -0.41864317      -0.12671351
O        7.82578885     -14.01543604      10.95113067       1.01710295       0.32332645      -0.29325360
H        6.85910235     -14.47610000      11.01479629      -0.50838651      -0.24975199      -0.28420428
H        8.16881172     -14.17091858      10.03005801       0.08140515      -0.35354955      -0.43651662
O       -2.46733198      10.55137769      24.33685128      -1.15354818       0.19644584      -1.15835197
H       -2.07812281      10.16663862      23.66082739      -0.10219461       0.19926502       0.21590242
H       -3.24244373      11.18967867      24.30182805       0.09279041      -0.04376563       0.18206148
O       20.05877065      21.74843340       1.54710837      -0.36830403       0.30647446      -0.34093704
H       19.93468970      22.24618917       2.45888129      -0.16475053       0.16663308       0.19099767
H       19.73224759      20.80182118       1.37388382      -0.22553070       0.13794857      -0.11088726
O       12.16456350      10.00992541     -15.90611927       0.81264794       0.18442291       0.73631439
H       12.70736728       9.25847150     -15.51220794      -0.03852218      -0.01154633      -0.37771656
H       12.56036659      10.04456379     -16.93204539       0.12222606       0.05898058       0.05550141
O      -11.39456844      22.28562357       1.05517329       0.51468985       0.20404520      -0.06627183
H      -11.75725976      21.30442948       1.08917880      -0.35217945      -0.31961946      -0.07073073
H      -10.85631279      22.59914608       1.80217792      -0.15663314       0.07438798      -0.14017921
O        2.94122325     -15.03370051      16.10982793      -0.69443589      -0.47193845      -1.13929089
H        3.32814105     -15.73989573      16.70964236      -0.03736883       0.03575468       0.24420002
H        3.61593294     -14.39669762      15.94615324       0.35190357      -0.01222990      -0.15575644
O        2.41039893      16.32190341       0.36604314      -1.30982963      -1.12755231      -0.37139523
H        1.95385316      16.22949602      -0.43669286       0.10074946       0.43424595       0.82784094
H        2.94848271      15.58008891       0.62749473       0.15628383       0.15557620      -0.00881953
O       -5.71156518      -7.30228458       5.60661986      -1.91532378      -0.74892173       0.53456863
H       -5.35013214      -7.93862499       6.16255906       0.24390600       0.28324768      -0.02821210
H       -5.05350335      -6.77159860       5.04609057       0.14163740      -0.03053468      -0.23495897
O       -2.15566915       2.39691020       6.65961830       0.39695773       0.35305523       0.84565010
H       -2.14149762       3.41339953       6.84290522      -0.16198325       0.06431361      -0.21539100
H       -1.87296114       1.88300340       7.35321700      -0.18069653       0.37601232      -0.58959854
O       13.18415895      -5.48867956      -1.46432869       0.86307770      -0.88051747      -0.41509084
H       13.93761825      -5.24725000      -1.91775368      -0.02250698      -0.16667178       0.12825830
H       12.91094584      -6.45011759      -1.67183618      -0.07611940      -0.53435807       0.19262297
O       11.82302184       4.89349548      22.73794105      -0.10100864      -0.04919894      -0.12306112
H       11.19703120       4.13175912      22.97690715      -0.06382893       0.00096539       0.01303831
H       11.89878475       4.76862695      21.76650078       0.04433312      -0.17485736       0.21592484
O        8.15963695      14.49583574      23.82146512      -1.07269345       0.11345622       1.31395434
H        9.08056730      14.86379952      23.81963279      -0.06464644      -0.28742129      -0.32538539
H        8.13990686      13.45997241      24.09051964       0.11248374      -0.25088797      -0.09175078
O       -8.06920581       6.99587734      11.41559455       0.74463924      -1.18197936       0.44336087
H       -7.31534176       6.64229327      10.93716688       0.16017581       0.23221261      -0.29253839
H       -8.36612765       6.42050523      12.09367022      -0.07289496       0.61754676       0.16687319
192
Lattice="12.747385165164047 0.0 0.0 -5.290888708327781e-07 12.747385165164047 0.0 -5.290888708327781e-07 -5.290888708327781e-07 12.747385165164047" Properties=species:S:1:pos:R:3:momenta:R:3 step=90 time_fs=9.0 phase=equilibration pbc="T T T"
O       11.64214033       0.73430107     -16.47884943       1.47388641       0.38180811       0.66885347
H       12.14392941       1.03062566     -15.70233550       0.06008445       0.01918645      -0.20554369
H       10.90666716       0.11004299     -16.39991081       0.19447447      -0.10461910       0.33088925
O       26.37657674      24.79734430       4.92633371       0.49285694       0.00616318       1.49471196
H       26.75802144      23.90347828       4.60186924      -0.09369661       0.37745664       0.03669614
H       25.61238790      25.06138635       4.42581225       0.21021122       0.03355995      -0.16274324
O        4.55104310      -0.31742337       6.61422470      -0.23641112      -0.41689519      -0.79610808
H        5.08228820      -1.04102850       6.87646570       0.41908974       0.00435042      -0.33956447
H        4.22725050       0.19798773       7.35511828       0.13125089       0.03370736      -0.25608476
O       -2.85874426      -4.39015263       1.05109930      -0.08384350       0.51176579       1.27948462
H       -2.64459176      -3.77659974       0.33465587       0.12458960       0.08488596      -0.43243115
H       -3.72774891      -4.07946497       1.37332262      -0.34729049       0.29655442      -0.04262397
O        4.28938712      15.87797301      10.72085275       1.24973948       0.65609120      -0.49451865
H        4.31012717      16.72442050      11.07807706       0.07644813       0.11916293      -0.29182852
H        5.08674848      15.82173494      10.13624372      -0.48446107       0.13679378      -0.00135184
O       -1.37775788       6.60189311       5.13917487       0.29900090      -1.01481382       0.13658500
H       -1.58675753       6.28570935       4.31443112      -0.60256118      -0.09668894      -0.00662074
H       -0.55968658       7.10482694       5.25863415       0.01693034       0.23174369       0.08003807
O       22.81999860      12.31886755       5.77765715       0.48970692       0.44120469       0.20497005
H       23.21666491      13.17581920       6.00283062      -0.20224268      -0.33076375      -0.13149420
H       22.24160312      12.25997419       4.91531027      -0.45561655      -0.10306250       0.15529807
O       -1.06233282     -15.76463454       6.79802150      -1.28802139       0.17329257      -0.41524920
H       -0.56843583     -16.09327340       6.08240886       0.03989300      -0.12248807      -0.03768152
H       -1.41906012     -14.76275673       6.52143995       0.01292012       0.17684396       0.03235986
O       15.47832446     -17.91275403       9.68177637       0.19219481      -0.70342001       0.37823474
H       16.19050458     -18.48013236      10.20341934       0.04137607       0.11217532      -0.14427720
H       15.65443568     -16.97116511       9.54269154       0.12721926      -0.17835075      -0.04464636
O        3.28003100     -14.64365237     -13.36492927       0.93283325       0.27292113      -0.37283860
H        4.21616751     -14.94780155     -13.08879030      -0.10203977       0.34856091       0.00061571
H        2.68499004     -15.09579186     -12.76431599       0.03634289      -0.28830852      -0.12106352
O       -5.75830369       1.59897414       2.85581413      -0.51272209       0.62881454       0.28215020
H       -6.42881376       1.13037630       2.39194200       0.30170543       0.01654979       0.26181015
H       -5.41791524       2.47772693       2.57829126      -0.11424173       0.08081752       0.11180635
O       -5.36681360      16.08869552      25.94016228      -0.39605554       1.01128522      -1.09428909
H       -5.47350835      15.49193742      25.18867080      -0.32017686       0.31419726      -0.06363633
H       -4.30279831      16.21215627      26.08026951       0.75513222      -0.15934862       0.33447941
O        7.47594717     -15.69051285      -8.47208593       1.20206662       0.56956193       1.50550329
H        8.00365336     -16.49073515      -8.19318174       0.30148188      -0.00914900       0.04508573
H        6.70363124     -15.49799785      -8.09873614      -0.13133462       0.21688742      -0.15821918
O       13.67198000       8.54970638      17.97392972       0.26035770      -0.13574720       0.40200556
H       14.05422243       8.64650429      17.09678472      -0.27222822      -0.17312121       0.54081383
H       14.30613624       8.00923950      18.49252121      -0.19583234       0.37989951       0.01746488
O       -0.15831829       1.22332112      -1.22317668      -0.21508696       0.67963777       0.34695167
H        0.80453232       1.37802502      -1.22703427      -0.19451890      -0.17887040       0.00634893
H       -0.40803395       0.34670941      -0.72429569      -0.23916057       0.19472687      -0.15289719
O      -14.17245292      12.66365138      15.77250779       0.25141380       0.22070105      -0.21880773
H      -13.88575703      12.41559414      14.93996203       0.37934460      -0.08534082      -0.36093348
H      -14.98949748      12.23577290      16.20156914       0.29183297      -0.01332911       0.00527292
O      -16.40634800       5.91794160      12.33024877       1.68178947       0.59775105      -0.47129833
H      -16.90104228       5.92031309      11.53789199       0.13198529      -0.23964600      -0.11265435
H      -16.07808297       7.01932998      12.30371509      -0.04341784       0.36708636      -0.12763376
O       -9.95092088      32.91626235      -9.58406391      -0.44586610      -0.91287371      -0.31478493
H       -9.15359687      32.43215499      -9.29924365       0.01848418       0.43031408      -0.16551182
H      -10.79692135      32.37574826      -9.86813615       0.05846850       0.21004278       0.26534496
O       34.76897678      11.49359283      21.38333733       1.02563565      -0.70092438      -0.62345102
H       34.66604330      11.75275870      20.38333576      -0.12272512       0.28755325      -0.19789268
H       35.25517881      10.68610284      21.74723431      -0.01228494       0.40859305       0.07432012
O       30.39517720     -12.64300111       2.15675112       0.16399178       1.43149010      -0.29581023
H       29.59082252     -12.17518731       2.42428252      -0.38108544      -0.05201883      -0.03273520
H       30.14741437     -12.63747983       1.26040754      -0.14793225      -0.06932080      -0.19382115
O       17.58442504       9.29574302      -7.43314855      -0.15491464      -1.19370238      -0.45197444
H       17.40975928       8.27159332      -7.74136938      -0.21162986       0.23637103      -0.02494039
H       17.39470279       9.53283672      -6.56232682      -0.04143123      -0.01115005       0.05745639
O       -5.14546178       2.58661023      32.18952173       1.09514167      -0.30568292       0.47016038
H       -5.82950577       2.13142465      31.82730539      -0.18709834      -0.21615566       0.30928334
H       -4.40378090       2.08250768      32.48220800       0.15648349       0.09271523       0.30069553
O        3.79983801       0.87552433      -0.22689475       1.29751491       0.29869583       0.39747712
H        3.44664136      -0.01816150      -0.40285701      -0.13949954       0.17002479      -0.11599010
H        4.18039930       1.00386283      -1.06260840       0.31281194      -0.05237933      -0.27559758
O       23.22042578       3.22715196      11.65182935      -0.45079409       0.01943657      -0.04207810
H       23.31166930       3.67873330      12.64160741       0.40294850       0.05796014       0.00101313
H       23.85849724       2.49473270      11.78803006      -0.10033995      -0.09886473       0.01969701
O       -1.43675234      31.83184651      15.03177937      -0.22967896       0.87124141       0.73164717
H       -2.09507996      32.46207256      14.60718596      -0.01998385      -0.12891982       0.31591227
H       -0.63220794      31.75541281      14.56652682       0.16543697      -0.44758750       0.08603458
O        4.83383856      19.39186690       5.21305667      -0.53852687       0.07469708       0.32068733
H        4.06524777      18.96012257       5.74095779       0.16620777       0.28104753      -0.25517282
H        5.60196299      18.86779593       5.21142635       0.07074202      -0.32681889      -0.05248568
O      -10.16524213      10.49865757       9.49899566      -1.10865408       0.54722668       0.67634782
H      -10.80904329      10.93800589       8.77175160      -0.19403430       0.00722322       0.03270221
H      -10.47397713      10.78449912      10.29582202       0.22681579      -0.17702461       0.30574265
O       17.69700957      17.76432634      26.14382606       0.29592468       0.43927186      -1.47908603
H       18.48455447      17.19212676      25.97483362      -0.24345219      -0.23495226       0.05311101
H       16.88766599      17.25822731      26.09186732      -0.13243971      -0.19844346       0.08681922
O        6.93054797      18.70712928      10.14313832      -0.29997827      -0.39949270       0.11924402
H        7.24550787      19.32184433       9.48080551       0.11734648       0.07324160       0.04545536
H        6.57966151      17.94066130       9.57965274      -0.16621990       0.07901492       0.28380409
O       -0.64512832     -13.79715956      13.26298337      -0.84418878      -0.24428742      -0.00565049
H       -1.44007737     -14.22835594      12.81566304       0.00806648      -0.27963413       0.27275747
H       -0.13890608     -14.68950084      13.54501581      -0.07251272      -0.04250942      -0.30307722
O        1.13913762       6.10942024       1.10396482      -0.20667640      -2.17585816       0.57704084
H        1.64198893       5.14594211       1.21470172       0.06002749      -0.11784646       0.11338484
H        0.98014244       6.43728922       0.26625747       0.14311125       0.51106762       0.01830674
O        3.15579229       1.30712153       8.36931278       1.55673743      -0.48948393       0.62107551
H        2.07641654       1.08401321       8.28306640      -0.32465325       0.22598507      -0.00628562
H        3.26392162       1.43075694       9.34125645       0.10762111      -0.30618147      -0.13120252
O      -18.82577607      28.82291119     -16.17027547       0.35208324       0.80627370      -0.70352190
H      -18.85988849      29.08255168     -17.20790464      -0.16230733       0.25155656       0.00814985
H      -18.11623857      28.28932086     -15.54990875       0.03146503       0.08852228       0.23152261
O        2.90168229      26.86273821      -9.10033981       0.95861714      -0.45256142       1.30600032
H        3.51878403      27.01477337      -8.30147731      -1.05899593      -0.12558873      -1.16825835
H        2.14410750      26.27178940      -8.91727814      -0.04896953       0.43858656       0.02247734
O      -18.09590735      19.00721363       1.93425991      -0.87737279      -0.82117459       0.48906351
H      -17.35272891      18.84071548       1.15383349      -0.18055644      -0.02525089       0.05030863
H      -18.99136667      18.50065484       1.78441008      -0.22096443       0.12127316       0.16907000
O       11.70756254      17.57743781       7.05423282       0.23666018      -0.10320212      -0.43742837
H       12.55474891      17.30385885       6.68178738      -0.10006345       0.10497909      -0.05374029
H       11.18698057      18.25574293       6.62586685      -0.14927054      -0.07923114       0.04000968
O       -7.21489426     -11.22541999       5.17837513       0.22170569      -0.77010851      -0.06428295
H       -6.60699050     -11.23977158       4.48290752      -0.16556104      -0.05618052      -0.44820474
H       -7.43026649     -12.05492116       5.66983630      -0.01218780       0.14204679       0.09827925
O      -24.14725165       3.38297364      10.71304075      -0.69442452      -1.02042998       0.23915626
H      -24.84543082       4.04821199      10.44466230      -0.18533675      -0.21101677      -0.03450247
H      -23.27928399       3.79432506      10.23692999       0.02422228      -0.04236647      -0.11803386
O      -11.43102191      -8.23022287      18.46281782      -0.30191248      -0.88088435       0.37402309
H      -10.71616225      -8.62206751      18.94064228       0.05161775      -0.35556332       0.19957905
H      -11.41095636      -8.17835704      17.51682677      -0.10660847       0.52224646      -0.40404080
O        8.58314675       7.34592788      16.89971911      -0.85353025       0.59561707      -0.81271035
H        9.54729452       7.34867102      16.80375497      -0.47426102      -0.01413321       0.18053968
H        8.15543760       6.83826510      16.23385646      -0.24116964       0.15488969      -0.13850025
O      -11.62515381      -0.47838467      20.43958586       0.55529731      -0.06253069       0.43768039
H      -12.51554689      -0.24739316      20.72224664       0.09701655       0.14984034      -0.06275273
H      -11.81887654      -0.57540881      19.38027498      -0.21513600      -0.06093696       0.05750859
O       24.15943597       2.48982493      16.21215088      -0.60244931       0.59499140      -1.20457274
H       23.97161887       2.44667135      17.12914064       0.09985754      -0.26618894       0.25380945
H       24.05813018       1.60669829      15.66998523       0.20364570       0.18150741       0.14542109
O       -5.68406934     -17.93771680      -5.03154482      -0.14080937       0.62186177      -0.65476623
H       -4.73430524     -17.93916980      -5.02197469       0.09485106      -0.14736265      -0.59892231
H       -5.71857293     -18.73496720      -5.62880340      -0.12754741      -0.25478552      -0.19160184
O       29.44734019      -8.97421682      -6.15382794      -0.99361712       1.12905963      -0.71820927
H       30.25031340      -9.00232050      -6.74651330      -0.15039145      -0.02351155       0.42920016
H       29.09370936      -9.78373453      -5.91929255      -0.33768131      -0.14324853       0.25841769
O        8.81421605      -0.66155678       3.42877764      -0.07336104       0.23230284       0.92069553
H        8.40888081      -0.04970278       2.85541031       0.25173132      -0.08287658       0.03251170
H        8.39484005      -1.51972158       3.60653242       0.32411668       0.27222191      -0.30379375
O      -19.77635911      -3.14146913      24.77329889      -0.12052257       0.73664034       0.09017871
H      -20.03114841      -4.03706971      24.26122276       0.21896485      -0.20609504       0.03865674
H      -19.16514822      -3.49214274      25.57161259       0.07178466      -0.07907886       0.04109111
O        2.40433081      -5.77882012      -6.03419698       1.18571396       1.07995437      -0.39537556
H        2.50493467      -5.67266157      -5.13930002      -0.09566567      -0.20824266       0.51442840
H        2.00690201      -6.60627795      -6.17444084       0.20228422      -0.14057121       0.10216644
O        9.87037951       8.26180297       7.95803519       1.49597780      -1.04419192       0.27316910
H       10.42319228       8.54978091       7.21603434      -0.43326672       0.17914032      -0.12684480
H       10.24603852       7.44208162       8.26934623      -0.29162061      -0.13315857      -0.30745783
O        5.36169347       9.74965115      -4.83877148       0.62704750      -0.26065143      -0.68579769
H        6.17673613       9.11911240      -4.77568786      -0.17464943       0.16838127      -0.02391984
H        4.84067219       9.66931524      -4.06017429       0.15546580       0.00567654      -0.28003962
O       13.74770581      29.44407907      15.88625050      -0.71320972      -0.81336192       0.49541625
H       12.92850251      28.99881860      16.02300734      -0.21558338       0.07472691      -0.16863994
H       14.37332736      28.69429697      15.87157837       0.02904168      -0.16473267      -0.12460021
O       -2.81750327       3.98551535       1.70117061      -0.41752775       0.60826043       0.40739617
H       -2.26706078       3.44134484       2.42824711      -0.05450264      -0.39223291       0.17799728
H       -2.66936742       4.88311929       1.82917984       0.02962199      -0.29308024      -0.09477160
O        7.83109416     -14.01350641      10.94854512       0.79103187       0.14228540      -0.45042493
H        6.82784007     -14.49196120      10.98442058      -0.12039343      -0.08202045      -0.32909989
H        8.17069287     -14.20221672       9.99486561      -0.04074524      -0.29258294      -0.26161094
O       -2.47536670      10.55351203      24.33088192      -1.47788806       0.60215102      -0.51785450
H       -2.07823826      10.17537201      23.65678674       0.09903344      -0.01245466      -0.28289193
H       -3.22576540      11.17504812      24.31391231       0.23549781      -0.23830482       0.08076982
O       20.05558461      21.74941764       1.54531374      -0.44955961       0.25963456      -0.22408171
H       19.91831627      22.25222267       2.46553785      -0.15646430      -0.02822116      -0.05475012
H       19.71268470      20.82481319       1.36881693      -0.16452217       0.34149813       0.00617519
O       12.16990932      10.01021086     -15.90183225       1.04649526       0.03746613       0.47669053
H       12.69681797       9.26689226     -15.55462058      -0.15474701       0.16602440      -0.48205462
H       12.56301187      10.04737610     -16.90745648      -0.05858506       0.01174217       0.42641476
O      -11.39137356      22.28548431       1.05462499       0.38852917      -0.01507901      -0.11605796
H      -11.78348732      21.28842451       1.08359803      -0.19119908       0.00955555      -0.04256662
H      -10.87180428      22.60127552       1.78898560      -0.15832679      -0.00991394      -0.11496325
O        2.93689862     -15.03662854      16.10265114      -0.65430924      -0.62114244      -1.02803178
H        3.32199282     -15.72706137      16.72633001      -0.08685030       0.21782227       0.10770428
H        3.65161205     -14.39779287      15.93059236       0.35480415      -0.04567905      -0.14586743
O        2.40278313      16.31472941       0.36474402      -1.11247545      -1.02695209       0.00695464
H        1.95466136      16.26804595      -0.37078770      -0.11847280       0.36651497       0.46340496
H        2.96225320      15.59185634       0.62586668       0.13082590       0.09386678      -0.02183016
O       -5.72306981      -7.30570277       5.60888911      -1.88571523      -0.44636089       0.26430477
H       -5.32010165      -7.91956707       6.16591410       0.36680609       0.10390115       0.10037599
H       -5.04654292      -6.78279061       5.03247703      -0.00773826      -0.20476078      -0.03905127
O       -2.15365594       2.40050396       6.66355830       0.21996547       0.86355301       0.47415832
H       -2.15494900       3.40525974       6.82073753      -0.11604088      -0.22071532      -0.23244977
H       -1.88302379       1.91138140       7.31203758      -0.01142838       0.17975452      -0.21505727
O       13.18804283      -5.49491397      -1.46630558       0.54307086      -1.21902775      -0.24536652
H       13.94724213      -5.26200406      -1.91357146       0.22839349      -0.14231263      -0.04329679
H       12.90739363      -6.48827231      -1.65241869       0.01677846      -0.24168776       0.20489375
O       11.82175596       4.89242317      22.73632810      -0.18250929      -0.24412283      -0.13332387
H       11.19434245       4.13851519      22.97854442       0.01393147       0.13796470       0.03952067
H       11.90291077       4.75419535      21.78798054       0.05190429      -0.11903370       0.21668587
O        8.15308429      14.49526027      23.82898937      -0.98274724      -0.14936000       1.39458743
H        9.06635320      14.83075809      23.78766316      -0.20920614      -0.37551940      -0.31397294
H        8.15208049      13.45331614      24.07456672       0.14063666       0.12453371      -0.21742315
O       -8.06422482       6.98876575      11.41735613       0.80658647      -1.04951997       0.23050060
H       -7.29941382       6.66334049      10.90963163       0.14533814       0.20561979      -0.24999258
H       -8.37369537       6.47437780      12.11660454      -0.08757681       0.48157478       0.32088100
