192
Lattice="12.746829480462795 0.0 0.0 -5.29065806762201e-07 12.746829480462795 0.0 -5.29065806762201e-07 -5.29065806762201e-07 12.746829480462795" Properties=species:S:1:pos:R:3:momenta:R:3 step=100 time_fs=10.0 phase=production pbc="T T T"
O       11.65076344       0.73663818     -16.47428113       1.48548853       0.38004962       0.56769157
H       12.14571442       1.02940775     -15.71930423      -0.00004506      -0.03573841      -0.13980020
H       10.92768659       0.10181660     -16.36332486       0.24883576      -0.06141012       0.40338104
O       26.37884478      24.79551770       4.93516342       0.60483476      -0.21791993       1.46060341
H       26.74201401      23.95255475       4.60924044      -0.19269028       0.61489905       0.10914310
H       25.63115571      25.06273647       4.40836346       0.19453925       0.02098450      -0.19047754
O        4.54920660      -0.31968282       6.60873100      -0.27963240      -0.34897419      -0.90460854
H        5.12630679      -1.04520552       6.84624692       0.47212993      -0.06896619      -0.27830259
H        4.23735154       0.20226622       7.33428379       0.07899247       0.05672854      -0.15538763
O       -2.85942839      -4.38653775       1.05876050      -0.19104118       0.63393574       1.20847911
H       -2.63198287      -3.77171290       0.29541311       0.11863686      -0.01112967      -0.34005073
H       -3.75710847      -4.05151985       1.36806991      -0.23413955       0.26634066      -0.07454621
O        4.29700121      15.88047963      10.71687539       1.25118945       0.40079402      -0.61263007
H        4.31724323      16.75084883      11.05600391       0.07097727       0.42808818      -0.15472104
H        5.03896808      15.83220256      10.13554715      -0.45103057       0.08610180      -0.03585011
O       -1.37550170       6.59571463       5.14084975       0.41683331      -0.91167390       0.45344545
H       -1.64544350       6.27237209       4.30079523      -0.59385700      -0.15684051      -0.23738850
H       -0.56200762       7.12477313       5.26297761      -0.07491777       0.17640149       0.01022159
O       22.82165596      12.32075815       5.77810464       0.35258805       0.30679582       0.01247791
H       23.19334459      13.14364022       5.98695458      -0.23653970      -0.27514895      -0.17809772
H       22.20403541      12.25334966       4.94406590      -0.29402831      -0.02173895       0.43880727
O       -1.07091950     -15.76177753       6.79537717      -1.51007930       0.52455003      -0.36995758
H       -0.55906158     -16.10609940       6.07163100       0.13713050      -0.14548192      -0.15687545
H       -1.41163058     -14.76120179       6.52668685       0.13752447      -0.15915924       0.08019049
O       15.47912457     -17.91680019       9.68404325       0.28048126      -0.87359580       0.49608600
H       16.18664602     -18.45727398      10.18268716      -0.10085450       0.33551723      -0.26750402
H       15.66923281     -16.98942361       9.54030589       0.19242968      -0.20221687       0.00336488
O        3.28633136     -14.64155624     -13.36629034       1.13716269       0.20518105      -0.26113787
H        4.19601064     -14.91148280     -13.09270995      -0.28339934       0.37596443      -0.08645313
H        2.68755952     -15.12308723     -12.77647744       0.02176693      -0.28090263      -0.14530947
O       -5.76063530       1.60323273       2.85803902      -0.31767558       0.78393511       0.49717763
H       -6.40390060       1.13144943       2.41059006       0.18570909      -0.00589013       0.11091589
H       -5.43474854       2.47692324       2.58673512      -0.23255699      -0.08702935       0.06174160
O       -5.36817843      16.09428042      25.93244310      -0.12655111       1.04566931      -1.03607700
H       -5.50165232      15.52330558      25.18308877      -0.26133780       0.33272055      -0.04115479
H       -4.24551430      16.19373023      26.11013462       0.41978450      -0.20181784       0.30032436
O        7.48477012     -15.68697158      -8.46312151       1.75102663       0.37065791       1.30909952
H        8.02290559     -16.48233812      -8.19081415       0.09755490       0.16581275      -0.00238799
H        6.67257321     -15.47566248      -8.10358239      -0.47102534       0.21865551       0.03748977
O       13.67291264       8.54830284      17.97602441       0.18658919      -0.18500402       0.57802779
H       14.02793342       8.63087428      17.14143617      -0.23031149      -0.12881405       0.31599605
H       14.28402217       8.04756355      18.49556263      -0.21640075       0.38540711       0.09570688
O       -0.16006124       1.22675638      -1.22084167      -0.37522356       0.46372951       0.39303643
H        0.78328442       1.35621792      -1.22380794      -0.21707076      -0.26281033       0.05796201
H       -0.42359573       0.37912569      -0.74554245      -0.08368782       0.46010521      -0.27779246
O      -14.17090558      12.66447453      15.77133902       0.09533589       0.21976283      -0.01084696
H      -13.84728848      12.40269279      14.89646164       0.37545860      -0.14999945      -0.45655179
H      -14.94991259      12.23777968      16.19307525       0.48535487       0.05381892      -0.15602572
O      -16.39465809       5.92241852      12.32732756       1.88092440       0.94343647      -0.32442348
H      -16.89237697       5.89675381      11.51895737       0.04344906      -0.23593003      -0.24606566
H      -16.08687276       7.03736184      12.29169941      -0.15198773       0.00748262      -0.10954925
O       -9.95393949      32.90880230      -9.58576114      -0.68552788      -1.01719130      -0.37547285
H       -9.15639307      32.47312795      -9.31627669      -0.06302306       0.42241214      -0.18624052
H      -10.77407045      32.40123484      -9.83758503       0.38566422       0.32716201       0.34803747
O       34.77371926      11.48863795      21.37820734       0.99187262      -0.71707267      -0.75666034
H       34.65601298      11.77446286      20.37814220      -0.05000601       0.16487340       0.11180396
H       35.24998610      10.73247319      21.74515403      -0.04500724       0.52174437      -0.08662667
O       30.39474028     -12.63335153       2.15538259       0.09410590       1.54344272      -0.14909574
H       29.55378566     -12.18014195       2.42502745      -0.33102113      -0.07036986       0.04582733
H       30.13207789     -12.64415838       1.23009107      -0.12857458      -0.07877299      -0.39112804
O       17.58259931       9.28680873      -7.43659481      -0.19403693      -1.56417972      -0.74829367
H       17.39284594       8.31267881      -7.73497697      -0.12079307       0.60040174       0.14683991
H       17.38935163       9.53170508      -6.54753913      -0.04731915      -0.01198104       0.21536145
O       -5.13822872       2.58553868      32.19131298       1.18325868      -0.02356596       0.56519100
H       -5.85565526       2.10220956      31.85159736      -0.33509428      -0.37181865       0.22851870
H       -4.38579951       2.08763828      32.51121111       0.19282482       0.02172552       0.31669177
O        3.80744173       0.87688715      -0.22417452       1.25856179       0.16721697       0.43372491
H        3.43069335      -0.00209830      -0.41129837      -0.18693308       0.15603931      -0.05656776
H        4.21565409       1.00511675      -1.09643897       0.39207091       0.07301710      -0.36877941
O       23.21710224       3.22720158      11.65212519      -0.30003124       0.04440214       0.30508848
H       23.34698634       3.67995759      12.62691107       0.33882015      -0.02668365      -0.28959073
H       23.84502388       2.48823926      11.78659839      -0.15259924      -0.03603905      -0.04055275
O       -1.43880847      31.83604216      15.03573813      -0.41682131       0.92782366       0.76844862
H       -2.08891195      32.44582547      14.63831307       0.13194645      -0.16129636       0.32395983
H       -0.61210733      31.71062943      14.57059710       0.21615957      -0.43792165       0.02606722
O        4.82927884      19.39135726       5.21516147      -0.81525236       0.03263836       0.41736253
H        4.09198918      18.99315558       5.70990938       0.35621709       0.39487620      -0.35448434
H        5.61263334      18.83115417       5.20527086       0.12036287      -0.38569192      -0.06935506
O      -10.17180421      10.50151843       9.50109946      -1.18025098       0.53920942       0.16506024
H      -10.81832827      10.93353516       8.78539306      -0.00677005      -0.08805882       0.25981072
H      -10.45612652      10.77218251      10.33915582       0.13736995      -0.07285977       0.56728210
O       17.69836208      17.76615016      26.13343332       0.36546779       0.40195490      -1.53320345
H       18.45434841      17.17065618      25.98042079      -0.34512534      -0.19685356       0.08180542
H       16.87681070      17.23924236      26.10001885      -0.06037285      -0.16286226       0.10502449
O        6.92807065      18.70349945      10.14305938      -0.40075891      -0.49693020       0.00562349
H        7.25716960      19.33005352       9.48543488       0.12498941       0.10455380       0.06282992
H        6.56638117      17.95296488       9.61352601      -0.10504419       0.17846119       0.40873294
O       -0.65043289     -13.79928373      13.26233243      -0.88852943      -0.64002406      -0.01544497
H       -1.43385490     -14.24931638      12.84372739       0.10321409      -0.16179946       0.30593622
H       -0.15034262     -14.67927258      13.51182687      -0.15221779       0.23449999      -0.35860541
O        1.13835989       6.09454963       1.10839456      -0.04228446      -2.55965441       0.84335136
H        1.63840170       5.15186726       1.22074139      -0.12892504       0.23757701       0.01224392
H        0.99297917       6.48928639       0.25635033       0.12899385       0.54542151      -0.18276353
O        3.16424470       1.30386966       8.37289243       1.23811891      -0.55313482       0.63499937
H        2.06315052       1.10760291       8.28462471       0.05449773       0.25676965       0.04558095
H        3.27227509       1.39979893       9.32119170       0.06997432      -0.32353287      -0.24307719
O      -18.82256764      28.82650951     -16.17412372       0.42322084       0.77681013      -0.77402544
H      -18.87007070      29.09823098     -17.19150338      -0.06134368       0.09562478       0.30724256
H      -18.12127547      28.30355566     -15.53847963      -0.14965178       0.22769612      -0.01228157
O        2.90737172      26.85869762      -9.09203720       0.86571095      -0.49210383       1.14344002
H        3.41299517      26.99891903      -8.41532059      -1.00338899      -0.14334545      -1.04817898
H        2.14364455      26.31613345      -8.91295383       0.00739044       0.47182650       0.05467540
O      -18.10042275      19.00087801       1.93638732      -0.85287139      -0.96967780       0.23615431
H      -17.38496314      18.83887724       1.17059214      -0.49442101       0.00284413       0.29352890
H      -18.99895492      18.51844174       1.80083270       0.04961716       0.25832596       0.16761117
O       11.70828857      17.57580491       7.05144846       0.15636379      -0.17513419      -0.36369523
H       12.54364857      17.31751471       6.67288882      -0.10425206       0.18635459      -0.12787868
H       11.17728076      18.24666491       6.62722753      -0.04085899      -0.08909658      -0.00693414
O       -7.21364596     -11.22953390       5.17844217       0.11097299      -0.71054100       0.12388148
H       -6.61819570     -11.24987378       4.43238206      -0.09292368      -0.16104086      -0.55639406
H       -7.42743522     -12.03614298       5.67174870       0.05929531       0.21475215      -0.04676917
O      -24.14990251       3.37752078      10.71349304      -0.50865123      -0.71428166       0.06348348
H      -24.85480337       4.02170895      10.44296754      -0.03381535      -0.32366547       0.00745127
H      -23.29187167       3.78253074      10.23317390      -0.30137377      -0.19551031       0.04954973
O      -11.43267496      -8.23509201      18.46440307      -0.38005569      -0.82741786       0.37392800
H      -10.70938310      -8.65727822      18.95501924       0.05834010      -0.36228080       0.09594393
H      -11.41876696      -8.12934753      17.48005014      -0.06401589       0.46749474      -0.28861776
O        8.57757567       7.34959289      16.89432563      -0.89767320       0.69278549      -0.71381984
H        9.49965006       7.34633307      16.82092625      -0.44353234      -0.02731901       0.18211152
H        8.12986888       6.84992132      16.21211820      -0.26800728       0.10040415      -0.27880037
O      -11.62146687      -0.47884384      20.44042356       0.48077214      -0.09389906       0.12487990
H      -12.50678317      -0.23101333      20.71854749       0.06791109       0.18743251       0.01065437
H      -11.83440153      -0.58042465      19.39738572      -0.11032763      -0.04346154       0.30691757
O       24.15476348       2.49280589      16.20328514      -0.58093617       0.42075846      -1.40329975
H       23.97930136       2.41720695      17.15395780       0.08743951      -0.33155337       0.23258449
H       24.07819734       1.63675144      15.69654706       0.22746574       0.42216357       0.40204515
O       -5.68469620     -17.93380597      -5.03566806      -0.12291586       0.38448759      -0.76954708
H       -4.71931336     -17.94654142      -5.07819421       0.18664265      -0.01943514      -0.55864147
H       -5.73621703     -18.75166069      -5.64302186      -0.23887154      -0.09337533      -0.09625960
O       29.44046183      -8.96619382      -6.15853766      -0.88909553       1.31299430      -0.85943135
H       30.22512140      -9.00732588      -6.69699490      -0.29896548      -0.08994167       0.55136793
H       29.05982068      -9.80579654      -5.89202185      -0.31116963      -0.27230212       0.28243737
O        8.81393665      -0.66038222       3.43465992       0.13540344       0.17734774       1.04558482
H        8.42600223      -0.05325489       2.85389832       0.10223530       0.01917399      -0.06971130
H        8.42245553      -1.49477300       3.57605112       0.22924003       0.19349451      -0.30994473
O      -19.77603246      -3.13800583      24.77293996      -0.05202378       0.34605950       0.14377261
H      -20.00499268      -4.04204215      24.27355119       0.29714033       0.10059961       0.23329716
H      -19.16581887      -3.49347120      25.56465132      -0.10071666       0.04983749      -0.15835339
O        2.41163859      -5.77152628      -6.03705133       1.22361439       1.19988719      -0.55726067
H        2.49910250      -5.68861312      -5.07433440      -0.03248813      -0.13453396       0.74190856
H        2.02148433      -6.63065119      -6.16845308       0.11207913      -0.33773881       0.02238869
O        9.87913591       8.25503448       7.95923007       1.47987354      -1.02872503       0.23181103
H       10.38088246       8.56893306       7.20468789      -0.41760979       0.22143151      -0.10601086
H       10.21840531       7.42636357       8.23991651      -0.25712781      -0.19616766      -0.28597548
O        5.36621919       9.74715987      -4.84328565       0.91629190      -0.39806738      -0.87019572
H        6.14845323       9.14227821      -4.77796523      -0.37721762       0.30097360      -0.02890160
H        4.85133709       9.66814446      -4.08049184       0.05114587      -0.02004842      -0.12218902
O       13.74328084      29.43756919      15.88862819      -0.54261937      -0.90536907       0.50573453
H       12.89732113      29.00328279      16.00663861      -0.39050874       0.05077032      -0.15616455
H       14.37609766      28.68065576      15.85872253       0.02753998      -0.07879615      -0.12407765
O       -2.81969363       3.98750239       1.70395733      -0.34145449       0.07899285       0.52288483
H       -2.28090015       3.41252105       2.43394508      -0.23256100      -0.19220016      -0.06105164
H       -2.66172457       4.86861369       1.82267605       0.12813199       0.01297888      -0.03501621
O        7.83485802     -14.01268252      10.94458941       0.54555833      -0.07566347      -0.69095988
H        6.83571618     -14.49067862      10.95032311       0.28632736       0.09493392      -0.35787186
H        8.16016565     -14.22603385       9.98012379      -0.16558186      -0.20608828      -0.02872974
O       -2.48479929      10.55752316      24.32830523      -1.56385639       0.79625000      -0.02490270
H       -2.06142700      10.16623090      23.60912152       0.21706194      -0.13993225      -0.62412485
H       -3.20086118      11.14638542      24.31551860       0.23584788      -0.30831315      -0.02650838
O       20.05175120      21.75012355       1.54427592      -0.50650332       0.30264076      -0.08886538
H       19.90275303      22.23872815       2.44748639      -0.14534483      -0.23023794      -0.31634544
H       19.69773660      20.86423404       1.37465871      -0.13308947       0.46434874       0.11299896
O       12.17619412      10.00999578     -15.89920667       1.14642223       0.07212078       0.14007680
H       12.68071223       9.28229000     -15.59893852      -0.13696359       0.11054219      -0.40899591
H       12.54809879      10.04805358     -16.85085351      -0.23528342       0.02217557       0.70131410
O      -11.38904186      22.28365317       1.05349778       0.20289975      -0.26656226      -0.24745468
H      -11.79324920      21.30479753       1.08094778      -0.01883397       0.34362605      -0.00980397
H      -10.88458402      22.59638245       1.78212546      -0.10705726      -0.06673025      -0.01405640
O        2.93318331     -15.03990314      16.09586963      -0.50679155      -0.64070294      -0.96245470
H        3.31116363     -15.69725648      16.72985589      -0.12989655       0.36763060      -0.01245488
H        3.68090000     -14.40757365      15.91732546       0.23819433      -0.17415903      -0.11080153
O        2.39680678      16.30804098       0.36648697      -0.79624076      -0.92233166       0.56875428
H        1.92669956      16.29969678      -0.35267874      -0.45298705       0.29765035      -0.09107898
H        2.97366179      15.59707852       0.62299318       0.10177171       0.02931932      -0.04182358
O       -5.73410745      -7.30738911       5.60957775      -1.77232301      -0.23286316       0.06265686
H       -5.28012017      -7.91540159       6.17958160       0.43168285      -0.00464089       0.16702150
H       -5.05509881      -6.81070793       5.03789688      -0.17239042      -0.37070506       0.15113703
O       -2.15291416       2.40731983       6.66465359      -0.00763965       1.35772298      -0.02235067
H       -2.16416454       3.37331028       6.79774110      -0.07654956      -0.40302785      -0.22798086
H       -1.87322730       1.91465180       7.31464250       0.20931012      -0.10815702       0.26990055
O       13.18994213      -5.50320631      -1.46730099       0.28662059      -1.55023334      -0.11092653
H       13.97871563      -5.27561153      -1.92474014       0.40790438      -0.14938792      -0.17527426
H       12.91364791      -6.49588453      -1.63207555       0.12330487       0.07813346       0.20842536
O       11.81988969       4.89019640      22.73477879      -0.25289621      -0.40163726      -0.03519418
H       11.19794075       4.15727943      22.98347619       0.06203578       0.24197250       0.08573625
H       11.90858723       4.74475247      21.80279032       0.07762149      -0.07232561       0.08937908
O        8.14673181      14.49279968      23.83672478      -0.99441350      -0.45058103       1.46179703
H        9.04289678      14.79111468      23.75640565      -0.23563347      -0.41104104      -0.30946512
H        8.16605783      13.48286931      24.04680198       0.14793731       0.48508412      -0.32622185
O       -8.05858403       6.98246080      11.41740945       0.91383232      -0.91114034      -0.04677328
H       -7.28877114       6.68185436      10.88997635       0.06023064       0.17882194      -0.13541373
H       -8.38161865       6.51348427      12.15490723      -0.07349651       0.33295408       0.46313408
192
Lattice="12.746165044607881 0.0 0.0 -5.290382289011994e-07 12.746165044607881 0.0 -5.290382289011994e-07 -5.290382289011994e-07 12.746165044607881" Properties=species:S:1:pos:R:3:momenta:R:3 step=110 time_fs=11.0 phase=production pbc="T T T"
O       11.65912706       0.73880812     -16.47048087       1.43052214       0.33554107       0.38034792
H       12.14504207       1.02499102     -15.72531490       0.00920279      -0.04721842       0.00984018
H       10.95399090       0.09813590     -16.32020523       0.29909646      -0.01634797       0.46130036
O       26.38116899      24.79293477       4.94401675       0.56876148      -0.14000640       1.52853693
H       26.72361662      24.00963605       4.61917430      -0.12104802       0.51387652       0.07685961
H       25.64696537      25.06428498       4.38849176       0.15388183       0.04435884      -0.20998524
O        4.54739582      -0.32196812       6.60249841      -0.21642457      -0.42026910      -1.00785005
H        5.16994634      -1.04967511       6.82072200       0.40867138      -0.00153811      -0.24224166
H        4.24254195       0.20884176       7.32482086       0.03533106       0.07450436      -0.03268477
O       -2.86090089      -4.38173902       1.06566646      -0.34088765       0.86250312       1.05175945
H       -2.62276174      -3.78075553       0.27213716       0.06412558      -0.18302546      -0.12760735
H       -3.77017860      -4.02810508       1.35756121      -0.03104847       0.20668249      -0.14140168
O        4.30392695      15.88177145      10.71279336       1.05492162       0.34045611      -0.49541402
H        4.32332936      16.80040797      11.04458943       0.05833288       0.55660032      -0.08702736
H        5.00487437      15.83633899      10.12298892      -0.22029339       0.01483177      -0.23073265
O       -1.37263788       6.58988658       5.14376500       0.47418314      -0.89323180       0.54080999
H       -1.69972529       6.25792154       4.27562702      -0.50676082      -0.11598621      -0.23322514
H       -0.57475581       7.13795327       5.25988966      -0.18389511       0.10290602      -0.06728159
O       22.82195093      12.32103251       5.77719730       0.12514543      -0.03042396      -0.20600227
H       23.17137441      13.12791038       5.96942310      -0.17905487      -0.00833091      -0.16791232
H       22.18193431      12.25440037       4.99935910      -0.14165009       0.05421722       0.68878289
O       -1.08055166     -15.75682920       6.79252684      -1.62635702       0.80588902      -0.46776668
H       -0.54514418     -16.11785403       6.05618268       0.12965046      -0.10154001      -0.12832466
H       -1.39232496     -14.79233009       6.53637041       0.25531167      -0.49309920       0.12519988
O       15.48012784     -17.92176816       9.68688264       0.28805196      -1.04113745       0.58247027
H       16.17132948     -18.41496781      10.15200767      -0.17624112       0.49302720      -0.33552312
H       15.69066571     -17.00695317       9.54215128       0.26363868      -0.16412881       0.04150205
O        3.29318889     -14.63963554     -13.36695120       1.10438012       0.18273035      -0.19476028
H        4.16800141     -14.87512235     -13.10238486      -0.23805538       0.34209717      -0.11291599
H        2.68900944     -15.14854498     -12.79193653       0.00910142      -0.25657153      -0.18601505
O       -5.76163515       1.60834180       2.86176948      -0.11376816       0.88710673       0.77243973
H       -6.39412268       1.12761959       2.41207193       0.00470703      -0.07434774      -0.07862241
H       -5.46141691       2.46352977       2.58937058      -0.31079626      -0.16193739      -0.01041562
O       -5.36788247      16.10010134      25.92514186       0.13016365       1.13088418      -0.88924867
H       -5.52403401      15.55320253      25.17572780      -0.20522665       0.28830704      -0.09394091
H       -4.21957868      16.17184688      26.13617898       0.11308116      -0.22682049       0.26171705
O        7.49608268     -15.68417448      -8.45496280       1.98808578       0.31046514       1.22595882
H        8.02281868     -16.45890108      -8.19203159      -0.07763353       0.27666150      -0.02427467
H        6.62026238     -15.45643794      -8.09475833      -0.53680104       0.14369463       0.10941208
O       13.67251406       8.54679089      17.97955907      -0.10209431      -0.15135707       0.87726445
H       14.01085480       8.62162975      17.14792538      -0.10135115      -0.05205288      -0.17679915
H       14.26717476       8.07937661      18.51445137      -0.09918748       0.26418553       0.32569347
O       -0.16308515       1.22916333      -1.21836139      -0.61539976       0.38538077       0.37163812
H        0.76722296       1.32796109      -1.21601198      -0.08563831      -0.30718032       0.09723283
H       -0.42647175       0.43098322      -0.77551050       0.00175733       0.55250519      -0.31037215
O      -14.16931980      12.66516755      15.77007763       0.22908987       0.23505002      -0.17768133
H      -13.81488428      12.38803476      14.85892131       0.26307749      -0.12884062      -0.27085959
H      -14.89959467      12.24173263      16.17247629       0.49265014       0.01901239      -0.23079428
O      -16.38188454       5.92898333      12.32474166       1.98363525       1.29932863      -0.34047825
H      -16.88787902       5.87397940      11.49394245       0.04697702      -0.22561549      -0.22657765
H      -16.10609235       7.01948713      12.28126730      -0.25795634      -0.37011284      -0.08913670
O       -9.95819180      32.90119063      -9.58769906      -0.82889512      -0.84736149      -0.40838805
H       -9.16063883      32.50820641      -9.33345613      -0.01225554       0.31885261      -0.17033939
H      -10.72834476      32.43079448      -9.80144687       0.47868403       0.27270374       0.36717688
O       34.77752277      11.48415337      21.37185040       0.81224584      -0.51028415      -0.96089095
H       34.65324810      11.78322120      20.40288238       0.03095844       0.02570813       0.41218798
H       35.24742344      10.77961393      21.73103851       0.05518547       0.41926055      -0.16410384
O       30.39310426     -12.62275871       2.15428585      -0.13023844       1.69577864      -0.20431808
H       29.52634016     -12.18891162       2.43263468      -0.19250414      -0.12553030       0.11277807
H       30.12192256     -12.65157683       1.19133066      -0.03669898      -0.08650594      -0.37071166
O       17.58033817       9.27604982      -7.44118908      -0.23891331      -1.71986859      -0.82978664
H       17.38392839       8.38256703      -7.71321510      -0.05357660       0.78362415       0.27482309
H       17.38500242       9.52785901      -6.52531354      -0.01760405      -0.06411433       0.20566426
O       -5.13057189       2.58575930      32.19328534       1.20691875       0.10659425       0.61397808
H       -5.88907120       2.06189365      31.87127998      -0.32483262      -0.43157132       0.22336285
H       -4.36903636       2.08826774      32.53928553       0.13046001       0.00280711       0.28646211
O        3.81518367       0.87757538      -0.22208292       1.34222103       0.07567686       0.21443339
H        3.40982601       0.01223607      -0.41374445      -0.23541339       0.14201336       0.00516322
H        4.25249405       1.01670199      -1.12578823       0.35277386       0.15833995      -0.20290204
O       23.21450334       3.22744679      11.65445229      -0.15655427       0.09724920       0.64778427
H       23.37467648       3.67393918      12.58459925       0.25062258      -0.08816371      -0.56003661
H       23.82744219       2.48585485      11.77863880      -0.17574708      -0.02187272      -0.11169993
O       -1.44120161      31.83992091      15.03975891      -0.34946736       0.85325235       0.79925430
H       -2.07209092      32.43051417      14.66663455       0.19451627      -0.10204407       0.26160761
H       -0.59540584      31.66821982      14.57290010       0.10549142      -0.39254508       0.04639412
O        4.82434375      19.39051164       5.21727679      -0.63177920       0.03542953       0.32448883
H        4.12478980      19.02980647       5.67797170       0.26558924       0.34865141      -0.25775607
H        5.61916216      18.79513325       5.19744634      -0.00111828      -0.31581625      -0.08510779
O      -10.17887433      10.50437141       9.50055710      -1.30452806       0.57756168      -0.12958099
H      -10.80970066      10.92012947       8.82181092       0.16731848      -0.17212803       0.49374122
H      -10.44406000      10.76721063      10.39821514       0.11263596      -0.03121332       0.60948766
O       17.69947616      17.76756659      26.12253387       0.27678415       0.36606150      -1.57023668
H       18.41903483      17.15039742      25.98763907      -0.34001652      -0.21058382       0.09070500
H       16.87583811      17.22665789      26.10998677       0.05890291      -0.07131157       0.12775618
O        6.92508478      18.69950893      10.14238280      -0.44208298      -0.46113680      -0.03736673
H        7.26870165      19.33926820       9.49257825       0.11773495       0.10103042       0.09411895
H        6.55716987      17.97061037       9.65557414      -0.08649325       0.18217916       0.44702441
O       -0.65590104     -13.80354859      13.26156763      -0.89862667      -0.95640970      -0.00548740
H       -1.42323729     -14.25903236      12.87221014       0.09467482      -0.06104029       0.28286909
H       -0.16644948     -14.64418609      13.47521510      -0.16595348       0.45103698      -0.37133851
O        1.13834951       6.07776453       1.11367852       0.04515487      -2.77131020       0.85794850
H        1.61760266       5.19000221       1.21719706      -0.28945296       0.53744557      -0.08242417
H        1.00670488       6.53883760       0.23894308       0.16013052       0.45708484      -0.13705459
O        3.17063449       1.30018109       8.37588850       0.89128947      -0.62760723       0.45036111
H        2.08663528       1.13360274       8.29075677       0.42718873       0.27666377       0.08483237
H        3.27840652       1.36840843       9.29999194       0.06795547      -0.31575376      -0.14523640
O      -18.81881747      28.82969518     -16.17810006       0.47429421       0.74878141      -0.77589617
H      -18.86975798      29.09869512     -17.14847782       0.04840044      -0.05023361       0.53817983
H      -18.14324855      28.33068901     -15.55098974      -0.31772969       0.35787913      -0.26217122
O        2.91119763      26.85393152      -9.08690230       0.40984885      -0.61158747       0.31586050
H        3.34435672      26.99135451      -8.48006698      -0.34888594       0.03464843      -0.22519389
H        2.13774294      26.35693648      -8.90719058      -0.15429212       0.38056925       0.05111820
O      -18.10467218      18.99356267       1.93708288      -0.84471235      -1.07762172       0.04678208
H      -17.44661439      18.83891575       1.21006309      -0.77317176       0.01218893       0.49939662
H      -18.97997709      18.54849141       1.81639024       0.31134190       0.37030533       0.15047982
O       11.70828306      17.57363451       7.04916090       0.03827178      -0.23303080      -0.25697512
H       12.53529733      17.33766582       6.65548454      -0.04551783       0.24160696      -0.22437997
H       11.17734757      18.23722016       6.62361278       0.04905257      -0.08086584      -0.06208969
O       -7.21249024     -11.23279380       5.17889720       0.16756313      -0.51924999       0.07224703
H       -6.62892585     -11.26981403       4.37996143      -0.15343871      -0.25754387      -0.48667100
H       -7.41914555     -12.01618254       5.66229850       0.09556715       0.15893066      -0.12835035
O      -24.15110558       3.37372785      10.71288030      -0.28768333      -0.48381134      -0.06854789
H      -24.85222561       3.98680766      10.44450339       0.03799612      -0.37276098       0.03034036
H      -23.33431970       3.75620230      10.24488390      -0.57773897      -0.33643448       0.19269414
O      -11.43442270      -8.23963338      18.46541742      -0.37416341      -0.79317802       0.26177776
H      -10.70636064      -8.69012750      18.95570124      -0.01626470      -0.31514575      -0.06672822
H      -11.42266223      -8.08788176      17.46407961      -0.03002494       0.36906804      -0.00891388
O        8.57065202       7.35358335      16.88915215      -1.25295720       0.71972838      -0.70267573
H        9.46815049       7.34245267      16.83695929      -0.16556343      -0.04624305       0.16282107
H        8.10478721       6.85970158      16.18161997      -0.22410392       0.12131263      -0.30927615
O      -11.61817879      -0.47948297      20.43917279       0.38655972      -0.12092067      -0.18039545
H      -12.50114273      -0.21077480      20.72304596       0.03825136       0.22694910       0.10545374
H      -11.83862854      -0.58403264      19.43717104       0.01293573      -0.03251480       0.52184550
O       24.14997065       2.49512845      16.19400119      -0.56982193       0.43410551      -1.29144875
H       23.98743543       2.38312989      17.16771019       0.10821606      -0.35600365       0.05511379
H       24.09953701       1.68156677      15.74162878       0.23286165       0.43442664       0.49501728
O       -5.68476876     -17.93136498      -5.04059742       0.02183824       0.10387894      -0.92690075
H       -4.70186728     -17.94112495      -5.12998708       0.14611557       0.11158281      -0.50704505
H       -5.76446657     -18.75036873      -5.64616492      -0.34641241       0.10089062       0.02726630
O       29.43278856      -8.95774906      -6.16320514      -1.17046320       1.25280293      -0.72386425
H       30.19878404      -9.01955597      -6.64497038      -0.16133679      -0.17347938       0.47931024
H       29.03397238      -9.82744021      -5.86631091      -0.17428008      -0.14838262       0.22785810
O        8.81520667      -0.65894124       3.44125543       0.42695824       0.30440422       1.15341982
H        8.42826766      -0.04600046       2.84161889      -0.03816150       0.11847561      -0.16853118
H        8.43618634      -1.48761515       3.54658646       0.05767613      -0.05945871      -0.29130361
O      -19.77509345      -3.13686391      24.77268720       0.02195094      -0.01561517       0.19544291
H      -19.97221106      -4.01800194      24.30292408       0.34652874       0.37643834       0.38111408
H      -19.18204955      -3.48193227      25.53945872      -0.24483394       0.18450152      -0.32082356
O        2.41899799      -5.76384114      -6.03978761       1.20264340       1.17536379      -0.39747018
H        2.49655346      -5.70003248      -5.00702213      -0.02349021      -0.11204699       0.58623539
H        2.03180857      -6.66424859      -6.16768372       0.11900024      -0.31963021      -0.00381427
O        9.88746801       8.24849082       7.96016295       1.39635959      -0.96017484       0.21118967
H       10.34197010       8.59172486       7.19403619      -0.36596563       0.25126923      -0.10468532
H       10.19613265       7.40196766       8.21268118      -0.18613440      -0.29406172      -0.26895336
O        5.37208751       9.74412594      -4.84907552       1.03969590      -0.39194659      -1.09489912
H        6.10997618       9.17192317      -4.78107667      -0.35671112       0.28197977      -0.03975933
H        4.84823979       9.66499358      -4.08211402      -0.11159007      -0.03054951       0.08068041
O       13.73949829      29.42997391      15.89096138      -0.48069235      -1.07832983       0.52620153
H       12.85690256      29.00782110      15.99031623      -0.39276230       0.08252037      -0.16515344
H       14.37506193      28.67756764      15.84607202      -0.04233440       0.04848823      -0.11734906
O       -2.82147307       3.98612073       1.70741459      -0.28814545      -0.44154306       0.63113234
H       -2.31191103       3.40389673       2.41627302      -0.40257800       0.01825447      -0.29496016
H       -2.64407488       4.88447502       1.82215552       0.22830907       0.29672269       0.02405850
O        7.83707434     -14.01308504      10.93897373       0.31562383      -0.28946246      -0.95172543
H        6.88135137     -14.47256523      10.91448162       0.64071995       0.25647651      -0.35864542
H        8.13877638     -14.24062373       9.98773847      -0.25404739      -0.10685799       0.18646445
O       -2.49344466      10.56150905      24.32753123      -1.22879624       0.62488665       0.12653343
H       -2.04206310      10.15319746      23.54446699       0.14660194      -0.08585744      -0.61813565
H       -3.18688012      11.12000508      24.30621747       0.01491897      -0.19518421      -0.13965490
O       20.04760885      21.75138559       1.54404657      -0.48287522       0.50175083       0.02512739
H       19.88774462      22.20572558       2.40443434      -0.14592421      -0.41078760      -0.54426421
H       19.68250052      20.90746549       1.39014714      -0.17393307       0.40823674       0.20135418
O       12.18245025      10.01046384     -15.89834864       1.05960325       0.26098880      -0.05710339
H       12.67274651       9.28132207     -15.62977285      -0.00363755      -0.13308194      -0.24075175
H       12.51822372      10.05179130     -16.77589716      -0.33414278       0.06673468       0.74692291
O      -11.38779926      22.28013223       1.05141251       0.01587471      -0.48713881      -0.41409589
H      -11.78621352      21.35221269       1.08182709       0.14561218       0.63766387       0.03042473
H      -10.89112635      22.58638487       1.78704912      -0.04047465      -0.11491933       0.11639175
O        2.93036806     -15.04284063      16.08912181      -0.37075476      -0.55229518      -0.98174015
H        3.29736789     -15.65770852      16.72517729      -0.14089677       0.40030026      -0.04235634
H        3.69689039     -14.43013968      15.90723064       0.09496722      -0.29724613      -0.08268907
O        2.39259211      16.30182823       0.37138460      -0.56725986      -0.82240266       0.98696491
H        1.87028397      16.32420860      -0.38248712      -0.66715658       0.22018630      -0.46867101
H        2.98072706      15.59653408       0.61631886       0.04232598      -0.02348029      -0.10071567
O       -5.74410614      -7.30819322       5.60942622      -1.58033997      -0.17987981       0.00946835
H       -5.23905179      -7.91594991       6.19452467       0.38931100      -0.00187410       0.13487258
H       -5.07885053      -6.85295808       5.05997011      -0.30732673      -0.48867649       0.29133478
O       -2.15341503       2.41616464       6.66289371      -0.17673196       1.48234602      -0.40702077
H       -2.16987290       3.33439156       6.77707733      -0.04295236      -0.34349568      -0.18046147
H       -1.84428579       1.89414772       7.35864254       0.36565682      -0.27968242       0.60219118
O       13.19069084      -5.51321607      -1.46769832       0.21829475      -1.78026425      -0.05822244
H       14.02001823      -5.29222942      -1.94455254       0.42446180      -0.20518529      -0.21650453
H       12.92979363      -6.47387802      -1.61227038       0.21715211       0.35142178       0.19255763
O       11.81761520       4.88717784      22.73376475      -0.27670961      -0.48457790       0.08510575
H       11.20337340       4.18302742      22.99370410       0.04958330       0.27746042       0.15188796
H       11.91707710       4.73938314      21.80173830       0.10879947      -0.03359258      -0.08622142
O        8.13982553      14.48850047      23.84460997      -1.13363206      -0.65920454       1.50332853
H        9.02557580      14.75290629      23.72405716      -0.08173215      -0.33547494      -0.33557058
H        8.17837328      13.54053569      24.01048172       0.10216280       0.64701616      -0.37800497
O       -8.05238246       6.97679209      11.41591245       0.94967788      -0.82769391      -0.21766883
H       -7.28700955       6.69704817      10.88276659      -0.02666405       0.13668950      -0.00289599
H       -8.38499890       6.54078635      12.20154573       0.00771552       0.24793172       0.47984872
192
Lattice="12.74543100294131 0.0 0.0 -5.290077620037551e-07 12.74543100294131 0.0 -5.290077620037551e-07 -5.290077620037551e-07 12.74543100294131" Properties=species:S:1:pos:R:3:momenta:R:3 step=120 time_fs=12.0 phase=production pbc="T T T"
O       11.66704758       0.74068558     -16.46784695       1.37412130       0.29473146       0.17211339
H       12.14736367       1.02097167     -15.71488108       0.05489481      -0.03170497       0.18329840
H       10.98360633       0.09774839     -16.27212291       0.31380920       0.00224389       0.50405458
O       26.38258747      24.79164067       4.95353910       0.36510113       0.21038836       1.66905595
H       26.72056245      24.04058929       4.62039210       0.10477508       0.12324866      -0.05635614
H       25.65879334      25.06925059       4.36819492       0.12705298       0.08623513      -0.19178563
O        4.54617960      -0.32492675       6.59572717      -0.09030680      -0.54946687      -1.06478960
H        5.20243499      -1.04250254       6.79790665       0.25470724       0.15520940      -0.21797315
H        4.24453836       0.21558910       7.32603757       0.01512823       0.05637724       0.05729306
O       -2.86331122      -4.37545011       1.07152311      -0.49588376       1.09932951       0.87753834
H       -2.61925666      -3.80690462       0.27098048       0.00761190      -0.35339184       0.09954461
H       -3.76253590      -4.01111991       1.34059553       0.17821176       0.13715301      -0.20119013
O        4.30939694      15.88349673      10.70992131       0.81768931       0.55176517      -0.23506216
H        4.32836441      16.84785754      11.03415885       0.05301773       0.39933113      -0.12914412
H        4.99673403      15.83375556      10.08834973       0.04718032      -0.04352183      -0.45749379
O       -1.36977469       6.58382406       5.14653920       0.41206670      -0.97270340       0.43942418
H       -1.74166046       6.25133790       4.26057560      -0.34723199      -0.00518881      -0.05295028
H       -0.59622581       7.14496759       5.24959698      -0.24537796       0.05775725      -0.13563747
O       22.82081763      12.31895541       5.77516423      -0.03554115      -0.40552874      -0.31234110
H       23.15680819      13.14253258       5.95433656      -0.09314751       0.31883500      -0.13393862
H       22.17095859      12.26180581       5.07298812      -0.08702224       0.10632081       0.78907027
O       -1.09053117     -15.75044352       6.78870807      -1.62096724       0.92773025      -0.64794915
H       -0.53630489     -16.12265350       6.04953430       0.04450815      -0.01389635       0.00930046
H       -1.36299609     -14.85262540       6.54968673       0.32804945      -0.71402292       0.14464243
O       15.48058242     -17.92737206       9.68989618       0.11110229      -1.08930983       0.55471555
H       16.15698089     -18.36555716      10.12098843      -0.05432362       0.45615566      -0.25676056
H       15.71819339     -17.01720394       9.54632873       0.31299028      -0.05559795       0.04915367
O        3.29902185     -14.63761220     -13.36736410       0.82720224       0.20470399      -0.19865148
H        4.15719469     -14.84506952     -13.11111310       0.04824338       0.25112621      -0.07396412
H        2.68895578     -15.17118414     -12.81142593      -0.00467541      -0.22382167      -0.23072972
O       -5.76158523       1.61360558       2.86721343       0.00060700       0.82499813       1.04879255
H       -6.40133877       1.11737348       2.39595014      -0.14685951      -0.12576126      -0.23876436
H       -5.49273158       2.45005973       2.58315780      -0.32930166      -0.08738447      -0.12069206
O       -5.36599063      16.10643956      25.91877398       0.38714953       1.23490115      -0.69654844
H       -5.54119839      15.57682021      25.16092278      -0.15348299       0.21439378      -0.17996150
H       -4.22250307      16.14836105      26.15813627      -0.17844574      -0.23303791       0.21849170
O        7.50757133     -15.68098313      -8.44698801       1.84488585       0.46990353       1.21643217
H        8.01032590     -16.43171832      -8.19305144      -0.14911964       0.23243062       0.00260110
H        6.57621186     -15.44814301      -8.08518412      -0.32931677       0.00236186       0.06520534
O       13.67021287       8.54556614      17.98457139      -0.36627952      -0.08821917       1.05502527
H       14.00532943       8.61867293      17.10975083      -0.01097292      -0.00965098      -0.52521304
H       14.26357341       8.09830086      18.55631110       0.03177040       0.14661251       0.53194325
O       -0.16747269       1.23199811      -1.21648743      -0.79676293       0.60479486       0.19248623
H        0.76986240       1.29773213      -1.20551227       0.14433219      -0.30612595       0.11315813
H       -0.42845807       0.47505491      -0.79970879      -0.06655376       0.30367610      -0.16137218
O      -14.16605239      12.66617859      15.76706014       0.59862096       0.34665328      -0.52894596
H      -13.79567599      12.37720449      14.84464972       0.11224717      -0.07537437       0.00145177
H      -14.85926284      12.23624147      16.14987108       0.28859770      -0.13363859      -0.19798441
O      -16.36869541       5.93770766      12.32150060       1.99212254       1.64424118      -0.49868101
H      -16.87926357       5.85169410      11.47752428       0.11477257      -0.22937524      -0.08569048
H      -16.13454088       6.96506121      12.27361852      -0.33696665      -0.72542096      -0.04922241
O       -9.96254984      32.89529225      -9.58962279      -0.74443325      -0.43130700      -0.39213266
H       -9.15495715      32.53036467      -9.34765850       0.12537090       0.17320923      -0.13022548
H      -10.69017626      32.44416048      -9.76753573       0.25086645       0.01440546       0.30706863
O       34.77967496      11.48141098      21.36409267       0.53604457      -0.16176325      -1.14173663
H       34.65819916      11.77837096      20.45356968       0.10949153      -0.10454506       0.62174893
H       35.26039831      10.80798841      21.71288877       0.26205244       0.16377740      -0.17785308
O       30.38967073     -12.61114964       2.15237011      -0.42292811       1.84570862      -0.39268052
H       29.51379870     -12.20338526       2.44673357      -0.02863402      -0.18488951       0.17816499
H       30.12280663     -12.65931087       1.16192182       0.09240270      -0.08433952      -0.21727316
O       17.57790053       9.26578711      -7.44536736      -0.20912583      -1.36015021      -0.62651578
H       17.37702209       8.44711007      -7.68599294      -0.08766446       0.46029510       0.24444725
H       17.38491293       9.51753207      -6.51087820       0.03995249      -0.13514384       0.06922444
O       -5.12303357       2.58623197      32.19523314       1.13978616       0.07684619       0.62108241
H       -5.91334345       2.02154267      31.89353974      -0.16255019      -0.37972429       0.27681580
H       -4.36203034       2.08929331      32.56243019       0.00290079       0.02461676       0.22418535
O        3.82359028       0.87774070      -0.22169057       1.47050411      -0.00453461      -0.09514409
H        3.38531218       0.02678228      -0.41068658      -0.25765385       0.16365238       0.05367569
H        4.28184939       1.03443391      -1.13234587       0.24709284       0.19966667       0.07601786
O       23.21255622       3.22810048      11.65867206      -0.05244053       0.17230438       0.91550004
H       23.39291832       3.66371707      12.51869542       0.15442409      -0.10244631      -0.74760960
H       23.80953813       2.48150512      11.76342057      -0.15699543      -0.07428193      -0.18616064
O       -1.44258602      31.84276181      15.04397972      -0.10771922       0.65067787       0.86565166
H       -2.05401060      32.42554949      14.68559246       0.15900598       0.05368423       0.13520948
H       -0.59371494      31.63156459      14.57902165      -0.07639462      -0.31868876       0.09845947
O        4.82160913      19.38978149       5.21828039      -0.14406816       0.09483800       0.08752920
H        4.13572109      19.05554457       5.66388077      -0.05764704       0.19432213      -0.01185965
H        5.60973817      18.76956804       5.18823482      -0.18901629      -0.18196230      -0.09735343
O      -10.18664211      10.50747005       9.49920190      -1.38795071       0.61495950      -0.06190668
H      -10.78767993      10.90079074       8.87748618       0.23661908      -0.18906688       0.62192665
H      -10.43081988      10.76254190      10.44855271       0.15476457      -0.06106143       0.40339369
O       17.69967552      17.76877155      26.11132268       0.11838917       0.36550421      -1.58973635
H       18.38936775      17.12622150      25.99472104      -0.23464096      -0.26944622       0.08362461
H       16.88518550      17.22379147      26.12201892       0.14110642       0.03133343       0.14953756
O        6.92204934      18.69610210      10.14168623      -0.40290719      -0.27169929       0.01492205
H        7.27892412      19.34671047       9.50280956       0.09803480       0.06874552       0.12832141
H        6.54676176      17.98215450       9.69611512      -0.12983591       0.05465032       0.37983910
O       -0.66141070     -13.80894053      13.26081291      -0.91673964      -0.99726214       0.00640367
H       -1.41857992     -14.26201256      12.89586020      -0.01790084      -0.03070845       0.21021419
H       -0.17916034     -14.59647483      13.43955257      -0.06949174       0.46263198      -0.33491980
O        1.13851189       6.06049178       1.11848881      -0.01220616      -2.65598188       0.71129140
H        1.58546700       5.24914210       1.20505491      -0.32941900       0.61119080      -0.15958525
H        1.02487449       6.57439783       0.23424468       0.21639632       0.26773754       0.05586776
O        3.17479131       1.29602065       8.37726528       0.52204058      -0.70209053       0.15034739
H        2.14519765       1.16120735       8.29903074       0.76897636       0.29059875       0.08683956
H        3.28700381       1.33845901       9.29687300       0.12182342      -0.29707656       0.10521568
O      -18.81480402      28.83251075     -16.18149453       0.45784583       0.71031567      -0.59701822
H      -18.85838353      29.08694004     -17.09115534       0.16434726      -0.14447602       0.57125530
H      -18.17965237      28.36928590     -15.58750897      -0.43164225       0.45560828      -0.49567099
O        2.91237501      26.84827549      -9.08696836       0.01511706      -0.73719422      -0.52798619
H        3.34241099      27.00228814      -8.46106743       0.32034204       0.22932643       0.62382244
H        2.11160740      26.38695124      -8.90214575      -0.37418705       0.26940029       0.04209647
O      -18.10897400      18.98589296       1.93740204      -0.90439814      -1.02396568       0.16655492
H      -17.52446583      18.83709611       1.25803701      -0.77037610      -0.03973062       0.41281819
H      -18.94233719      18.58532275       1.82958003       0.37428812       0.37987366       0.12319375
O       11.70750501      17.57099745       7.04754939      -0.06459789      -0.29911795      -0.13634309
H       12.53417906      17.36209344       6.62846259       0.03664577       0.27807496      -0.31947612
H       11.18441608      18.22988455       6.61399605       0.10259147      -0.04285343      -0.12944809
O       -7.21059877     -11.23448359       5.17841943       0.32391434      -0.23369618      -0.14659392
H       -6.64953558     -11.29814087       4.34080152      -0.28210083      -0.33299572      -0.30015038
H       -7.40928202     -12.00739636       5.64819258       0.09286309      -0.00588329      -0.14595526
O      -24.15094240       3.37084202      10.71176204      -0.15307435      -0.43529079      -0.05708350
H      -24.84970827       3.95194878      10.44663949      -0.04176398      -0.32140316       0.02005343
H      -23.39447004       3.71910628      10.26553992      -0.61927150      -0.39500478       0.20697919
O      -11.43596231      -8.24392385      18.46556644      -0.34207729      -0.75738484       0.13583590
H      -10.71219818      -8.71700252      18.93949019      -0.11667217      -0.24502419      -0.24367560
H      -11.42354021      -8.05736264      17.47685027      -0.00120607       0.24472948       0.28710456
O        8.56101911       7.35751551      16.88366192      -1.72105225       0.69388130      -0.77947950
H        9.46771258       7.33619055      16.85058682       0.15546185      -0.07464169       0.13616268
H        8.08754916       6.87473759      16.15326970      -0.11143965       0.20101223      -0.24117622
O      -11.61551283      -0.48024528      20.43617641       0.26298485      -0.13200731      -0.37453541
H      -12.49675153      -0.18707408      20.73670112       0.04401630       0.25700317       0.19676955
H      -11.83090818      -0.58714009      19.49327052       0.12394479      -0.03629319       0.61464947
O       24.14510980       2.49853797      16.18618141      -0.56306551       0.76371107      -0.92639961
H       23.99793939       2.34962739      17.16250031       0.13470522      -0.31764214      -0.13424270
H       24.12067587       1.70853504      15.78237682       0.23055033       0.07076434       0.32243072
O       -5.68365847     -17.93053245      -5.04652771       0.23854202      -0.16069359      -1.09851760
H       -4.69289313     -17.92294902      -5.17590891       0.02602902       0.23888268      -0.43900490
H       -5.80293270     -18.73040739      -5.63721686      -0.44916703       0.27947390       0.14581831
O       29.42241621      -8.95005167      -6.16645677      -1.67070309       1.07933219      -0.44314158
H       30.19626984      -9.04047933      -6.60619532       0.15805219      -0.26720986       0.30289635
H       29.02393391      -9.82996325      -5.84812886       0.00331008       0.09205232       0.13645181
O        8.81805337      -0.65638735       3.44828517       0.64364346       0.51897921       1.18487453
H        8.42016551      -0.03399577       2.82438003      -0.10334870       0.10345006      -0.15882466
H        8.43341563      -1.50506709       3.51829253      -0.09502651      -0.27890884      -0.28988749
O      -19.77361521      -3.13751259      24.77266546       0.08348997      -0.19965649       0.26702226
H      -19.93762428      -3.97354073      24.34042574       0.32373111       0.48115666       0.38228506
H      -19.20888283      -3.45710244      25.50269399      -0.30818679       0.31611105      -0.37687036
O        2.42603602      -5.75676082      -6.04100415       1.13101067       1.00609255      -0.10018403
H        2.49364730      -5.71045872      -4.96473817      -0.03436748      -0.10995230       0.26112410
H        2.04679784      -6.68651306      -6.16720700       0.19787954      -0.12666467       0.01036042
O        9.89518331       8.24229702       7.96099040       1.30470885      -0.91101872       0.21008874
H       10.30887577       8.61587654       7.18409128      -0.29961435       0.24834114      -0.08595234
H       10.18100999       7.37019960       8.18519527      -0.11435374      -0.33338174      -0.29400121
O        5.37778650       9.74163368      -4.85603546       0.86980680      -0.21666192      -1.23930162
H        6.08649782       9.19005081      -4.78484599      -0.08833759       0.07751763      -0.04038757
H        4.83057007       9.66180615      -4.06738246      -0.22687257      -0.02031131       0.18882978
O       13.73558348      29.42109952      15.89337293      -0.55922188      -1.24952232       0.55969199
H       12.82435343      29.01729420      15.97227099      -0.24282187       0.14883643      -0.18722886
H       14.36574339      28.68618072      15.83418740      -0.12656256       0.15019480      -0.10827623
O       -2.82292411       3.98212206       1.71148041      -0.23974018      -0.72897169       0.71530825
H       -2.35783218       3.41486266       2.37782628      -0.53009015       0.19823150      -0.47426309
H       -2.61826009       4.91869009       1.82632845       0.28847889       0.36381683       0.05781206
O        7.83798891     -14.01461481      10.93177168       0.15380829      -0.45414159      -1.17326390
H        6.95494725     -14.44052280      10.88127294       0.83531477       0.36793855      -0.30026185
H        8.11272184     -14.24516849      10.01236302      -0.25462720      -0.00601038       0.30735124
O       -2.49918712      10.56367159      24.32673407      -0.68338482       0.27324263       0.05290762
H       -2.03587675      10.15172469      23.49305443      -0.02620226       0.07306669      -0.39413725
H       -3.20104809      11.10968770      24.28556516      -0.31069597      -0.00369964      -0.25460148
O       20.04387579      21.75395737       1.54400807      -0.33765398       0.72815969      -0.05776845
H       19.87066607      22.16152367       2.34956287      -0.19088691      -0.42936067      -0.51556837
H       19.65916629      20.93517742       1.41221365      -0.29001182       0.15969500       0.24183214
O       12.18750590      10.01202795     -15.89712889       0.80552849       0.41381017       0.22671113
H       12.67833246       9.25598858     -15.64514913       0.12122474      -0.35738894      -0.10072968
H       12.48770049      10.06043940     -16.71863770      -0.25560455       0.12678145       0.34634369
O      -11.38736583      22.27565351       1.04835307      -0.05748875      -0.49559155      -0.55649830
H      -11.76641816      21.41997630       1.08699287       0.21992921       0.71839240       0.07768577
H      -10.89211278      22.57127119       1.80358533       0.00270714      -0.16844929       0.21770171
O        2.92813903     -15.04483365      16.08181446      -0.31597282      -0.36990795      -1.11202146
H        3.28521218     -15.62266022      16.72472461      -0.09687415       0.27950451       0.07513930
H        3.69993318     -14.46196089      15.89853080      -0.01927972      -0.36074163      -0.08292946
O        2.38906782      16.29621562       0.37785405      -0.58326622      -0.69468313       1.06319538
H        1.80496073      16.34024505      -0.43155196      -0.62414983       0.12618713      -0.47045720
H        2.98144592      15.59036091       0.60264172      -0.02137679      -0.08883579      -0.17937643
O       -5.75307145      -7.30917990       5.60949591      -1.47546848      -0.31452655       0.16020175
H       -5.20629468      -7.91351678       6.20407394       0.26471705       0.04584187       0.06640599
H       -5.10892005      -6.90008361       5.08831328      -0.27573723      -0.45194977       0.25492888
O       -2.15457090       2.42421421       6.65949803      -0.21008868       1.10350628      -0.51068490
H       -2.17207919       3.31405713       6.76327386      -0.00347158      -0.03911699      -0.08940928
H       -1.80644254       1.86800497       7.42092197       0.37776625      -0.20489566       0.61818819
O       13.19160276      -5.52405918      -1.46798938       0.36131225      -1.80619028      -0.07091358
H       14.05489978      -5.31607901      -1.96387875       0.28702251      -0.29327795      -0.17009410
H       12.95294865      -6.43201877      -1.59526174       0.25975710       0.45328889       0.14834985
O       11.81532870       4.88385533      22.73317728      -0.23594460      -0.49717888       0.13268507
H       11.20440774       4.20861504      23.01092304      -0.02249177       0.24358360       0.22869044
H       11.92811212       4.73762870      21.78552447       0.12831978       0.00297922      -0.20335609
O        8.13184345      14.48395172      23.85243463      -1.30513557      -0.47864610       1.48253141
H        9.02834807      14.72644632      23.68764120       0.13909827      -0.19225972      -0.38311227
H        8.18395466      13.59182744      23.97348731       0.02389032       0.35083946      -0.34244789
O       -8.04630409       6.97144059      11.41386240       0.85765369      -0.78811023      -0.20694228
H       -7.29139790       6.70699754      10.88715441      -0.05956917       0.07115657       0.09791756
H       -8.37717414       6.56328866      12.24225378       0.15065983       0.22972569       0.34976112
192
Lattice="12.744685492889868 0.0 0.0 -5.289768191032151e-07 12.744685492889868 0.0 -5.289768191032151e-07 -5.289768191032151e-07 12.744685492889868" Properties=species:S:1:pos:R:3:momenta:R:3 step=130 time_fs=13.0 phase=production pbc="T T T"
O       11.67476789       0.74242582     -16.46632595       1.37649505       0.29409625       0.02773114
H       12.15389125       1.01866287     -15.68952300       0.08724775      -0.01693723       0.30238811
H       11.01244027       0.09734333     -16.22047217       0.28519276      -0.01570718       0.53400075
O       26.38245667      24.79268220       4.96386781       0.09858470       0.58086893       1.77582846
H       26.74115236      24.03075578       4.60749971       0.33721333      -0.27013930      -0.19376363
H       25.67046984      25.07749856       4.35230502       0.15192367       0.10801891      -0.12269240
O        4.54573020      -0.32857759       6.58876871       0.02170669      -0.63099585      -1.06827297
H        5.21843798      -1.01930960       6.77776850       0.08409696       0.31192116      -0.18395317
H        4.24588566       0.21818851       7.33312315       0.02225737      -0.01109884       0.08595794
O       -2.86657974      -4.36788942       1.07641452      -0.61115847       1.25584471       0.75392433
H       -2.61960549      -3.84720593       0.28870382      -0.00524564      -0.46082317       0.23614518
H       -3.73775659      -4.00039758       1.31963056       0.29974887       0.08461336      -0.21584583
O        4.31375793      15.88688031      10.70846924       0.72012329       0.85637480      -0.06587992
H        4.33380141      16.87197571      11.01623481       0.06642767       0.10428005      -0.23106576
H        5.00821758      15.82753511      10.03760881       0.15543843      -0.05670746      -0.53391806
O       -1.36764564       6.57702528       5.14844487       0.23958384      -1.12736200       0.27734799
H       -1.76620888       6.25667442       4.26636478      -0.15653161       0.12175208       0.17782972
H       -0.61988075       7.15034020       5.23327038      -0.22699980       0.07192210      -0.19124200
O       22.81937782      12.31490058       5.77319288       0.04665488      -0.64444310      -0.18250903
H       23.14948379      13.18502304       5.94221057      -0.04050003       0.53661263      -0.11315955
H       22.15559111      12.27253206       5.14466206      -0.23379218       0.12385559       0.65545385
O       -1.10002447     -15.74451626       6.78398396      -1.47058260       0.62665560      -0.73884855
H       -0.53606951     -16.11968567       6.05737846      -0.03315686       0.04478498       0.15306260
H       -1.33327855     -14.91439465       6.56051106       0.25165460      -0.48338834       0.06862827
O       15.47933078     -17.93269230       9.69231015      -0.23649179      -0.96008299       0.40432641
H       16.16600186     -18.33053199      10.10580928       0.27946654       0.22271640      -0.02884768
H       15.74824837     -17.01536795       9.54977528       0.31412249       0.06401121       0.03170834
O        3.30283094     -14.63544165     -13.36787424       0.48672961       0.21840807      -0.22044137
H        4.17782387     -14.82475372     -13.11472049       0.36157511       0.15041166      -0.01789824
H        2.68873638     -15.18995032     -12.83570865       0.01043846      -0.17752826      -0.28360219
O       -5.76126547       1.61790764       2.87415447      -0.03419116       0.58064409       1.24619809
H       -6.41787155       1.10587629       2.36843111      -0.17240738      -0.08872732      -0.30118644
H       -5.52390037       2.44929469       2.56468421      -0.31517064       0.08062829      -0.25663354
O       -5.36247208      16.11332926      25.91353770       0.66005313       1.30702644      -0.52413875
H       -5.55304105      15.59387947      25.13890823      -0.09344394       0.16160399      -0.22998266
H       -4.25458341      16.12499717      26.17516603      -0.49124112      -0.22523281       0.15776896
O        7.51747485     -15.67625760      -8.43907792       1.50606485       0.78883223       1.19487105
H        7.99620576     -16.41660381      -8.18909261      -0.11818612       0.03916701       0.07436289
H        6.55812179     -15.45447492      -8.08218053      -0.02862765      -0.14987826      -0.01487315
O       13.66687205       8.54464535      17.98990114      -0.42187955      -0.05851976       0.98800264
H       14.00353386       8.61631182      17.05869722      -0.02593238      -0.03848757      -0.42955203
H       14.26798936       8.11066953      18.60916787       0.05208670       0.13680579       0.53800998
O       -0.17250838       1.23672779      -1.21600673      -0.81143328       0.96450406      -0.06173470
H        0.79236194       1.26848319      -1.19424273       0.28589787      -0.29388852       0.11571288
H       -0.44190966       0.48543273      -0.80441939      -0.21317047      -0.09313877       0.06531518
O      -14.16015327      12.66805274      15.76164884       1.05144706       0.50604908      -0.93024073
H      -13.79147990      12.37226572      14.85769260      -0.04068223      -0.01135404       0.27980182
H      -14.84461862      12.21249662      16.13385215      -0.00697572      -0.33997088      -0.10952450
O      -16.35564121       5.94820737      12.31714860       1.93918702       1.82995029      -0.67348594
H      -16.86383274       5.82747919      11.47590475       0.17418335      -0.26598963       0.05504888
H      -16.16768453       6.88254326      12.27095229      -0.34528614      -0.89555478       0.01004245
O       -9.96584113      32.89224715      -9.59134270      -0.50115368       0.06638193      -0.34872879
H       -9.13545866      32.53870025      -9.35787904       0.25198180       0.04261782      -0.09420992
H      -10.68321963      32.42643725      -9.74162143      -0.12527841      -0.34495993       0.21315607
O       34.78015612      11.48063081      21.35598288       0.30155772       0.08928660      -1.01851334
H       34.66944130      11.76460516      20.51124774       0.15430371      -0.14006796       0.51545917
H       35.29434821      10.81053822      21.69369160       0.46750209      -0.08464624      -0.19626228
O       30.38438958     -12.59869904       2.14912257      -0.71219984       1.96289417      -0.62799899
H       29.51704193     -12.22308090       2.46672503       0.12484014      -0.23038063       0.23343780
H       30.13624724     -12.66591029       1.15064942       0.21645032      -0.06314911      -0.00687248
O       17.57588458       9.25894368      -7.44770913      -0.10499030      -0.67344326      -0.27323608
H       17.36203479       8.45966317      -7.66893271      -0.20620159      -0.21830818       0.08561106
H       17.39113564       9.50147892      -6.51158390       0.10858888      -0.17594663      -0.08515769
O       -5.11611518       2.58626930      32.19715308       1.00579029      -0.02002753       0.61601337
H       -5.91780175       1.98955787      31.92204417       0.07175910      -0.26765311       0.34748961
H       -4.36790093       2.09293742      32.57906741      -0.12361832       0.05027191       0.15799707
O        3.83280200       0.87743556      -0.22321093       1.60198442      -0.07546609      -0.39793512
H        3.36025040       0.04514797      -0.40392630      -0.24906104       0.21584396       0.08122074
H        4.29918391       1.05439743      -1.11025121       0.11181411       0.20752123       0.37324136
O       23.21097540       3.22893546      11.66362895      -0.03759686       0.12726399       0.84881199
H       23.40430657       3.65897466      12.44821201       0.12506260       0.04535619      -0.61547723
H       23.79486701       2.46994190      11.74135180      -0.11515845      -0.16106152      -0.25019719
O       -1.44227021      31.84408638      15.04870984       0.17477387       0.38705677       0.96514230
H       -2.04240396      32.43891435      14.69027610       0.07713327       0.26013291      -0.02153341
H       -0.61007021      31.60286428      14.59024276      -0.25335125      -0.23221506       0.14543562
O        4.82202614      19.38943520       5.21771931       0.34963417       0.16059380      -0.16247744
H        4.11248672      19.06550078       5.67530434      -0.39935634       0.04004370       0.24383242
H        5.58211473      18.75740930       5.17798492      -0.36337374      -0.05080674      -0.10601341
O      -10.19423397      10.51041999       9.49946787      -1.24232844       0.52411609       0.37173460
H      -10.77069167      10.88743122       8.93302676       0.06233752      -0.04848878       0.48914350
H      -10.41191397      10.75315474      10.47258838       0.22190000      -0.11991236       0.10097967
O       17.69898057      17.77002585      26.09999412       0.01124814       0.38078567      -1.60320452
H       18.37202903      17.09621796      26.00085160      -0.10292006      -0.31782685       0.07428970
H       16.89869369      17.22998389      26.13602713       0.14097819       0.11002405       0.16934941
O        6.91944561      18.69420601      10.14149928      -0.31068909       0.01417173       0.12180453
H        7.28652371      19.34939192       9.51660424       0.06532686       0.00557654       0.16499121
H        6.52990674      17.97681727       9.72646650      -0.20875390      -0.14362019       0.25142713
O       -0.66722620     -13.81357001      13.26007564      -1.00567610      -0.74193205       0.00341836
H       -1.42902192     -14.26519029      12.91069849      -0.20267332      -0.05524374       0.10873868
H       -0.17516955     -14.56043515      13.40993721       0.17056965       0.23089047      -0.25203779
O        1.13755702       6.04545921       1.12213767      -0.30650515      -2.06922979       0.49481492
H        1.56128401       5.29402259       1.18717625      -0.13379058       0.26215777      -0.20207057
H        1.04881329       6.58897984       0.25129620       0.27478685       0.03820571       0.29588690
O        3.17694284       1.29145946       8.37692821       0.31159037      -0.74953890      -0.06531283
H        2.23104369       1.18959420       8.30511007       0.92217658       0.28560802       0.03808331
H        3.30289777       1.31016774       9.31851763       0.20940267      -0.28364762       0.32633493
O      -18.81145964      28.83518978     -16.18324174       0.22226698       0.73217981      -0.27511067
H      -18.83541975      29.06994988     -17.04512506       0.28302222      -0.15321840       0.30239023
H      -18.21851579      28.41175469     -15.64085250      -0.33656600       0.41587033      -0.57380848
O        2.91099966      26.84168391      -9.09217546      -0.34917269      -0.88144165      -1.22495642
H        3.40217606      27.03255084      -8.36077002       0.80626092       0.38841288       1.29996916
H        2.06900529      26.40823903      -8.89772228      -0.45424483       0.21805348       0.04319497
O      -18.11355505      18.97923346       1.93959072      -0.91566871      -0.75697808       0.62073804
H      -17.58209521      18.82752211       1.27880027      -0.39115955      -0.13872592      -0.02498073
H      -18.91920122      18.61492171       1.84082599       0.01760900       0.22877111       0.11208391
O       11.70626453      17.56788978       7.04661265      -0.10281314      -0.37987921      -0.04370982
H       12.53985105      17.38957710       6.59358768       0.08427324       0.30598388      -0.37929840
H       11.19498540      18.22749479       6.59743705       0.12396532       0.01753314      -0.20178095
O       -7.20760760     -11.23435595       5.17641295       0.51313534       0.05342874      -0.40935812
H       -6.68317551     -11.33248603       4.32207621      -0.41316376      -0.37984617      -0.07778304
H       -7.40082344     -12.01718590       5.63422822       0.06994552      -0.20857235      -0.13199550
O      -24.15075989       3.36752512      10.71138517      -0.28678101      -0.60546619       0.16474047
H      -24.86078420       3.92586509      10.44636883      -0.22179080      -0.20492041      -0.01500964
H      -23.44013287       3.68383998      10.27701049      -0.30137580      -0.30558814       0.01377708
O      -11.43735469      -8.24794940      18.46505120      -0.33960039      -0.70903601       0.06700940
H      -10.72719043      -8.73701346      18.90647667      -0.19562516      -0.18000950      -0.40534073
H      -11.42128446      -8.03935539      17.51552416       0.03614658       0.11859488       0.50210393
O        8.54882001       7.36123073      16.87756499      -2.04665340       0.65863923      -0.88352507
H        9.49178804       7.32706183      16.86146665       0.30674371      -0.10285602       0.10694016
H        8.08299795       6.89825765      16.13401605       0.02785365       0.28656133      -0.13442560
O      -11.61355868      -0.48094907      20.43289173       0.15580943      -0.09431562      -0.24016097
H      -12.48973086      -0.16124303      20.75824576       0.09407469       0.26891465       0.26533062
H      -11.81557719      -0.59230043      19.54409423       0.16175182      -0.07812180       0.39003085
O       24.14022254       2.50442129      16.18080595      -0.57006355       1.19159024      -0.53234295
H       24.01044740       2.32250889      17.14193967       0.14782104      -0.23260604      -0.25137474
H       24.14210260       1.69060727      15.79880396       0.24073599      -0.43056487       0.03332594
O       -5.68116993     -17.93105253      -5.05341140       0.46256810      -0.32287716      -1.22462916
H       -4.69635567     -17.89283084      -5.21460971      -0.09869561       0.35568504      -0.36061718
H       -5.85147130     -18.69664713      -5.61897391      -0.55739989       0.36537328       0.20432993
O       29.40894714      -8.94346263      -6.16800354      -2.12497150       0.90209191      -0.19846614
H       30.22497605      -9.07028196      -6.58428756       0.44162062      -0.35035641       0.15396285
H       29.03067888      -9.80856518      -5.83885550       0.16322610       0.32599081       0.05091925
O        8.82177341      -0.65264663       3.45523095       0.70941082       0.66012207       1.13241254
H        8.40945145      -0.02971920       2.81404893      -0.09827429      -0.02901242      -0.03660312
H        8.41950014      -1.53539987       3.48891013      -0.16221184      -0.30530222      -0.31099055
O      -19.77193251      -3.13809650      24.77303680       0.06693087       0.01535860       0.30949460
H      -19.90927031      -3.93488971      24.36840791       0.22682223       0.25853888       0.19826793
H      -19.23475078      -3.42254538      25.46967684      -0.21579131       0.37081445      -0.23131184
O        2.43259034      -5.75092920      -6.04024067       1.05176213       0.78136674       0.23587443
H        2.48956215      -5.72071758      -4.95682849      -0.04555425      -0.10543985      -0.10497144
H        2.07054412      -6.68661083      -6.16467884       0.29023620       0.11585930       0.03321622
O        9.90238231       8.23623241       7.96183213       1.23266119      -0.91646488       0.21590823
H       10.28244416       8.63796480       7.17747197      -0.23126493       0.20974299      -0.03641955
H       10.17212487       7.33930660       8.15302610      -0.05864815      -0.27705365      -0.36168949
O        5.38172194       9.74043030      -4.86338655       0.49840554       0.00537675      -1.22142299
H        6.09410287       9.18405925      -4.78774339       0.24250347      -0.18517379      -0.02135824
H        4.80816314       9.66030482      -4.05112066      -0.20138464       0.00141612       0.10905190
O       13.73079843      29.41145298      15.89601184      -0.75396293      -1.30732515       0.60418139
H       12.80965532      29.03339880      15.95204329      -0.04320480       0.21326303      -0.20729923
H       14.35114091      28.69995269      15.82284766      -0.13852120       0.14439908      -0.10763639
O       -2.82428036       3.97753067       1.71565444      -0.28510371      -0.60807413       0.62794927
H       -2.41000200       3.43621927       2.33047231      -0.50472525       0.19361661      -0.43831556
H       -2.58931625       4.94727721       1.83221924       0.29359736       0.19656908       0.06081513
O        7.83871945     -14.01657150      10.92370794       0.30272709      -0.40166281      -1.19836031
H        7.03063110     -14.40525301      10.85444022       0.64839526       0.30011355      -0.24490880
H        8.08985813     -14.24186603      10.04070206      -0.19741955       0.04437746       0.24781312
O       -2.50172826      10.56378867      24.32525651      -0.22305182      -0.00907087      -0.07665748
H       -2.04679166      10.16633443      23.46607881      -0.19826481       0.23747633      -0.12806471
H       -3.24423618      11.11559737      24.25431342      -0.55030289       0.11489770      -0.35278723
O       20.04129388      21.75747300       1.54257720      -0.11819010       0.79689485      -0.41656824
H       19.84648854      22.12704101       2.31537589      -0.28871869      -0.22324148      -0.13796554
H       19.62332295      20.93374747       1.43489316      -0.41583758      -0.15733050       0.21763733
O       12.19102125      10.01396799     -15.89312964       0.59330730       0.37105486       0.79462358
H       12.69116043       9.21648836     -15.64956487       0.13528102      -0.40694204      -0.01964147
H       12.46907511      10.07600283     -16.71383248      -0.11116467       0.20728816      -0.27912531
O      -11.38674153      22.27228219       1.04455251       0.08061489      -0.11601006      -0.64988136
H      -11.74829404      21.47617517       1.09692695       0.10589480       0.39521163       0.12737916
H      -10.89013025      22.55125011       1.82760784       0.02014112      -0.21317015       0.26621947
O        2.92597255     -15.04566668      16.07353292      -0.34690252      -0.20230564      -1.27462385
H        3.27874170     -15.60332502      16.74016131      -0.03373526       0.09972915       0.26231811
H        3.69511295     -14.49628009      15.88807552      -0.05950637      -0.34721491      -0.11840400
O        2.38478940      16.29144433       0.38391752      -0.77513092      -0.54897856       0.90612715
H        1.75380988      16.34701107      -0.46625585      -0.41510211       0.03443334      -0.22877997
H        2.97706298      15.57663328       0.58172622      -0.06147067      -0.17635558      -0.24666137
O       -5.76184225      -7.31151707       5.61112209      -1.50650096      -0.59911017       0.49414033
H       -5.18839854      -7.90604698       6.20694979       0.09227316       0.09651790       0.00263617
H       -5.12582323      -6.93492301       5.10244287      -0.05808327      -0.25479515       0.01916287
O       -2.15551954       2.42897678       6.65634158      -0.13307838       0.49651747      -0.37328643
H       -2.17008696       3.32811647       6.75914637       0.04265271       0.32027882       0.01120594
H       -1.77416808       1.85942953       7.47051420       0.27501381       0.03984847       0.39383246
O       13.19395757      -5.53407362      -1.46843001       0.67723042      -1.51304191      -0.10021531
H       14.07198905      -5.34845157      -1.97593829       0.07814324      -0.37146615      -0.07654637
H       12.97556707      -6.39577207      -1.58439599       0.20216195       0.22965625       0.06826847
O       11.81344968       4.88056800      22.73253241      -0.14470024      -0.47899493       0.07269834
H       11.19701596       4.22904878      23.03505375      -0.11538626       0.17983619       0.28815629
H       11.93970856       4.73928460      21.76368557       0.11724560       0.03541670      -0.19511653
O        8.12316880      14.48156113      23.85994786      -1.32884125       0.00158101       1.41330725
H        9.04611407      14.71192535      23.64763339       0.19860014      -0.09811593      -0.40143883
H        8.18280118      13.59914400      23.94177549      -0.03606167      -0.20058445      -0.27956963
O       -8.04114030       6.96631021      11.41230641       0.65667267      -0.74710642      -0.06935107
H       -7.29526434       6.70939637      10.89901817      -0.01595277      -0.01722921       0.15107284
H       -8.35385370       6.58554172      12.26582586       0.31894909       0.23507207       0.14324816
192
Lattice="12.743964148486057 0.0 0.0 -5.289468792142771e-07 12.743964148486057 0.0 -5.289468792142771e-07 -5.289468792142771e-07 12.743964148486057" Properties=species:S:1:pos:R:3:momenta:R:3 step=140 time_fs=14.0 phase=production pbc="T T T"
O       11.68275744       0.74428192     -16.46533605       1.45079359       0.32637524       0.01637510
H       12.16136169       1.01688563     -15.65791566       0.07175099      -0.02163783       0.30724978
H       11.03736422       0.09421789     -16.16688393       0.23998277      -0.04707742       0.54168371
O       26.38097683      24.79540231       4.97449784      -0.06482987       0.70166354       1.74846920
H       26.77834014      23.99474276       4.58572189       0.42170678      -0.37312631      -0.22043918
H       25.68682326      25.08631061       4.34449155       0.21896434       0.09602392      -0.03079807
O        4.54574319      -0.33239625       6.58190961       0.04540284      -0.59497257      -1.04388507
H        5.22045309      -0.98437339       6.76212630      -0.01698548       0.38279500      -0.12381929
H        4.24902647       0.21221889       7.34022315       0.04841441      -0.11416754       0.06244340
O       -2.87027542      -4.35993941       1.08097395      -0.62610528       1.21611910       0.78068432
H       -2.61678720      -3.89189231       0.30940648       0.07707420      -0.43723903       0.14673871
H       -3.71050674      -3.99209606       1.30106902       0.21665680       0.09444833      -0.15008545
O        4.31815878      15.89214631      10.70745681       0.81900880       1.14252204      -0.09626043
H        4.34101928      16.86560122      10.98758779       0.08651691      -0.20972265      -0.34150933
H        5.01941671      15.82211054       9.99030183       0.05451947      -0.03234329      -0.39716810
O       -1.36678398       6.56914949       5.14941678       0.01656076      -1.31648053       0.14906964
H       -1.77218310       6.27373138       4.29365843       0.02603843       0.22897878       0.37300536
H       -0.63841782       7.15979936       5.21193692      -0.14893282       0.13543837      -0.24009758
O       22.81923758      12.31020494       5.77257516       0.35480013      -0.60763179       0.10000904
H       23.14308101      13.23680849       5.93009330      -0.08180800       0.49175171      -0.13671166
H       22.11880984      12.28413231       5.19671509      -0.50319059       0.12875039       0.41572090
O       -1.10832876     -15.74150900       6.77907316      -1.25680701       0.04651445      -0.72061615
H       -0.54112274     -16.11421656       6.07714717      -0.06136933       0.03831438       0.24845955
H       -1.31753008     -14.93374372       6.56044663       0.06186838       0.09571202      -0.06568237
O       15.47603703     -17.93691998       9.69376301      -0.51563292      -0.74521288       0.26279971
H       16.20889413     -18.31989346      10.11380664       0.59162422      -0.00931651       0.18805603
H       15.77603824     -17.00590648       9.55164219       0.26687180       0.09086315       0.02037144
O        3.30496091     -14.63332825     -13.36846275       0.30933057       0.19294792      -0.20931470
H        4.22009221     -14.81310440     -13.11435814       0.46200746       0.07766368       0.00011644
H        2.69211972     -15.20378200     -12.86509188       0.06893875      -0.12354529      -0.33245226
O       -5.76161319       1.62039134       2.88190430      -0.19852275       0.26220676       1.30882061
H       -6.42943190       1.10342687       2.34104917      -0.05493500       0.05195161      -0.24153130
H       -5.55385068       2.46436996       2.53348291      -0.31045237       0.21440951      -0.37256709
O       -5.35725657      16.12050277      25.90921277       0.93658447       1.31643924      -0.42000790
H       -5.55805297      15.60820895      25.11594067      -0.01159965       0.15940870      -0.19764194
H       -4.31870753      16.10284519      26.18489224      -0.83119268      -0.21065231       0.06711177
O        7.52510693     -15.66940779      -8.43137466       1.12157803       1.14851092       1.15944447
H        7.98743767     -16.42377481      -8.17717655      -0.05463789      -0.20196874       0.15943626
H        6.57030716     -15.47526656      -8.08719793       0.28577494      -0.29283308      -0.09665797
O       13.66380087       8.54375640      17.99443617      -0.31134131      -0.07953241       0.81895373
H       13.99681354       8.60929634      17.03206490      -0.09917930      -0.09621171      -0.08107310
H       14.26839402       8.12666009      18.65397361      -0.03923601       0.20787946       0.38821041
O       -0.17703357       1.24353290      -1.21701593      -0.64624799       1.24064209      -0.27062212
H        0.81800097       1.23981059      -1.18283830       0.20370707      -0.29619368       0.11760982
H       -0.46855600       0.46012281      -0.78861240      -0.31626183      -0.38747068       0.23783576
O      -14.15175611      12.67084284      15.75405311       1.38168357       0.62112285      -1.21292350
H      -13.80078397      12.37288802      14.89484687      -0.15257833       0.02992718       0.47087890
H      -14.85618484      12.17037321      16.12550983      -0.21876446      -0.48972067      -0.05588700
O      -16.34317007       5.95828223      12.31200305       1.81057984       1.47045205      -0.76449196
H      -16.84483636       5.79869448      11.48456061       0.19132718      -0.31804897       0.12775466
H      -16.19597494       6.80962297      12.27359456      -0.23920099      -0.50006411       0.05506839
O       -9.96754954      32.89212162      -9.59280881      -0.25102665       0.46756929      -0.30756314
H       -9.10869486      32.53645583      -9.36597959       0.26063206      -0.04079671      -0.08937251
H      -10.70953551      32.37506221      -9.72383372      -0.38905310      -0.64875997       0.14869194
O       34.77965308      11.48066026      21.34998547       0.20110174       0.08898845      -0.48680798
H       34.68291270      11.75394773      20.53955464       0.15818588      -0.04928265       0.04549226
H       35.34434864      10.79440441      21.67025589       0.57838900      -0.20664409      -0.27183354
O       30.37759184     -12.58569504       2.14440529      -0.91956508       2.03175871      -0.86492540
H       29.53257954     -12.24588143       2.49173111       0.21100097      -0.24475204       0.28358312
H       30.16065780     -12.66970612       1.16062237       0.31367009      -0.02800845       0.20670383
O       17.57458366       9.25619480      -7.44806412      -0.00379247      -0.11215616      -0.01667147
H       17.33544846       8.40679960      -7.66760180      -0.30516761      -0.79826720      -0.04910491
H       17.40363809       9.48306586      -6.52438949       0.16377256      -0.18799470      -0.16678288
O       -5.11021739       2.58570030      32.19905504       0.81168790      -0.11144963       0.59290319
H       -5.89797872       1.96989837      31.95756412       0.32676433      -0.13261315       0.41701528
H       -4.38391916       2.09788714      32.59026364      -0.19740567       0.04630980       0.11615763
O        3.84276201       0.87675123      -0.22636293       1.70182147      -0.12915040      -0.60236590
H        3.33653275       0.06862056      -0.39533821      -0.23593005       0.26118500       0.09219902
H        4.30391741       1.07463599      -1.06194293       0.00382468       0.21281459       0.58851637
O       23.20930330       3.22892170      11.66714149      -0.08114446      -0.09384959       0.48634698
H       23.41732850       3.67722092      12.40653293       0.17789549       0.34745814      -0.20265492
H       23.78368769       2.45057346      11.71361855      -0.09252097      -0.22657915      -0.30427988
O       -1.44056159      31.84397811      15.05412254       0.31703231       0.18622000       1.07753388
H       -2.03713327      32.47098669      14.68064106       0.04352329       0.42050153      -0.14977294
H       -0.64035097      31.58216731      14.60420848      -0.34645602      -0.16164722       0.14607649
O        4.82477327      19.38949903       5.21592928       0.55877061       0.21521240      -0.29087157
H        4.06387182      19.06388086       5.70673785      -0.53988127      -0.02922307       0.37398099
H        5.54102194      18.75516897       5.16708156      -0.45186788       0.00719243      -0.11168375
O      -10.20042603      10.51250968       9.50291263      -0.94901759       0.34098511       0.92577652
H      -10.77881009      10.89293477       8.96691137      -0.25306703       0.18107972       0.20445104
H      -10.38640939      10.73806023      10.46824125       0.28780212      -0.17497289      -0.16586371
O       17.69807120      17.77134129      26.08862328       0.04520131       0.36671150      -1.62100977
H       18.36531905      17.06475268      26.00646916      -0.02670575      -0.29259215       0.07258232
H       16.90787202      17.24183941      26.15207983       0.05398801       0.14617095       0.19104413
O        6.91737846      18.69400314      10.14202643      -0.24747615       0.24192490       0.23552526
H        7.29087072      19.34534974       9.53312145       0.03444908      -0.06399187       0.17835509
H        6.50640245      17.95406374       9.74465752      -0.25503804      -0.28280892       0.14210286
O       -0.67386405     -13.81636911      13.25930074      -1.17984242      -0.44145013      -0.01330210
H       -1.45690782     -14.27063741      12.91617928      -0.35934732      -0.06487258       0.02468137
H       -0.14410928     -14.55174400      13.38904557       0.46560092      -0.06045247      -0.16341953
O        1.13443069       6.03472264       1.12447944      -0.69245104      -1.31855176       0.30208021
H        1.56270812       5.29393157       1.16579200       0.16993493      -0.26435949      -0.23574507
H        1.07786065       6.58164662       0.29106397       0.31924146      -0.17229882       0.50764670
O        3.17943263       1.28679678       8.37604948       0.64575370      -0.73857434      -0.01477818
H        2.30642627       1.21490747       8.30369704       0.54600721       0.22784017      -0.06513197
H        3.32683341       1.28276424       9.35270091       0.27948119      -0.27760624       0.34265854
O      -18.81041831      28.83841679     -16.18313998      -0.25897187       0.86656550      -0.00885766
H      -18.80162439      29.05610899     -17.03656407       0.38405451      -0.08889641      -0.16301852
H      -18.23450911      28.44125215     -15.68929297       0.02084400       0.19946658      -0.40272288
O        2.90849092      26.83460998      -9.09946124      -0.36986542      -0.91072049      -1.20758665
H        3.47923544      27.06728808      -8.23157487       0.70957474       0.32680406       1.23713105
H        2.03093147      26.42991847      -8.89167557      -0.29817981       0.26808754       0.06847562
O      -18.11796364      18.97453476       1.94494182      -0.84792830      -0.43220442       1.14144567
H      -17.59672336      18.80757806       1.25061202       0.05265440      -0.24581104      -0.53611587
H      -18.94149060      18.62630363       1.85123211      -0.48619371       0.03282454       0.10409392
O       11.70505384      17.56432626       7.04604404      -0.06475831      -0.45255317      -0.02787630
H       12.54672752      17.41955774       6.55588420       0.05843018       0.32811199      -0.37492624
H       11.20698331      18.23102869       6.57446272       0.13550850       0.07233494      -0.25675079
O       -7.20354712     -11.23271957       5.17287583       0.66236699       0.25032748      -0.62905208
H       -6.72809324     -11.36970457       4.32414288      -0.50535232      -0.39131681       0.10987397
H       -7.39480435     -12.04492742       5.62153635       0.04638927      -0.35772583      -0.12642038
O      -24.15200735       3.36294657      10.71269277      -0.58049999      -0.81372547       0.45678594
H      -24.88934299       3.91090665      10.44279418      -0.38007756      -0.10767277      -0.04148446
H      -23.44624178       3.66076403      10.26429351       0.15011303      -0.16407080      -0.26511665
O      -11.43899645      -8.25166915      18.46463222      -0.42470557      -0.65434242       0.17490567
H      -10.74635732      -8.75273003      18.86045131      -0.18999031      -0.16664357      -0.49969610
H      -11.41485957      -8.03149672      17.56461979       0.08199543       0.04911254       0.47028548
O        8.53550867       7.36482133      16.87096552      -2.08431933       0.65534877      -0.94101414
H        9.51763666       7.31564758      16.86937956       0.19532546      -0.12062964       0.07441721
H        8.09119165       6.92840154      16.12385975       0.14088809       0.32935222      -0.06937477
O      -11.61225641      -0.48121630      20.43145617       0.05270865       0.00585210       0.17168335
H      -12.47549695      -0.13532389      20.78515387       0.18792747       0.26050004       0.30719049
H      -11.79997753      -0.60349366      19.55866064       0.14011876      -0.15570264      -0.08688092
O       24.13535034       2.51244753      16.17734905      -0.56763309       1.40601266      -0.34850837
H       24.02338096       2.30386905      17.11522604       0.14219476      -0.15078738      -0.25471060
H       24.16506092       1.63171504      15.79033313       0.25774355      -0.70652350      -0.15719496
O       -5.67734090     -17.93203183      -5.06073421       0.67728682      -0.29494187      -1.23333367
H       -4.71028823     -17.85199261      -5.24561511      -0.18392859       0.45898903      -0.28328693
H       -5.91207886     -18.66297662      -5.60091024      -0.70033302       0.27550715       0.13968282
O       29.39362731      -8.93778876      -6.16859428      -2.24736641       0.80407275      -0.15118473
H       30.27014943      -9.10587873      -6.57094233       0.46343488      -0.37686468       0.13897332
H       29.05008937      -9.76944028      -5.83581977       0.25034658       0.42962434       0.01995008
O        8.82548884      -0.64856400       3.46170812       0.64935438       0.63067283       1.03875149
H        8.40080113      -0.04059836       2.81805436      -0.06925152      -0.19171752       0.12120402
H        8.40399497      -1.55779817       3.45740730      -0.13351970      -0.13176505      -0.32870715
O      -19.77074771      -3.13646975      24.77339931      -0.05827958       0.47105176       0.25142603
H      -19.89181810      -3.92831210      24.37357810       0.10819561      -0.13740641      -0.06866557
H      -19.24403943      -3.38685333      25.46080235       0.01757714       0.35219423       0.09809034
O        2.43871241      -5.74645153      -6.03743505       0.99331914       0.58413544       0.56029910
H        2.48484838      -5.72963495      -4.98344060      -0.04537131      -0.07848994      -0.43317905
H        2.10209217      -6.66503566      -6.16073012       0.35015776       0.29864292       0.03334146
O        9.90920856       8.23002263       7.96272022       1.17450524      -0.95736621       0.21972392
H       10.26252409       8.65503902       7.17673770      -0.16570416       0.14886942       0.03045627
H       10.16798478       7.31730399       8.11327611      -0.01581908      -0.16100075      -0.44474084
O        5.38337495       9.74037389      -4.87025380       0.16992078       0.12705691      -1.09472757
H        6.12792514       9.15624048      -4.78806087       0.41650454      -0.34561739       0.00878070
H        4.79457275       9.66072987      -4.04971889      -0.05973944       0.01652187      -0.09577200
O       13.72465892      29.40195739      15.89896827      -0.98720479      -1.22230164       0.65191932
H       12.81278186      29.05438196      15.93038921       0.10350423       0.24222133      -0.21673145
H       14.34029337      28.70716982      15.81098775      -0.05497166       0.02312400      -0.11943652
O       -2.82637394       3.97496183       1.71850205      -0.46126971      -0.12054200       0.30666865
H       -2.45012937       3.44377561       2.30100378      -0.30441981      -0.06432276      -0.13521957
H       -2.56201006       4.95291676       1.83737933       0.26022385      -0.07897198       0.04584159
O        7.84143578     -14.01746791      10.91631312       0.75848712      -0.12330196      -0.97684814
H        7.06754262     -14.38622045      10.83189578       0.07145466       0.05429599      -0.20640737
H        8.07608755     -14.23670816      10.05172595      -0.06348796       0.03825976      -0.04140204
O       -2.50213798      10.56272067      24.32291174      -0.00316185      -0.11099554      -0.24465736
H       -2.07390592      10.19642328      23.46586790      -0.35742722       0.38818980       0.15088699
H       -3.30036280      11.12510357      24.21531139      -0.56136386       0.06248233      -0.41087298
O       20.03998689      21.76077102       1.53852240       0.03668994       0.64050555      -0.86695004
H       19.81153780      22.11742231       2.32561368      -0.40274079       0.04440589       0.33745537
H       19.57903661      20.90766433       1.45420086      -0.44503359      -0.30777053       0.18325624
O       12.19371300      10.01509401     -15.88570399       0.53890623       0.16485828       1.28177578
H       12.70000209       9.18060312     -15.64828415       0.04969611      -0.30218083       0.02558720
H       12.46270726      10.10015802     -16.76766808      -0.02445955       0.29980124      -0.79483008
O      -11.38475656      22.27210968       1.04040102       0.36775501       0.47923544      -0.67177559
H      -11.74845975      21.48688361       1.11158518      -0.12982101      -0.16039698       0.17445946
H      -10.88779570      22.52752854       1.85310242       0.01033476      -0.24698462       0.24817622
O        2.92344263     -15.04585597      16.06449344      -0.42522894      -0.16488790      -1.34882572
H        3.27696659     -15.59945607      16.77192141      -0.01022615      -0.02052231       0.38807777
H        3.69089841     -14.52561702      15.87260993      -0.00921243      -0.26226673      -0.18531471
O        2.37926318      16.28756296       0.38889256      -0.97863732      -0.42138892       0.72002113
H        1.72420731      16.34545221      -0.47540268      -0.18975771      -0.04581690       0.04102611
H        2.96925303      15.55443026       0.55475978      -0.09753410      -0.25625918      -0.30585977
O       -5.77094120      -7.31571192       5.61496764      -1.55335887      -0.89242698       0.85198395
H       -5.18797546      -7.89409859       6.20431306      -0.08847210       0.13731127      -0.04696536
H       -5.11885222      -6.94813991       5.09011746       0.18366234      -0.03194549      -0.25836771
O       -2.15591816       2.43031590       6.65427661      -0.03461728       0.02628512      -0.16749929
H       -2.16336091       3.37099991       6.76398223       0.09386116       0.52182232       0.09016713
H       -1.75330046       1.87598484       7.49558841       0.14931662       0.30127109       0.12626024
O       13.19852214      -5.54163876      -1.46903347       1.05405207      -1.04396014      -0.12180036
H       14.06922903      -5.38634551      -1.97858604      -0.11079373      -0.40454120       0.01731320
H       12.98811956      -6.39365423      -1.58207602       0.06193700      -0.21086069      -0.02138123
O       11.81223011       4.87739235      22.73129906      -0.03519284      -0.47020636      -0.06158617
H       11.18140152       4.24366996      23.06286041      -0.18498000       0.13073538       0.30002720
H       11.94828288       4.74364661      21.74893969       0.06669331       0.05744593      -0.06700718
O        8.11500787      14.48222442      23.86698920      -1.15251769       0.44091541       1.31799377
H        9.05973431      14.70435242      23.60829626       0.06704707      -0.04501490      -0.37038686
H        8.17564406      13.55377271      23.91578755      -0.10499222      -0.66912176      -0.23021721
O       -8.03741660       6.96152839      11.41172729       0.40699156      -0.67496817       0.08130606
H       -7.29174265       6.70240029      10.91428114       0.08658840      -0.11983988       0.17151706
H       -8.31449691       6.60782146      12.26928036       0.47299847       0.22420737      -0.04573693
192
Lattice="12.743251160967267 0.0 0.0 -5.289172861835224e-07 12.743251160967267 0.0 -5.289172861835224e-07 -5.289172861835224e-07 12.743251160967267" Properties=species:S:1:pos:R:3:momenta:R:3 step=150 time_fs=15.0 phase=production pbc="T T T"
O       11.69131020       0.74631128     -16.46398972       1.54635534       0.34037905       0.14267720
H       12.16539208       1.01403384     -15.63119421       0.02224499      -0.03527795       0.21042848
H       11.05878399       0.08909263     -16.11444799       0.21883613      -0.05043892       0.50715575
O       26.37904395      24.79788238       4.98449629      -0.05968288       0.52663691       1.59082823
H       26.81452766      23.96619218       4.56853404       0.33349587      -0.15262569      -0.11349281
H       25.71043073      25.09268007       4.34563631       0.28979881       0.06346682       0.05378646
O        4.54549617      -0.33556047       6.57517665      -0.06464190      -0.42213618      -1.03485886
H        5.21924197      -0.94917865       6.75386462       0.02360697       0.31536085      -0.03368251
H        4.25466617       0.19600955       7.34403894       0.06922640      -0.21442050       0.02564452
O       -2.87376652      -4.35278971       1.08613997      -0.55551202       1.02092146       0.93244569
H       -2.60205105      -3.92899418       0.31150143       0.22775774      -0.32281705      -0.11746741
H       -3.70047415      -3.97950416       1.29186044      -0.02899192       0.16554088      -0.03419810
O        4.32349085      15.89885186      10.70582710       1.00088314       1.28954680      -0.25654778
H        4.34999429      16.83333853      10.94991098       0.10113415      -0.38876654      -0.40472452
H        5.01615008      15.81965166       9.96171794      -0.11611836      -0.00198439      -0.17584455
O       -1.36712087       6.56024480       5.15002625      -0.12358895      -1.44386918       0.18339623
H       -1.76348008       6.29847863       4.33340499       0.12869858       0.27048764       0.40662855
H       -0.64899094       7.17592368       5.18596060      -0.07519720       0.19874649      -0.28606076
O       22.82118173      12.30646812       5.77369262       0.66971146      -0.36690527       0.34570903
H       23.12865289      13.27266626       5.91397394      -0.19380195       0.23978757      -0.18871161
H       22.05706798      12.29654399       5.22735278      -0.70868143       0.14193461       0.24372976
O       -1.11550396     -15.74202204       6.77454021      -1.12551244      -0.45976019      -0.62212532
H       -0.54567364     -16.11211658       6.10220463      -0.01940931      -0.02060366       0.25525885
H       -1.32057250     -14.89475791       6.54731439      -0.11324923       0.65319527      -0.18893361
O       15.47187870     -17.93993220       9.69474833      -0.49922685      -0.57696093       0.26334615
H       16.27061805     -18.32540343      10.13624587       0.63930888      -0.09622487       0.25348402
H       15.79726218     -16.99903642       9.55323556       0.18137224       0.01580378       0.02619811
O        3.30676414     -14.63147198     -13.36886323       0.37616880       0.14698688      -0.16364009
H        4.25878032     -14.80695020     -13.11509781       0.30281317       0.03498657      -0.03821817
H        2.70243716     -15.21269749     -12.89824935       0.14305021      -0.08296897      -0.35527177
O       -5.76309383       1.62117935       2.88966173      -0.38470856       0.05462232       1.25304665
H       -6.42641938       1.11668609       2.32289020       0.10853580       0.21866180      -0.12525217
H       -5.58479651       2.48608560       2.49416480      -0.33607381       0.20544828      -0.41535837
O       -5.35047511      16.12759138      25.90533281       1.13782180       1.28446699      -0.38593462
H       -5.55404853      15.62443612      25.09971419       0.08778113       0.19461181      -0.10107135
H       -4.41521619      16.08199582      26.18453228      -1.11880363      -0.20039832      -0.03871155
O        7.53060935     -15.66061510      -8.42386450       0.84665703       1.39729934       1.13465908
H        7.98290257     -16.45118155      -8.15810533      -0.04408270      -0.35307193       0.21326426
H        6.61153384     -15.50914611      -8.09947367       0.54485849      -0.41348858      -0.15627316
O       13.66156900       8.54267542      17.99797067      -0.17038159      -0.11689687       0.66700745
H       13.98264677       8.59675536      17.04159126      -0.17260738      -0.14980712       0.29105750
H       14.25779080       8.15066244      18.68137940      -0.16105028       0.29256426       0.19379818
O       -0.18040963       1.25118473      -1.21884060      -0.46772037       1.21664027      -0.31351081
H        0.82697125       1.21020079      -1.17103937      -0.03292720      -0.31070289       0.12369811
H       -0.49863575       0.42044726      -0.76364901      -0.27562249      -0.36803699       0.24228323
O      -14.14231053      12.67404417      15.74576292       1.36846717       0.63642640      -1.12158337
H      -13.81533073      12.37376006      14.93839437      -0.13403576      -0.01791500       0.37867658
H      -14.87837308      12.12127952      16.11801386      -0.21258434      -0.47017115      -0.09674061
O      -16.33161375       5.96482023      12.30651248       1.66165504       0.73753328      -0.78646149
H      -16.82557954       5.76488010      11.49780148       0.17780402      -0.37002047       0.14529854
H      -16.21099249       6.79684475      12.27973262      -0.08663371       0.27777351       0.08305913
O       -9.96812636      32.89370910      -9.59407267      -0.16151916       0.58611186      -0.28324926
H       -9.08853698      32.52925910      -9.37533294       0.12161389      -0.05803084      -0.11728685
H      -10.74770909      32.30344931      -9.70998799      -0.34233983      -0.73338282       0.13202253
O       34.77899505      11.48002020      21.34788744       0.23848146      -0.11029831       0.18273137
H       34.69628038      11.75456283      20.51548982       0.15874137       0.06906444      -0.49566072
H       35.39847931      10.77469378      21.63597054       0.54866963      -0.15692194      -0.41666282
O       30.37003056     -12.57243375       2.13842203      -0.95758289       2.05362806      -1.01853129
H       29.55073988     -12.26785300       2.52238758       0.17359483      -0.21224288       0.35330879
H       30.19248867     -12.66997326       1.18744054       0.36396794       0.00580125       0.31335503
O       17.57365459       9.25545192      -7.44763429      -0.00063794      -0.06117485      -0.02396536
H       17.30495629       8.32015234      -7.67278388      -0.27411294      -0.86789168      -0.03921192
H       17.42013699       9.46421491      -6.53938563       0.19062436      -0.18631845      -0.13035724
O       -5.10563933       2.58474237      32.20075816       0.58853505      -0.13704522       0.54608874
H       -5.85523521       1.96281047      31.99897111       0.52367191      -0.02040766       0.46250399
H       -4.40282987       2.10015970      32.59958996      -0.17693650      -0.00476735       0.12199089
O        3.85301187       0.87572765      -0.23000426       1.67898247      -0.19500914      -0.53057504
H        3.31315467       0.09477148      -0.38630334      -0.24386890       0.26943208       0.09097016
H        4.30419945       1.09752753      -1.00423271       0.03867991       0.27175724       0.53908734
O       23.20741933       3.22733416      11.66829887      -0.09915704      -0.35494064       0.12786015
H       23.43675002       3.72577376      12.40658569       0.24390919       0.62917466       0.18657651
H       23.77292974       2.42735418      11.68125044      -0.10799278      -0.23231414      -0.34010414
O       -1.43876665      31.84313029      15.06027520       0.19394431       0.15075606       1.20229241
H       -2.03037395      32.51344036      14.66171572       0.11114364       0.46485565      -0.20798936
H       -0.67217115      31.56622704      14.61418049      -0.27806898      -0.13862118       0.05943925
O        4.82735001      19.38989534       5.21400287       0.30213075       0.27126710      -0.21300960
H        4.01754500      19.06201724       5.74057667      -0.36514729       0.02954415       0.29929769
H        5.49837929      18.75216939       5.15546634      -0.39172777      -0.07067529      -0.12264285
O      -10.20473054      10.51339303       9.50943765      -0.65168743       0.14172853       1.31183212
H      -10.81801981      10.92094146       8.97276533      -0.54324172       0.39283835      -0.05237292
H      -10.35555096      10.71892693      10.44324300       0.32510994      -0.19524092      -0.29742071
O       17.69780200      17.77240665      26.07714275       0.20346335       0.29387340      -1.64345463
H       18.36245036      17.03997448      26.01222660      -0.02025171      -0.18541929       0.07553488
H       16.90567919      17.25562436      26.17042253      -0.08255159       0.15517522       0.21588654
O        6.91542624      18.69473243      10.14322600      -0.28090648       0.30774699       0.33906834
H        7.29309821      19.33564314       9.54870814       0.02411481      -0.10654775       0.14354296
H        6.48203892      17.92403902       9.75515356      -0.22397598      -0.29131664       0.09514440
O       -0.68165183     -13.81789427      13.25839702      -1.35994606      -0.36212392      -0.04170029
H       -1.49592779     -14.27403574      12.91537240      -0.41932343      -0.00951579      -0.01721046
H       -0.08707207     -14.56537314      13.37565511       0.67225147      -0.19242226      -0.10487724
O        1.12909684       6.02813043       1.12608282      -0.99611069      -0.79514050       0.29127798
H        1.59231971       5.24545080       1.14088014       0.41523200      -0.68246424      -0.27544433
H        1.11015343       6.55835434       0.34465068       0.34099950      -0.26519781       0.54331583
O        3.18521657       1.28227246       8.37629212       1.31850937      -0.71376148       0.26877645
H        2.32716812       1.23310887       8.29041575      -0.13365925       0.14748109      -0.19871018
H        3.35584234       1.25609728       9.37766675       0.31325734      -0.26694867       0.15963901
O      -18.81271461      28.84274069     -16.18181480      -0.82791142       1.07442562       0.11710366
H      -18.75926155      29.04962990     -17.07412253       0.46094406      -0.01808434      -0.59450485
H      -18.20881403      28.44494127     -15.71358176       0.48193956      -0.08873843      -0.11596001
O        2.90623768      26.82753811      -9.10550006      -0.31451848      -0.90513504      -0.91604897
H        3.53716320      27.09161692      -8.12538062       0.48671604       0.20224068       0.92633927
H        2.01217999      26.45779389      -8.88430923      -0.08219730       0.33386409       0.06890585
O      -18.12195936      18.97148887       1.95286913      -0.79167915      -0.25372716       1.40699067
H      -17.57817692      18.77890413       1.18260475       0.23947063      -0.30841932      -0.78483944
H      -19.00306059      18.62259807       1.86071131      -0.72376203      -0.06191767       0.08842116
O       11.70423155      17.56044572       7.04527185       0.01248656      -0.48168275      -0.11191510
H       12.54797125      17.45105274       6.52185424      -0.02369173       0.33406985      -0.30684703
H       11.22029358      18.23835319       6.54810551       0.15103027       0.09110719      -0.26721132
O       -7.19891271     -11.23032338       5.16851285       0.69097763       0.29901144      -0.65243146
H       -6.77756916     -11.40676578       4.33750350      -0.49623130      -0.38113862       0.12953456
H       -7.39061498     -12.08124523       5.60782859       0.03262023      -0.37508863      -0.15458758
O      -24.15517474       3.35741594      10.71561119      -0.87292769      -0.89599812       0.66113980
H      -24.92793388       3.90184729      10.43822196      -0.41097912      -0.08877014      -0.03508289
H      -23.41258022       3.64998650      10.22625660       0.46396419      -0.06755431      -0.47830727
O      -11.44149019      -8.25503201      18.46548277      -0.60871359      -0.58839225       0.45609582
H      -10.75895143      -8.77163743      18.81079895      -0.06283464      -0.24712807      -0.47934759
H      -11.40458993      -8.02569128      17.59564447       0.11104524       0.07521809       0.15068444
O        8.52269430       7.36857357      16.86433103      -1.91094881       0.71217834      -0.89244734
H        9.52399610       7.30313449      16.87399019      -0.06581117      -0.12593137       0.03965741
H        8.10735751       6.95930540      16.11518091       0.18743988       0.30033872      -0.11047601
O      -11.61163840      -0.48080085      20.43262352      -0.06646328       0.11606533       0.54765858
H      -12.45140443      -0.11080233      20.81479994       0.29236625       0.24047973       0.31680461
H      -11.78695819      -0.62226987      19.52720526       0.11594433      -0.22266268      -0.49398364
O       24.13060456       2.52060821      16.17409791      -0.53340290       1.25431060      -0.45138832
H       24.03493029       2.29214021      17.09392098       0.12036396      -0.09109014      -0.14966141
H       24.18911918       1.56685307      15.77262418       0.26055943      -0.57154984      -0.16509109
O       -5.67231722     -17.93242649      -5.06783200       0.83935165      -0.15637266      -1.16789634
H       -4.73002109     -17.80224242      -5.26990796      -0.21993405       0.53399240      -0.22720297
H       -5.98753699     -18.64337885      -5.59298884      -0.84643367       0.11046417       0.01887252
O       29.37886268      -8.93221662      -6.16963589      -1.97948772       0.87856926      -0.32905518
H       30.30337685      -9.14000479      -6.55291137       0.22932135      -0.32205077       0.23124165
H       29.07191168      -9.73210190      -5.83041851       0.20893062       0.28388020       0.10557656
O        8.82868777      -0.64510140       3.46763762       0.55638568       0.46547212       0.96643902
H        8.39438979      -0.06516712       2.83584529      -0.05973017      -0.29412308       0.23148398
H        8.39407263      -1.55856542       3.42523363      -0.05608434       0.11512892      -0.32249418
O      -19.77045850      -3.13213575      24.77325068      -0.20154900       0.84223840       0.15102960
H      -19.88524828      -3.95866312      24.35357901       0.00957807      -0.45576810      -0.29767138
H      -19.22899500      -3.35327858      25.48616446       0.25761452       0.34098804       0.43724081
O        2.44461451      -5.74284086      -6.03282333       0.98368824       0.51831935       0.81022046
H        2.48107604      -5.73410386      -5.03658786      -0.02581267      -0.01386223      -0.63109591
H        2.13607543      -6.63367024      -6.15943989       0.33473489       0.29798584      -0.02481147
O        9.91567833       8.22355906       7.96363478       1.11123525      -0.99434415       0.22418561
H       10.24907025       8.66602694       7.18223642      -0.09771052       0.08877728       0.08599512
H       10.16784778       7.30697983       8.06581427       0.02536714      -0.04869898      -0.51645223
O        5.38372643       9.74048800      -4.87622165       0.08633455       0.05790874      -0.93915809
H        6.16561482       9.12215759      -4.78613009       0.32392939      -0.31384959       0.02072298
H        4.79680263       9.66211678      -4.06966524       0.10824625       0.02174842      -0.31214971
O       13.71738038      29.39330562      15.90221868      -1.10068813      -1.05446863       0.69535099
H       12.82347340      29.07521680      15.90831082       0.10223712       0.20713605      -0.21717174
H       14.33960815      28.70043424      15.79758724       0.05276783      -0.12272969      -0.13708845
O       -2.82966394       3.97574282       1.71911896      -0.65629265       0.43558569      -0.06685347
H       -2.46798008       3.42074404       2.30604021      -0.07068735      -0.39881359       0.23432100
H       -2.53857647       4.93191198       1.84090246       0.21852655      -0.33844546       0.02945265
O        7.84716728     -14.01646523      10.91059275       1.22256681       0.17447677      -0.70663376
H        7.04265992     -14.39335234      10.81272201      -0.54027663      -0.20092630      -0.17353077
H        8.07711043     -14.23320131      10.03000940       0.08863172       0.02092959      -0.37512684
O       -2.50198701      10.56157866      24.31957050      -0.03071770      -0.04289288      -0.37614978
H       -2.11464350      10.23921593      23.49077360      -0.46420417       0.48541671       0.35746624
H       -3.34672694      11.12243469      24.17316243      -0.37336133      -0.11498398      -0.41874261
O       20.03908427      21.76260675       1.53217974      -0.00374536       0.35263692      -1.10984888
H       19.76768503      22.12905529       2.37297114      -0.45603384       0.18503311       0.56912716
H       19.53923818      20.88026345       1.47132602      -0.32891734      -0.19281780       0.17503729
O       12.19667087      10.01482399     -15.87662430       0.67666063      -0.06548927       1.29275465
H       12.69793175       9.15954362     -15.64421147      -0.08269249      -0.10317538       0.02670870
H       12.45801186      10.13097213     -16.84941481      -0.08113827       0.32221038      -0.79541523
O      -11.38099341      22.27541327       1.03631609       0.63018375       0.95215980      -0.62942147
H      -11.77048811      21.44677916       1.13071948      -0.31053453      -0.58337296       0.21734014
H      -10.88792608      22.50023106       1.87378798      -0.03078075      -0.29045009       0.16970519
O        2.92048281     -15.04633084      16.05552135      -0.47503706      -0.28600869      -1.25252966
H        3.27383046     -15.60141009      16.80866654      -0.06280738      -0.01573094       0.35657132
H        3.69448280     -14.54476996      15.84960339       0.08846252      -0.14780885      -0.26898837
O        2.37255515      16.28432709       0.39270010      -1.15794668      -0.34697535       0.52659037
H        1.71674838      16.33648287      -0.45843637       0.03927643      -0.11874091       0.30404687
H        2.95685546      15.52654727       0.52199190      -0.15984791      -0.28722402      -0.36648483
O       -5.77998895      -7.32138874       5.62062737      -1.46625980      -1.05736628       1.05096517
H       -5.20410696      -7.87930481       6.19805103      -0.23933567       0.14944007      -0.06619408
H       -5.09476792      -6.94369773       5.05577433       0.26249634       0.08964307      -0.40571647
O       -2.15568307       2.42966961       6.65364706       0.07352717      -0.14009103       0.09213275
H       -2.15132934       3.41964000       6.77454537       0.15157164       0.43149026       0.12683144
H       -1.74511975       1.91747688       7.49387324       0.01545372       0.54942211      -0.15472561
O       13.20528199      -5.54646270      -1.46973560       1.36262962      -0.66937099      -0.12938897
H       14.05104829      -5.42545173      -1.97343495      -0.22763242      -0.39872619       0.07568286
H       12.98621736      -6.43421594      -1.58767995      -0.07744950      -0.59264410      -0.08931883
O       11.81164635       4.87416585      22.72923233       0.05481427      -0.49932501      -0.18926594
H       11.16134646       4.25540683      23.08926376      -0.20478036       0.12266729       0.26057943
H       11.95060342       4.74951225      21.74964451      -0.00738250       0.06606933       0.10670975
O        8.10830994      14.48448819      23.87343310      -0.87336307       0.47930281       1.21471309
H        9.05522885      14.70035725      23.57421077      -0.15806967      -0.02787688      -0.29486487
H        8.16098119      13.48192077      23.89324586      -0.18583341      -0.70122611      -0.20949009
O       -8.03515016       6.95734427      11.41174369       0.20010358      -0.55180286       0.09808623
H       -7.27700276       6.68533252      10.93093764       0.20679619      -0.22088446       0.18268377
H       -8.26262647       6.62683689      12.26001028       0.56926018       0.16238964      -0.09712776
192
Lattice="12.74249929703414 0.0 0.0 -5.288860795608118e-07 12.74249929703414 0.0 -5.288860795608118e-07 -5.288860795608118e-07 12.74249929703414" Properties=species:S:1:pos:R:3:momenta:R:3 step=160 time_fs=16.0 phase=production pbc="T T T"
O       11.70033676       0.74825954     -16.46149932       1.61185842       0.29894649       0.36316303
H       12.16433461       1.01029741     -15.61658589      -0.02666237      -0.03681756       0.06743650
H       11.07992202       0.08583905     -16.06793580       0.23307805      -0.00986772       0.41952493
O       26.37745600      24.79882270       4.99350327       0.06783971       0.24727063       1.44883929
H       26.83872674      23.96476425       4.56415002       0.19339636       0.15483894       0.03077233
H       25.73825283      25.09655626       4.35250937       0.29733589       0.05371301       0.07874961
O        4.54426458      -0.33741473       6.56837174      -0.25262849      -0.18815905      -1.06172679
H        5.22806119      -0.92596423       6.75518107       0.17340009       0.15149642       0.06808416
H        4.26113456       0.17166397       7.34522507       0.06303341      -0.27645640       0.01423247
O       -2.87675944      -4.34686842       1.09225962      -0.48061898       0.84159634       1.06467605
H       -2.57261723      -3.95503187       0.28744673       0.36021732      -0.22791534      -0.34989166
H       -3.71534164      -3.95929520       1.29382223      -0.26153960       0.23892716       0.06710418
O        4.32993231      15.90547026      10.70289900       1.17392635       1.11604022      -0.50028199
H        4.35981405      16.79977186      10.91118325       0.10292933      -0.21594881      -0.35691495
H        4.99728792      15.81889684       9.95383236      -0.25487997      -0.00195021       0.01433052
O       -1.36772748       6.55098462       5.15157568      -0.06534925      -1.41936186       0.45321797
H       -1.75168565       6.32261112       4.36389102       0.08847789       0.21891350       0.18641171
H       -0.65498551       7.19595146       5.15602514      -0.06162974       0.20845087      -0.31847560
O       22.82431639      12.30439498       5.77576789       0.73882772      -0.06883030       0.40853632
H       23.10231327      13.28022993       5.89283450      -0.31697521      -0.07085555      -0.23536110
H       21.98659304      12.31050396       5.24950253      -0.66194530       0.15841576       0.24728471
O       -1.12237455     -15.74451913       6.77064624      -1.16512682      -0.56388698      -0.52902064
H       -0.54312911     -16.11660297       6.12364983       0.07420548      -0.08585317       0.18480127
H       -1.33530271     -14.81765482       6.52551660      -0.16213372       0.81408962      -0.23091177
O       15.46863831     -17.94202614       9.69610402      -0.23523154      -0.45154110       0.37229728
H       16.32393412     -18.33262029      10.15765596       0.45168259      -0.06267916       0.18450219
H       15.80867198     -17.00334650       9.55606460       0.06880263      -0.13420680       0.04460003
O        3.30955162     -14.62974974     -13.36899096       0.61580666       0.14397817      -0.14334993
H        4.27504535     -14.80435546     -13.12123104       0.03071881       0.00002678      -0.10562978
H        2.71804769     -15.22013192     -12.93088655       0.16837365      -0.10045987      -0.31897594
O       -5.76557653       1.62126024       2.89680114      -0.52325201       0.03189763       1.12236535
H       -6.40901659       1.14416611       2.31593492       0.22590024       0.33050022      -0.02247088
H       -5.61919371       2.49956801       2.45536505      -0.37541125       0.06023579      -0.36394139
O       -5.34380305      16.13450552      25.90118946       0.83898782       1.28790661      -0.49182502
H       -5.54142107      15.64377522      25.09223712       0.15333646       0.21476704      -0.03534204
H       -4.51719732      16.06117427      26.17994039      -0.87402063      -0.21111055       0.01419823
O        7.53536480     -15.65093952      -8.41652400       0.92164472       1.41204723       1.08560073
H        7.97514675     -16.48499533      -8.13681228      -0.11565347      -0.33294726       0.20240053
H        6.66713079     -15.55193927      -8.11379366       0.54013150      -0.46964466      -0.12672193
O       13.65998684       8.54136746      18.00071178      -0.10620954      -0.13993696       0.59599809
H       13.96291763       8.57942235      17.08376054      -0.20234431      -0.19334857       0.56073858
H       14.23661627       8.18190437      18.69013094      -0.24372744       0.35074233       0.01820969
O       -0.18289280       1.25785228      -1.22045420      -0.35620442       0.95897283      -0.22347969
H        0.81076253       1.17932838      -1.15858293      -0.29250490      -0.31912634       0.13024082
H       -0.51912860       0.39553677      -0.74516974      -0.13939496      -0.12532384       0.12665652
O      -14.13393757      12.67707074      15.73917215       1.06177435       0.58786417      -0.69435252
H      -13.82122250      12.36497654      14.95803044       0.00846092      -0.15575172       0.01798063
H      -14.89043299      12.08217079      16.10280090      -0.04029532      -0.30454040      -0.19823413
O      -16.32071587       5.96695280      12.30106569       1.59320868       0.13727757      -0.74161636
H      -16.80957171       5.72569864      11.50942677       0.12595867      -0.42538325       0.09964701
H      -16.21246810       6.85827666      12.28842484       0.02259885       0.92173015       0.10900613
O       -9.96881824      32.89491795      -9.59522191      -0.27634652       0.40912188      -0.27672434
H       -9.08592401      32.52300383      -9.38796993      -0.07993989      -0.02647440      -0.15208356
H      -10.76620073      32.23635503      -9.69613037      -0.02825486      -0.57963836       0.14212772
O       34.77874728      11.47790404      21.34930212       0.35596696      -0.35021748       0.62209913
H       34.71065760      11.76333408      20.44933105       0.18331030       0.10498383      -0.76990285
H       35.44342611      10.76666804      21.58570199       0.40317272       0.01787950      -0.58754458
O       30.36266010     -12.55903723       2.13210786      -0.84360915       2.07290714      -0.95521206
H       29.56020712     -12.28492018       2.56061742       0.05231096      -0.15267573       0.42987978
H       30.22593145     -12.66784499       1.21394765       0.34769676       0.01828842       0.19352662
O       17.57238057       9.25361346      -7.44788426      -0.08339481      -0.38940400      -0.22020581
H       17.28322388       8.24938015      -7.67142449      -0.14395493      -0.54424962       0.06281074
H       17.43822186       9.44607684      -6.54602217       0.19976237      -0.17158465      -0.00005821
O       -5.10224421       2.58398136      32.20207243       0.44330773      -0.03642037       0.50619248
H       -5.80137754       1.96235398      32.04205615       0.53418774      -0.01045853       0.44835121
H       -4.41425912       2.09586661      32.61202555      -0.04692114      -0.08141375       0.18008787
O        3.86265028       0.87416397      -0.23231903       1.52093158      -0.30288688      -0.20322194
H        3.28844464       0.12062788      -0.37798494      -0.25669473       0.26274527       0.07592055
H        4.31558411       1.12961252      -0.96484410       0.21132241       0.39331149       0.24637290
O       23.20561325       3.22452310      11.66791716      -0.02357350      -0.45790734       0.02970601
H       23.46015951       3.79058180      12.43087933       0.24819472       0.64743375       0.25997834
H       23.75866559       2.40871591      11.64792040      -0.16008890      -0.12886131      -0.31912395
O       -1.43844691      31.84253043      15.06711555      -0.13601443       0.28839613       1.30776380
H       -2.01225204      32.55342601      14.64102806       0.26893965       0.37542796      -0.18730272
H       -0.69054420      31.55015084      14.61198313      -0.09232937      -0.15653460      -0.09084579
O        4.82750389      19.39065413       5.21289069      -0.17128187       0.35023420      -0.04345799
H        3.99602585      19.06896493       5.76169829      -0.06452725       0.13893341       0.13533320
H        5.46732997      18.73620948       5.14223638      -0.23075963      -0.24111508      -0.14369330
O      -10.20759324      10.51317627       9.51689383      -0.52050228       0.01113184       1.21145682
H      -10.87630372      10.96362343       8.96245857      -0.61543764       0.46353550      -0.10323973
H      -10.32372645      10.70113705      10.41820899       0.30767216      -0.14633383      -0.16303506
O       17.69857763      17.77279343      26.06546057       0.38268447       0.16529401      -1.65856225
H       18.35812307      17.02792023      26.01808168      -0.05008659      -0.03846279       0.07524218
H       16.89054924      17.27054764      26.19113054      -0.19716917       0.17750415       0.23971012
O        6.91293142      18.69534009      10.14503059      -0.41334330       0.22857116       0.44479596
H        7.29554876      19.32365074       9.55838922       0.03865095      -0.10998759       0.05939788
H        6.46420445      17.89845587       9.76365756      -0.12453151      -0.19847713       0.09739611
O       -0.69029759     -13.81988345      13.25723363      -1.45347354      -0.59266190      -0.08471196
H       -1.53196146     -14.26943168      12.91351197      -0.28770391       0.08933943       0.00474779
H       -0.02232001     -14.57867969      13.36481949       0.60799290      -0.06139344      -0.11195251
O        1.12254571       6.02305157       1.12854838      -1.06848599      -0.85467134       0.57123534
H        1.63618223       5.17263942       1.11189956       0.43820001      -0.72373954      -0.31740038
H        1.14394747       6.53587615       0.38713722       0.35569043      -0.16161279       0.29025429
O        3.19502988       1.27782661       8.37846783       1.88661276      -0.71616610       0.59553779
H        2.28574022       1.24432110       8.26576301      -0.64557935       0.09003221      -0.27823559
H        3.38544581       1.23078890       9.37986051       0.28329399      -0.24965537      -0.11595466
O      -18.81809766      28.84830550     -16.18035867      -1.23893574       1.28605483      -0.00371019
H      -18.71033296      29.04620876     -17.13791535       0.51401415      -0.03617121      -0.65192536
H      -18.14331562      28.42385187     -15.71420924       0.79752945      -0.28220883       0.04997592
O        2.90418317      26.82037401      -9.10983934      -0.29564250      -0.90985472      -0.68444620
H        3.57636501      27.10434864      -8.04743519       0.32920293       0.09455183       0.67180011
H        2.01406757      26.49142542      -8.87719181       0.11268873       0.38310853       0.07061682
O      -18.12572001      18.96873540       1.96106579      -0.79792926      -0.30859382       1.24790453
H      -17.56045033      18.74847037       1.11258768       0.06749042      -0.28031950      -0.59929517
H      -19.06619533      18.61677275       1.86762338      -0.54351688      -0.01786689       0.05533656
O       11.70385260      17.55651670       7.04369097       0.08640346      -0.45091278      -0.27843560
H       12.54059239      17.48160142       6.49661474      -0.10884341       0.30763573      -0.19893183
H       11.23494125      18.24527774       6.52348123       0.16052323       0.06715005      -0.22125380
O       -7.19448621     -11.22803660       5.16477457       0.60062049       0.21189037      -0.43634655
H       -6.82055707     -11.44262815       4.34173379      -0.38293861      -0.36792104      -0.06465764
H       -7.38744919     -12.11198932       5.59005626       0.02372930      -0.25172636      -0.20345210
O      -24.15949970       3.35197019      10.71911074      -0.95508967      -0.78371778       0.64465087
H      -24.96078793       3.89065225      10.43541813      -0.27001642      -0.14523125      -0.00858943
H      -23.36621084       3.64337722      10.17718218       0.39141666      -0.08381187      -0.47491755
O      -11.44520139      -8.25791727      18.46814577      -0.81381098      -0.50949122       0.75378013
H      -10.75571193      -8.80167219      18.76686570       0.11340386      -0.38019506      -0.39900723
H      -11.39268753      -8.01441303      17.58921076       0.11679247       0.14569191      -0.25102661
O        8.51121166       7.37282370      16.85827627      -1.66520680       0.81899243      -0.74473197
H        9.50341530       7.29060283      16.87530192      -0.33726141      -0.12066369       0.00893193
H        8.12468747       6.98425364      16.09722067       0.16989688       0.21396495      -0.25021498
O      -11.61176752      -0.47986521      20.43519451      -0.19825192       0.16482799       0.62059725
H      -12.41735985      -0.08888072      20.84246047       0.38657075       0.20817807       0.26614486
H      -11.77539161      -0.64434376      19.47253131       0.11084656      -0.21559362      -0.53050057
O       24.12606369       2.52736060      16.16974074      -0.48058892       0.99082038      -0.65972385
H       24.04384038       2.28519975      17.08532598       0.09133106      -0.05086825      -0.00796215
H       24.21260188       1.52427392      15.75855587       0.24895781      -0.29477905      -0.09908091
O       -5.66665757     -17.93199648      -5.07455251       0.86779012      -0.06640137      -1.12950117
H       -4.75200375     -17.74775896      -5.29060929      -0.23528102       0.55261019      -0.21076612
H       -6.07267333     -18.63546184      -5.59430823      -0.88181943       0.05872803      -0.03493281
O       29.36622277      -8.92576543      -6.17210810      -1.56767017       1.05270190      -0.59891969
H       30.30988570      -9.16604839      -6.52515160      -0.05856530      -0.21879723       0.32630046
H       29.08457916      -9.71797211      -5.81165002       0.07904782      -0.01412981       0.27985529
O        8.83142051      -0.64297918       3.47337056       0.51796800       0.20254103       0.98611867
H        8.38621765      -0.09283760       2.85862103      -0.10982081      -0.24204226       0.21439054
H        8.39238558      -1.53710242       3.39532724       0.03026037       0.30275308      -0.28066139
O      -19.77078420      -3.12650946      24.77245766      -0.26317709       0.85894310       0.07750360
H      -19.88588277      -4.00645268      24.31810015      -0.03158675      -0.46227541      -0.35816368
H      -19.19620110      -3.31804784      25.53701706       0.35377920       0.38467419       0.58376467
O        2.45060378      -5.73903204      -6.02727210       1.01860104       0.64037578       0.82703572
H        2.48018928      -5.73100328      -5.09647223       0.01380517       0.07136282      -0.54227709
H        2.16455560      -6.61326516      -6.16634289       0.24315368       0.08505543      -0.12816459
O        9.92167066       8.21694134       7.96457795       1.02729921      -0.99594260       0.23847633
H       10.24259183       8.67217768       7.19139849      -0.02104556       0.05424323       0.10270268
H       10.17199755       7.30494185       8.01255725       0.07362370       0.00181201      -0.56183645
O        5.38422353       9.73975807      -4.88135390       0.20772639      -0.11492312      -0.84954913
H        6.18582017       9.09738458      -4.78408690       0.08797597      -0.17563249       0.01368377
H        4.81320205       9.66357356      -4.10718799       0.21554091       0.01783513      -0.43649990
O       13.71001375      29.38558757      15.90565524      -0.99925892      -0.90707313       0.72737989
H       12.82681253      29.08958070      15.88624072      -0.03318964       0.11589271      -0.21738549
H       14.34648792      28.68254151      15.78283439       0.08608633      -0.19037361      -0.14327191
O       -2.83396084       3.97937203       1.71775770      -0.78092934       0.75011613      -0.30601477
H       -2.46674456       3.37048449       2.34158326       0.06645892      -0.58427017       0.45423227
H       -2.51828659       4.88965716       1.84340639       0.20440678      -0.49177778       0.02871242
O        7.85490441     -14.01416283      10.90588153       1.37494696       0.25702997      -0.67575120
H        6.97391597     -14.41818842      10.79749632      -0.77627766      -0.28861640      -0.11750224
H        8.09013650     -14.22952831       9.98467177       0.17552357       0.04793337      -0.49501918
O       -2.50266616      10.56128484      24.31605944      -0.27254106       0.17252093      -0.24361029
H       -2.15878968      10.28510207      23.52281274      -0.40919371       0.44014577       0.26386841
H       -3.37120158      11.10123100      24.13239143      -0.13438887      -0.30039904      -0.37934536
O       20.03722254      21.76275859       1.52552522      -0.24154839       0.12867227      -0.98050888
H       19.72461997      22.14423812       2.42263310      -0.38627051       0.12998237       0.40371188
H       19.51515236      20.87195203       1.48888455      -0.13469245       0.05671867       0.18893895
O       12.20075016      10.01321992     -15.86856676       0.88317016      -0.25480866       1.01450460
H       12.68235223       9.16128766     -15.64351652      -0.21665393       0.15007106      -0.03840953
H       12.44385064      10.15833416     -16.90962399      -0.19334325       0.23963478      -0.44154229
O      -11.37610485      22.28037554       1.03268057       0.71095960       1.02376676      -0.52303024
H      -11.80089176      21.38512502       1.15269704      -0.29409699      -0.58370523       0.22715734
H      -10.89320795      22.46795998       1.88486031      -0.09341100      -0.34522026       0.05449351
O        2.91744260     -15.04775361      16.04749101      -0.44231327      -0.46457681      -1.04701516
H        3.26313202     -15.59770191      16.83544769      -0.15327762       0.08278148       0.20022924
H        3.70634968     -14.55399329      15.81899831       0.14439402      -0.07131112      -0.33298475
O        2.36483288      16.28129913       0.39530574      -1.30684796      -0.33597455       0.33060886
H        1.73185176      16.32043967      -0.41662624       0.27279656      -0.19121751       0.54942637
H        2.93644188      15.49882910       0.48323688      -0.26191743      -0.25231466      -0.42789260
O       -5.78797429      -7.32748270       5.62673444      -1.23858094      -1.04395949       1.01507259
H       -5.23193601      -7.86568752       6.19242031      -0.32516442       0.11105531      -0.03210825
H       -5.07425381      -6.93424312       5.01661656       0.12971607       0.08073525      -0.36981437
O       -2.15476847       2.42875072       6.65466543       0.17815187      -0.08610889       0.35691838
H       -2.13353623       3.44878560       6.78697255       0.20995063       0.15491769       0.13353075
H       -1.74997788       1.98195723       7.46489407      -0.11159075       0.76630113      -0.41900058
O       13.21327203      -5.54990666      -1.47036526       1.45253207      -0.62151399      -0.09665196
H       14.02800465      -5.46245329      -1.96642109      -0.20370823      -0.36308679       0.05083775
H       12.97413761      -6.49825826      -1.59782564      -0.13929222      -0.66965911      -0.11279542
O       11.81147539       4.87063169      22.72652644       0.11075593      -0.56158543      -0.23658391
H       11.14165527       4.26832953      23.10982294      -0.18023649       0.15252247       0.18498844
H       11.94539586       4.75553293      21.76596155      -0.08410228       0.06081963       0.24100893
O        8.10334731      14.48585671      23.87913071      -0.59657426       0.22385989       1.09864716
H        9.02737252      14.69587625      23.54927653      -0.39671094      -0.05105896      -0.18513796
H        8.13921684      13.42621619      23.87175667      -0.24596640      -0.40082948      -0.20340469
O       -8.03378947       6.95402748      11.41120044       0.11290515      -0.39437703      -0.08529092
H       -7.25161297       6.65933676      10.94882161       0.29463455      -0.29797438       0.20031178
H       -8.20491605       6.63665225      12.25539828       0.59562823       0.03907376       0.04486571
192
Lattice="12.741657282300348 0.0 0.0 -5.288511311679488e-07 12.741657282300348 0.0 -5.288511311679488e-07 -5.288511311679488e-07 12.741657282300348" Properties=species:S:1:pos:R:3:momenta:R:3 step=170 time_fs=17.0 phase=production pbc="T T T"
O       11.70955584       0.74979199     -16.45741445       1.63655402       0.21042242       0.61078105
H       12.15951539       1.00750050     -15.61575752      -0.04963287      -0.01482423      -0.06471487
H       11.10331425       0.08788580     -16.03185850       0.26278029       0.05323445       0.29553146
O       26.37675879      24.79775274       5.00177688       0.28228217      -0.06239237       1.36209545
H       26.84897447      23.99288279       4.57403824       0.05685731       0.44733655       0.17741358
H       25.76230266      25.10163575       4.35784653       0.21856663       0.09324873       0.02561408
O        4.54191765      -0.33794406       6.56126745      -0.39544268      -0.00995634      -1.11188129
H        5.25200455      -0.91927398       6.76560062       0.31083194      -0.00402457       0.14856920
H        4.26543890       0.14371391       7.34720762       0.02708048      -0.29012461       0.04221855
O       -2.87943315      -4.34159367       1.09873970      -0.46553271       0.81281348       1.03739896
H       -2.53590892      -3.97583176       0.25149436       0.36176916      -0.21903382      -0.33757706
H       -3.74447580      -3.93451863       1.30185176      -0.29890421       0.24962752       0.08119020
O        4.33721446      15.91015666      10.69839692       1.27208055       0.74331185      -0.71635063
H        4.36897862      16.79704274      10.88147114       0.08872729       0.19796176      -0.23329620
H        4.96853822      15.81591435       9.96001387      -0.30942201      -0.04381933       0.10299208
O       -1.36743456       6.54225768       5.15514431       0.14623757      -1.26873464       0.81985437
H       -1.74892123       6.33877385       4.36490003      -0.04080408       0.11840723      -0.16577939
H       -0.66315114       7.21329567       5.12409610      -0.11514299       0.14750747      -0.32511279
O       22.82691250      12.30403253       5.77772497       0.57015856       0.19904593       0.34218443
H       23.06507071      13.25831374       5.86804645      -0.40510636      -0.34149060      -0.26055623
H       21.93201904      12.32538108       5.27843039      -0.41055696       0.15946710       0.36027603
O       -1.12992305     -15.74611094       6.76703634      -1.32316134      -0.26398527      -0.51123599
H       -0.53122435     -16.12548073       6.13696368       0.16481680      -0.11056607       0.10012632
H       -1.34783703     -14.74913982       6.50443590      -0.08731261       0.53571648      -0.18669981
O       15.46718716     -17.94328185       9.69814604       0.09792367      -0.35413308       0.50405823
H       16.35424917     -18.33432194      10.16952870       0.18649957       0.00391322       0.06952294
H       15.80858547     -17.02325226       9.56069807      -0.04680928      -0.28782631       0.06145790
O        3.31401421     -14.62774426     -13.36905737       0.90316383       0.20302936      -0.17425064
H        4.26509576     -14.80519546     -13.13387653      -0.21432906      -0.03807568      -0.16787668
H        2.73264809     -15.23243664     -12.95713253       0.12551877      -0.18005812      -0.23231348
O       -5.76862186       1.62164853       2.90311472      -0.57619936       0.14743981       1.00677876
H       -6.38562342       1.17666609       2.31575575       0.22042697       0.31168910       0.00506998
H       -5.65630120       2.49711243       2.42495021      -0.38644273      -0.10007952      -0.24964599
O       -5.34024405      16.14148679      25.89578727       0.16451956       1.34410588      -0.72614288
H       -5.52579557      15.66315032      25.08714778       0.15010252       0.19718472      -0.04901509
H       -4.57102477      16.03828199      26.19037828      -0.18668192      -0.24194530       0.26268899
O        7.54175028     -15.64171505      -8.40957504       1.36122853       1.23522707       0.99305985
H        7.95875495     -16.51006476      -8.11954108      -0.20595627      -0.19241336       0.13375429
H        6.70423276     -15.59639125      -8.11970287       0.18432047      -0.45453988       0.00589936
O       13.65813641       8.53998221      18.00348422      -0.24392567      -0.11750176       0.73654869
H       13.94500229       8.55862459      17.13773453      -0.12588525      -0.21806965       0.49793591
H       14.21202403       8.21576291      18.68652932      -0.21894052       0.34049331      -0.03571296
O       -0.18496681       1.26269723      -1.22137155      -0.35042921       0.64526243      -0.10166941
H        0.77347356       1.14841544      -1.14565443      -0.43663402      -0.31052398       0.13238582
H       -0.52597002       0.39701270      -0.73945793      -0.00945706       0.15380312      -0.00931058
O      -14.12758235      12.67960135      15.73528046       0.71207643       0.49798623      -0.25791533
H      -13.81162274      12.34193656      14.93993652       0.16168233      -0.29087207      -0.34661003
H      -14.88357728      12.06158814      16.07758365       0.16097711      -0.09901924      -0.29543757
O      -16.30985296       5.96670159      12.29590929       1.60061063       0.00493289      -0.68041162
H      -16.79809691       5.68339484      11.51653350       0.09865704      -0.41637927       0.07765070
H      -16.20775208       6.95818511      12.29810104       0.03419158       1.02339233       0.09735887
O       -9.97043818      32.89444036      -9.59628169      -0.48031010       0.13901285      -0.27715881
H       -9.10188668      32.52012469      -9.40329656      -0.24752520       0.00788822      -0.17163155
H      -10.75029314      32.18899857      -9.68106567       0.34193246      -0.34100427       0.15366828
O       34.77901639      11.47451682      21.35188837       0.47623191      -0.48373206       0.60805890
H       34.72838743      11.76954410      20.37738408       0.22842561       0.02297393      -0.61527767
H       35.47158839      10.77735508      21.52004756       0.22483005       0.21029686      -0.72059923
O       30.35592089     -12.54533709       2.12684610      -0.70427885       2.12617369      -0.68832453
H       29.55848481     -12.29682231       2.60357443      -0.03299060      -0.11485616       0.43737562
H       30.25462534     -12.66534513       1.22033026       0.27414179       0.01520726      -0.06904914
O       17.57038230       9.24932857      -7.44949894      -0.19195790      -0.81153320      -0.46029157
H       17.27540158       8.21600843      -7.65935642       0.00788129      -0.12377733       0.17328012
H       17.45678244       9.42997141      -6.53741681       0.20582194      -0.14629847       0.16313955
O       -5.09919953       2.58420542      32.20304320       0.47125641       0.17411484       0.51365890
H       -5.75721115       1.95602214      32.08048021       0.33931630      -0.13597534       0.37779492
H       -4.41031647       2.08480312      32.63095788       0.11512489      -0.13349135       0.24736676
O        3.87119050       0.87190539      -0.23241759       1.35633524      -0.40632100       0.15213276
H        3.26370319       0.14668435      -0.37241402      -0.24033626       0.27678014       0.03168071
H        4.34407637       1.17338892      -0.95609742       0.36126394       0.49486626      -0.04875393
O       23.20437125       3.22173101      11.66768520       0.11963750      -0.35710969       0.16261042
H       23.47955070       3.84349130      12.44703834       0.17445562       0.42259806       0.06938463
H       23.73886897       2.40354442      11.61901320      -0.20890315       0.02341345      -0.25401919
O       -1.44024332      31.84281570      15.07430891      -0.46124574       0.48890575       1.34398525
H       -1.97689369      32.58005905      14.62480012       0.45283322       0.20890707      -0.12216782
H       -0.69134736      31.53201253      14.59543340       0.05566914      -0.16683342      -0.21704234
O        4.82468237      19.39170633       5.21283673      -0.62665852       0.39579072       0.13625001
H        4.00486476      19.08682184       5.76580710       0.24929164       0.25223470      -0.04250552
H        5.45223053      18.70349050       5.12694749      -0.08520631      -0.39031694      -0.16056056
O      -10.21025812      10.51243431       9.52246393      -0.58279767      -0.01767650       0.78812836
H      -10.92918564      11.00518432       8.95777235      -0.46669421       0.39339502       0.03334506
H      -10.29510663      10.69020230      10.41411340       0.26423676      -0.06110683       0.09877540
O       17.70010919      17.77214225      26.05355572       0.47641346       0.00331816      -1.65470894
H       18.35032805      17.03003670      26.02347841      -0.08170681       0.09844934       0.06998296
H       16.86790138      17.28939223      26.21340192      -0.22808567       0.23985209       0.24943245
O        6.90937193      18.69501017      10.14741883      -0.60070933       0.05784677       0.55035750
H        7.30012925      19.31250873       9.55817163       0.06549370      -0.09192364      -0.05243642
H        6.45834250      17.88505346       9.77371633       0.01720647      -0.04608853       0.12447619
O       -0.69926822     -13.82368031      13.25568855      -1.47387813      -0.94496467      -0.13217035
H       -1.54795044     -14.25497464      12.91565076      -0.03641003       0.18461809       0.05728977
H        0.02563585     -14.57197574      13.35110850       0.36165192       0.18435484      -0.15300911
O        1.11622765       6.01599878       1.13317003      -0.95336853      -1.33809067       0.95654596
H        1.67107875       5.11427127       1.07927059       0.26713746      -0.44734547      -0.34804765
H        1.17980993       6.52892186       0.39711108       0.38391027       0.03040257      -0.08718771
O        3.20699954       1.27325726       8.38234330       1.98598318      -0.74738276       0.81652780
H        2.21915097       1.25121551       8.23949535      -0.61599375       0.05391753      -0.22840574
H        3.40816153       1.20763372       9.35307747       0.18074904      -0.22234698      -0.41086264
O      -18.82472207      28.85462551     -16.18005181      -1.24595568       1.35891149      -0.23631066
H      -18.65839295      29.03668835     -17.18764329       0.51718566      -0.12378184      -0.36170996
H      -18.06299946      28.39369833     -15.70984097       0.75866088      -0.25850752      -0.01880766
O        2.90254946      26.81315971      -9.11271605      -0.13877049      -0.84779750      -0.44600766
H        3.59893027      27.10614288      -7.99566359       0.12433575      -0.02417985       0.36576869
H        2.03038784      26.52772385      -8.86776304       0.19915214       0.38835222       0.12292157
O      -18.12967816      18.96516181       1.96770201      -0.89085266      -0.45207791       0.94879633
H      -17.56424000      18.72318600       1.06920718      -0.16631109      -0.20907078      -0.28410451
H      -19.10215104      18.61831217       1.87160980      -0.21349635       0.07706644       0.03155203
O       11.70378641      17.55280924       7.04089343       0.13960684      -0.37293027      -0.48340518
H       12.52643884      17.50765777       6.48262237      -0.15595524       0.24572583      -0.08030463
H       11.24947743      18.24841202       6.50554399       0.14922221       0.01973898      -0.13293039
O       -7.19065176     -11.22647220       5.16263861       0.50173324       0.04663648      -0.15703995
H       -6.85082223     -11.47649588       4.32242161      -0.25255212      -0.33703179      -0.31811123
H       -7.38500575     -12.12666645       5.56800870       0.01676588      -0.06170711      -0.23705505
O      -24.16351278       3.34756076      10.72190118      -0.85671624      -0.57708150       0.48724696
H      -24.97511752       3.87235108      10.43512520      -0.05458897      -0.22472299       0.01493343
H      -23.34116152       3.63095210      10.13770366       0.07460031      -0.17029573      -0.30808727
O      -11.44984516      -8.26027035      18.47207343      -0.91784369      -0.43802889       0.87738782
H      -10.73831437      -8.84259383      18.72912634       0.20414359      -0.45076246      -0.36413752
H      -11.38073528      -7.99834642      17.55141982       0.11090320       0.15388261      -0.44214420
O        8.50102079       7.37771102      16.85309315      -1.50063841       0.92777257      -0.59013871
H        9.46058320       7.27892911      16.87401643      -0.49828990      -0.10901173      -0.00912961
H        8.13856473       6.99980720      16.06380127       0.12476000       0.11767671      -0.40758242
O      -11.61252930      -0.47888099      20.43712817      -0.28527190       0.13373566       0.42275902
H      -12.37642203      -0.06981769      20.86314166       0.42220747       0.18841926       0.18734539
H      -11.76351065      -0.66188064      19.43174460       0.11695017      -0.13782310      -0.25110096
O       24.12169804       2.53242871      16.16406276      -0.42101021       0.71037027      -0.82702281
H       24.04985822       2.28184216      17.08838915       0.06627297      -0.01372367       0.07862795
H       24.23430222       1.50961826      15.75206687       0.22756747      -0.00305158      -0.00997698
O       -5.66129955     -17.93125055      -5.08120287       0.72765118      -0.09582044      -1.15499074
H       -4.77456958     -17.69370732      -5.31137533      -0.22788678       0.52861960      -0.22719229
H       -6.15361191     -18.62419286      -5.59579360      -0.76449819       0.16985567       0.01040769
O       29.35586845      -8.91837132      -6.17614121      -1.19074693       1.12922141      -0.82969322
H       30.28880307      -9.18101409      -6.48954882      -0.32569782      -0.09984053       0.38910090
H       29.08388251      -9.73155944      -5.77566348      -0.04515102      -0.24673064       0.43768742
O        8.83412247      -0.64250786       3.47946800       0.56515574      -0.04517457       1.07954444
H        8.37023083      -0.10729610       2.87371143      -0.21021329      -0.04041501       0.09157384
H        8.39799144      -1.50464768       3.37099137       0.08745188       0.33032565      -0.21287901
O      -19.77094995      -3.12178726      24.77130068      -0.20007374       0.59163318       0.09410137
H      -19.88645439      -4.03891854      24.28779839      -0.00116221      -0.18853708      -0.21134255
H      -19.16463196      -3.27792042      25.58678656       0.24525436       0.43088770       0.43938185
O        2.45680700      -5.73410870      -6.02260496       1.04941514       0.83407226       0.51659628
H        2.48386306      -5.71954299      -5.13032369       0.06604257       0.15628107      -0.11441907
H        2.18264027      -6.61822455      -6.18376359       0.13414561      -0.18822472      -0.23626044
O        9.92701145       8.21038417       7.96559083       0.92446622      -0.95828894       0.26363987
H       10.24389638       8.67681803       7.19992371       0.06185740       0.05935795       0.07646678
H       10.18116264       7.30375988       7.95621198       0.12878417      -0.02792254      -0.57964120
O        5.38594764       9.73785190      -4.88643772       0.49685282      -0.29380822      -0.94757652
H        6.18151548       9.08730751      -4.78316839      -0.16473486      -0.01944762      -0.00338365
H        4.83313455       9.66394957      -4.14751687       0.16936622       0.00099915      -0.35894400
O       13.70371494      29.37829358      15.90913019      -0.74478532      -0.85372353       0.74449370
H       12.81462088      29.09345860      15.86373431      -0.19215642       0.00306238      -0.22388952
H       14.35053733      28.66350848      15.76842065      -0.00226557      -0.14470171      -0.12738835
O       -2.83868603       3.98344171       1.71566869      -0.80931050       0.59069059      -0.30352919
H       -2.46046558       3.31629670       2.38448908       0.03524551      -0.48135932       0.38745060
H       -2.49607122       4.84223474       1.84726656       0.26067237      -0.44310452       0.05802395
O        7.86235703     -14.01204101      10.90033080       1.19560183       0.11163330      -0.92679893
H        6.90265032     -14.44204236      10.79057553      -0.64657221      -0.20518001      -0.00501082
H        8.10950043     -14.22007260       9.93939798       0.23135581       0.13322909      -0.39887564
O       -2.50530374      10.56252877      24.31404683      -0.65202327       0.46286180       0.13479301
H       -2.18803301      10.31930053      23.52920685      -0.16930853       0.26036672      -0.13442127
H       -3.37416303      11.06450965      24.09829120       0.05491586      -0.42579598      -0.27719809
O       20.03347655      21.76155973       1.52020172      -0.55034726      -0.04348964      -0.71309911
H       19.69166293      22.15000577       2.44760494      -0.25891201       0.01900024       0.10903270
H       19.51096662      20.88882446       1.50780303       0.07292445       0.31097802       0.19778137
O       12.20586161      10.01065894     -15.86227572       1.02568969      -0.33314636       0.68518212
H       12.65619419       9.18531096     -15.64991963      -0.28529921       0.32749314      -0.10880187
H       12.41914234      10.17488604     -16.93179920      -0.29458180       0.10939501      -0.03416039
O      -11.37107617      22.28472976       1.02985874       0.66963093       0.85481383      -0.37519234
H      -11.82274137      21.33822071       1.17369625      -0.16221113      -0.33158478       0.20124559
H      -10.90488844      22.43034255       1.88355675      -0.15741324      -0.39329463      -0.07484335
O        2.91489284     -15.05004886      16.04066012      -0.31086191      -0.59518367      -0.83807745
H        3.24401816     -15.58229929      16.84412811      -0.23049305       0.21361230      -0.00186798
H        3.71862659     -14.55957812      15.78441517       0.09474202      -0.07643381      -0.34642788
O        2.35638290      16.27809169       0.39688548      -1.36124572      -0.36053192       0.23474333
H        1.76725258      16.29739975      -0.35498802       0.41645772      -0.25425639       0.66456367
H        2.90497624      15.47672556       0.43902084      -0.37472210      -0.18064307      -0.47256004
O       -5.79455778      -7.33301606       5.63204357      -1.04379312      -0.89522084       0.80879656
H       -5.26359975      -7.85904291       6.19345971      -0.31384554       0.00171426       0.07549131
H       -5.07112989      -6.92892865       4.98594748      -0.07878109       0.01222264      -0.24137264
O       -2.15342160       2.42868157       6.65677743       0.18420222       0.15356558       0.41198663
H       -2.11082780       3.44847803       6.79896090       0.24613249      -0.14743257       0.11429784
H       -1.76301773       2.06174499       7.41842629      -0.12270435       0.82837043      -0.45609151
O       13.22106788      -5.55398407      -1.47066411       1.34708134      -0.85599593      -0.02594825
H       14.01320503      -5.49498630      -1.96558140      -0.06609101      -0.31046558      -0.04609375
H       12.95981765      -6.55486862      -1.60829687      -0.12876811      -0.47191498      -0.10061230
O       11.81146113       4.86665356      22.72376273       0.13321655      -0.62783452      -0.14709332
H       11.12550643       4.28512156      23.12193334      -0.13429420       0.19877740       0.09404261
H       11.93312965       4.76028209      21.79011702      -0.14793241       0.04045169       0.25848636
O        8.09974417      14.48528715      23.88395722      -0.43393722      -0.10550528       0.99431150
H        8.97999327      14.68848183      23.53482030      -0.53357822      -0.07544637      -0.08813445
H        8.11269670      13.40421520      23.85067945      -0.28574872      -0.02991087      -0.19535307
O       -8.03247083       6.95155307      11.40906997       0.16526428      -0.27535299      -0.36337143
H       -7.22165725       6.62812229      10.96943002       0.29195301      -0.32341191       0.24263875
H       -8.14658299       6.63314040      12.26974450       0.58869717      -0.09837705       0.26250476
192
Lattice="12.740700182390087 0.0 0.0 -5.288114060867473e-07 12.740700182390087 0.0 -5.288114060867473e-07 -5.288114060867473e-07 12.740700182390087" Properties=species:S:1:pos:R:3:momenta:R:3 step=180 time_fs=18.0 phase=production pbc="T T T"
O       11.71870078       0.75069806     -16.45180234       1.62334886       0.10257835       0.79633705
H       12.15432996       1.00810914     -15.62475079      -0.02987715       0.03338659      -0.12803975
H       11.12938196       0.09599838     -16.00824552       0.28639469       0.10990096       0.16627149
O       26.37717484      24.79468543       5.00961715       0.48018286      -0.30013786       1.32576344
H       26.84781606      24.04535766       4.59708190      -0.01934567       0.63347087       0.28875191
H       25.77577180      25.11250115       4.35582976       0.09583768       0.17251859      -0.05930029
O        4.53909000      -0.33777360       6.55385029      -0.38396964       0.03210457      -1.13394791
H        5.28322590      -0.92298535       6.78153502       0.30786733      -0.05071150       0.17892287
H        4.26540872       0.11587393       7.35296382      -0.02135581      -0.27954526       0.08693248
O       -2.88220521      -4.33601035       1.10455007      -0.51481998       0.91176192       0.86826692
H       -2.50596747      -3.99876829       0.22874649       0.23468181      -0.26021081      -0.10796066
H       -3.76631989      -3.91255586       1.30676300      -0.13237171       0.18618706       0.01290277
O        4.34465159      15.91251035      10.69296831       1.23353514       0.44780527      -0.75413871
H        4.37614295      16.83417266      10.86374755       0.06342518       0.55740138      -0.12134481
H        4.94055121      15.80718257       9.96728396      -0.23556363      -0.11507066       0.03448437
O       -1.36573416       6.53452916       5.16069519       0.35989834      -1.09439189       1.07695851
H       -1.75870561       6.34527614       4.33342483      -0.14825413       0.03268148      -0.44023355
H       -0.67804203       7.22263446       5.09269639      -0.19126104       0.05379865      -0.30848412
O       22.82783214      12.30466402       5.77908340       0.26918185       0.25313955       0.23882590
H       23.02358995      13.21965690       5.84256447      -0.38604760      -0.36918273      -0.24427419
H       21.90426794      12.33860237       5.31882517      -0.13063370       0.12192947       0.47155918
O       -1.13838670     -15.74549011       6.76328914      -1.44953765       0.07592015      -0.55655187
H       -0.51262817     -16.13436300       6.14396560       0.20404551      -0.08847754       0.06523193
H       -1.35171087     -14.71338424       6.48842538       0.00513860       0.17192498      -0.13183511
O       15.46760619     -17.94407364       9.70096776       0.40678396      -0.37164824       0.65734395
H       16.35759656     -18.32969455      10.16966961      -0.09107092       0.05787149      -0.04903813
H       15.79840376     -17.05284552       9.56590430      -0.12887138      -0.31172860       0.05397620
O        3.31989046     -14.62513377     -13.36932879       1.05278402       0.29042683      -0.24753904
H        4.23794054     -14.81005581     -13.15085263      -0.29694531      -0.08796802      -0.19216874
H        2.74113137     -15.25349760     -12.97417300       0.05178633      -0.27284871      -0.13993316
O       -5.77165981       1.62297978       2.90890016      -0.54457837       0.33014866       0.95986143
H       -6.36937099       1.20048084       2.31358106       0.08841578       0.16521307      -0.05757568
H       -5.69244185       2.48158585       2.40705362      -0.35963625      -0.20585252      -0.11400990
O       -5.34103382      16.14882700      25.88862118      -0.51008087       1.44454792      -0.95629077
H       -5.51199527      15.67908088      25.07746396       0.12851016       0.15212566      -0.11254605
H       -4.55212530      16.01098832      26.22888288       0.52249792      -0.29402595       0.55155659
O        7.55116489     -15.63367487      -8.40313397       1.87475816       1.00053959       0.90576633
H        7.93535080     -16.51940971      -8.11036801      -0.25378037      -0.02561596       0.04068249
H        6.69794197     -15.63725166      -8.11085606      -0.29726235      -0.40600639       0.15810809
O       13.65464814       8.53883755      18.00753640      -0.58057454      -0.03830472       1.03254113
H       13.93926315       8.53620918      17.16718565       0.03709204      -0.22799190       0.09845049
H       14.19599201       8.24441687      18.68675079      -0.07194202       0.24941879       0.09586057
O       -0.18758883       1.26564908      -1.22157405      -0.54276961       0.35710849      -0.00090830
H        0.73473115       1.11922526      -1.13284337      -0.30654588      -0.28458879       0.12797179
H       -0.52335801       0.42402092      -0.74611419       0.04653292       0.38913131      -0.12191701
O      -14.12295952      12.68118674      15.73324299       0.48071638       0.30850044      -0.08500861
H      -13.79086857      12.31005729      14.89639601       0.22078778      -0.31811313      -0.46684232
H      -14.85759228      12.06102464      16.04355269       0.33998992       0.09995344      -0.37227948
O      -16.29871741       5.96692774      12.29091151       1.63208365       0.24119178      -0.64420180
H      -16.78668811       5.64651391      11.52489941       0.10840375      -0.32452755       0.11116922
H      -16.20565374       7.04208792      12.30459275      -0.02075149       0.67717380       0.05219665
O       -9.97352181      32.89201730      -9.59731515      -0.78716089      -0.11321636      -0.29917472
H       -9.12907497      32.51858581      -9.41926134      -0.29632653       0.00132131      -0.16545909
H      -10.69856359      32.16617717      -9.66476705       0.69306368      -0.07787267       0.16621309
O       34.77959867      11.47056592      21.35326465       0.55305502      -0.50459759       0.34334017
H       34.74985945      11.76510853      20.33262566       0.26182104      -0.09471160      -0.26174355
H       35.48377595      10.80384831      21.44414328       0.09458708       0.33201158      -0.79441399
O       30.34959925     -12.53110461       2.12348104      -0.62360331       2.20487252      -0.36128421
H       29.55272495     -12.30679681       2.64191597      -0.02527640      -0.11373445       0.33730245
H       30.27394588     -12.66282347       1.20170718       0.16530790       0.02021565      -0.29037931
O       17.56752362       9.24238517      -7.45225999      -0.30954691      -1.21472662      -0.59310809
H       17.28220246       8.22413952      -7.63711016       0.15640938       0.29932121       0.26723670
H       17.47631921       9.41577534      -6.51637386       0.22506893      -0.13436690       0.23375116
O       -5.09539918       2.58570702      32.20397185       0.66062484       0.36219554       0.58809712
H       -5.73670161       1.93366852      32.11072921       0.07352373      -0.31897719       0.29313389
H       -4.39416445       2.07208092      32.65362603       0.19036241      -0.10966831       0.25557458
O        3.87904195       0.86923287      -0.23076130       1.32813045      -0.42200152       0.34341800
H        3.24208751       0.17513300      -0.37287519      -0.19570664       0.30808156      -0.04646478
H        4.38002916       1.22248810      -0.96779552       0.34952874       0.49313329      -0.15020545
O       23.20373122       3.21992554      11.66831828       0.22895112      -0.13266092       0.32879347
H       23.49038458       3.87064184      12.44159189       0.08360874       0.13666455      -0.16176316
H       23.71618895       2.41095306      11.59720991      -0.20927882       0.11650450      -0.17481158
O       -1.44352967      31.84390608      15.08126605      -0.60627583       0.62681561       1.27308012
H       -1.92476818      32.58957937      14.61525674       0.60448361       0.04379200      -0.05372345
H       -0.68466238      31.51510640      14.57105084       0.05193149      -0.11986838      -0.23966196
O        4.81951093      19.39252215       5.21373270      -0.89101150       0.32244679       0.26503279
H        4.04216155      19.11461571       5.75375474       0.49819250       0.33814029      -0.17981497
H        5.44594021      18.66214815       5.11099853      -0.05956110      -0.39932480      -0.15407567
O      -10.21340456      10.51155017       9.52521249      -0.69994569      -0.00537063       0.35027124
H      -10.96416346      11.03782146       8.96874836      -0.26236735       0.28980083       0.20845370
H      -10.27068139      10.68774276      10.43514015       0.22328408       0.02508925       0.33552921
O       17.70165454      17.77037925      26.04150810       0.43722016      -0.13132783      -1.62938996
H       18.34082452      17.04259720      26.02790720      -0.07576757       0.17044386       0.06057549
H       16.84663711      17.31587784      26.23533645      -0.16989063       0.33329121       0.23783727
O        6.90462220      18.69342806      10.15033153      -0.76744194      -0.10362098       0.64479480
H        7.30692362      19.30246379       9.54728945       0.08145460      -0.09026814      -0.15002272
H        6.46669288      17.88702064       9.78644898       0.16001189       0.10684068       0.14819691
O       -0.70814864     -13.82945815      13.25378659      -1.41780005      -1.26108744      -0.15523126
H       -1.53975962     -14.23271989      12.92231265       0.18628084       0.23912357       0.09297895
H        0.04682332     -14.54081967      13.33307520       0.07051531       0.42861857      -0.19608157
O        1.11073469       6.00581997       1.13987941      -0.80546861      -1.80541871       1.21477037
H        1.68720983       5.08584369       1.04449055       0.06622106      -0.12799994      -0.36086602
H        1.21858245       6.53884739       0.37340162       0.41001812       0.15794119      -0.36046540
O        3.21820711       1.26848020       8.38679337       1.71149604      -0.77372701       0.78041709
H        2.17693653       1.25446628       8.22245704      -0.22520547       0.01325592      -0.10373707
H        3.42054463       1.18725809       9.30442658       0.08833052      -0.19674562      -0.51970863
O      -18.83012868      28.86064140     -16.18091285      -0.95206877       1.29713581      -0.44304509
H      -18.60851353      29.01803722     -17.20362480       0.47061456      -0.21206075       0.01156242
H      -18.00072475      28.37377179     -15.71881577       0.47575503      -0.09886552      -0.19099267
O        2.90244410      26.80631681      -9.11411300       0.19953546      -0.71816945      -0.24312496
H        3.59887617      27.09572603      -7.97589350      -0.11794184      -0.14643051       0.02969534
H        2.04713435      26.56151831      -8.84981619       0.12091489       0.33786507       0.24017670
O      -18.13415212      18.96048325       1.97237399      -1.01174518      -0.60808590       0.61772534
H      -17.58999399      18.70564097       1.05775189      -0.38862388      -0.12100229       0.05292319
H      -19.10459519      18.62924660       1.87382103       0.13459942       0.17523603       0.01727744
O       11.70384791      17.54950365       7.03679342       0.15973001      -0.27328685      -0.67247647
H       12.51031810      17.52640559       6.47931014      -0.14469395       0.16482440       0.01553615
H       11.26187469      18.24640421       6.49713440       0.12061987      -0.03216433      -0.02980695
O       -7.18715524     -11.22596369       5.16179045       0.47584814      -0.15957690      -0.03524114
H       -6.87079296     -11.50491665       4.28365015      -0.18118164      -0.25138042      -0.43536116
H       -7.38315678     -12.12270473       5.54412653       0.00862706       0.11572492      -0.23741780
O      -24.16648217       3.34436574      10.72356506      -0.69063648      -0.39155633       0.31982356
H      -24.96849896       3.84699453      10.43631605       0.14176056      -0.28253934       0.02126381
H      -23.34936653       3.60959676      10.11687927      -0.27875760      -0.26096121      -0.10163761
O      -11.45447044      -8.26220154      18.47573624      -0.83888058      -0.40198067       0.73014891
H      -10.71983141      -8.88346282      18.69067921       0.13259051      -0.37772049      -0.40541341
H      -11.37011579      -7.98714147      17.51213782       0.08540217       0.04838682      -0.28999979
O        8.49108615       7.38309145      16.84842500      -1.57565507       0.99669249      -0.54486787
H        9.41256002       7.26803281      16.87198770      -0.42947000      -0.10644490      -0.00133669
H        8.14827490       7.00758700      16.01845299       0.09255543       0.06385475      -0.47476564
O      -11.61342721      -0.47828092      20.43733881      -0.27490430       0.04046688       0.13940977
H      -12.33630140      -0.05079496      20.87685702       0.36738148       0.20947448       0.13237894
H      -11.75114047      -0.67040600      19.42320754       0.11731435      -0.03661021       0.10920599
O       24.11750726       2.53565346      16.15750806      -0.35194273       0.39511108      -0.89680547
H       24.05363404       2.28270961      17.09506228       0.04924077       0.03871614       0.06993460
H       24.25316070       1.52371421      15.75468113       0.19471314       0.29631925       0.08798561
O       -5.65718203     -17.93078542      -5.08806017       0.46258416      -0.19546964      -1.20206638
H       -4.79449750     -17.64260847      -5.33481350      -0.18425293       0.49171469      -0.26443836
H       -6.21767340     -18.59730830      -5.59018009      -0.55033480       0.35676506       0.09669066
O       29.34708467      -8.91118706      -6.18106747      -0.99715252       0.95076998      -0.88967415
H       30.24539583      -9.18451138      -6.45009390      -0.48676188       0.00814699       0.39791283
H       29.07419415      -9.75597374      -5.72959407      -0.09575800      -0.22185133       0.47538756
O        8.83719313      -0.64308436       3.48607158       0.64983826      -0.12142136       1.14253186
H        8.34492330      -0.10084658       2.87709401      -0.28416972       0.15945333      -0.00124188
H        8.40614323      -1.47792554       3.35301274       0.08158385       0.19218910      -0.15440046
O      -19.77034829      -3.11886018      24.77021809      -0.08445122       0.28792761       0.16312460
H      -19.88305349      -4.04163746      24.27476164       0.03983200       0.12512554      -0.01770569
H      -19.14762026      -3.23426307      25.61612437       0.07097283       0.45676595       0.19614014
O        2.46303824      -5.72823094      -6.02033349       1.02999634       0.90895511       0.08340106
H        2.49266877      -5.69969853      -5.11512107       0.11694481       0.24127898       0.40131729
H        2.19183702      -6.64483717      -6.21082755       0.06863951      -0.33502223      -0.32206679
O        9.93163383       8.20403461       7.96666571       0.82856431      -0.91145232       0.27583344
H       10.25298038       8.68341340       7.20493726       0.13770909       0.09125024       0.03995832
H       10.19547308       7.29726580       7.89909893       0.17791152      -0.09378960      -0.57761190
O        5.38976217       9.73482946      -4.89262043       0.87862772      -0.44458489      -1.20027244
H        6.15453260       9.09159809      -4.78449591      -0.36350119       0.11305423      -0.03293094
H        4.84063468       9.66230894      -4.17101075      -0.02517300      -0.01845217      -0.11299980
O       13.69888505      29.37078706      15.91252111      -0.51274462      -0.88281610       0.74706338
H       12.79085518      29.08677051      15.84039607      -0.25140369      -0.08842763      -0.22923523
H       14.34176873      28.65223467      15.75636129      -0.15963045      -0.03913715      -0.09382359
O       -2.84350185       3.98551672       1.71399084      -0.83281527       0.15996604      -0.19494493
H       -2.46193372       3.28046794       2.41232970      -0.07442103      -0.24041752       0.17778892
H       -2.46509481       4.80738958       1.85522809       0.37828593      -0.24950331       0.11068944
O        7.86836597     -14.01090707      10.89282298       0.94858118      -0.08768722      -1.25613585
H        6.85077954     -14.45479616      10.79401616      -0.38571372      -0.07390852       0.08148710
H        8.13235488     -14.20145320       9.90828275       0.23502875       0.22395228      -0.21180491
O       -2.51025862      10.56538174      24.31426149      -0.99872728       0.70530118       0.50187674
H       -2.18979015      10.33373179      23.49251200       0.12141064       0.06024943      -0.55423431
H       -3.36271240      11.01874543      24.07622800       0.15936170      -0.48616435      -0.13698106
O       20.02768461      21.75932378       1.51662159      -0.83232532      -0.12461920      -0.41217531
H       19.67202933      22.14579313       2.44403574      -0.11103400      -0.06211202      -0.17188829
H       19.52499751      20.92609563       1.52606534       0.22742667       0.45026132       0.17131922
O       12.21131353      10.00823788     -15.85803580       1.02230133      -0.16338600       0.29686875
H       12.62940835       9.21558405     -15.66038370      -0.22039813       0.25829411      -0.11520436
H       12.38524397      10.17810865     -16.91407193      -0.37877226      -0.02413011       0.36828512
O      -11.36642335      22.28756836       1.02780664       0.55532331       0.60647415      -0.28546318
H      -11.83024668      21.31909379       1.19103358      -0.01133956      -0.02693360       0.15212893
H      -10.92068718      22.38915444       1.87245281      -0.17012417      -0.40967748      -0.12906005
O        2.91330434     -15.05278587      16.03481129      -0.13680825      -0.65067094      -0.69217714
H        3.21880095     -15.55454940      16.83350942      -0.27443602       0.32191846      -0.17639239
H        3.72194990     -14.56856954      15.75051736      -0.02638180      -0.13493119      -0.32127669
O        2.34834042      16.27459078       0.39885306      -1.16118200      -0.37833502       0.46801358
H        1.80107852      16.27061064      -0.30081070       0.22001288      -0.25678372       0.38074452
H        2.86588810      15.45964471       0.39317125      -0.40176335      -0.16091846      -0.45438094
O       -5.80009113      -7.33728089       5.63566072      -0.90499402      -0.67003196       0.50160588
H       -5.29011859      -7.86555387       6.20765001      -0.23482437      -0.14640311       0.22394216
H       -5.08942134      -6.93187246       4.97049250      -0.30424574      -0.08734183      -0.06239608
O       -2.15254424       2.43061484       6.65809301       0.02857306       0.54403732       0.13930755
H       -2.08694411       3.42366017       6.80640320       0.23409208      -0.33288716       0.04167068
H       -1.76680746       2.13403824       7.38778665       0.06846554       0.62561267      -0.11315406
O       13.22778919      -5.55980587      -1.47043028       1.16427072      -1.18259292       0.06535879
H       14.01456838      -5.52218980      -1.97611733       0.11411769      -0.25766696      -0.17269363
H       12.94816850      -6.58649972      -1.61687852      -0.08684506      -0.17997154      -0.07729407
O       11.81138811       4.86227463      22.72184060       0.12971594      -0.67500082       0.09953292
H       11.11391739       4.30632039      23.12503775      -0.08847298       0.24039250       0.00773504
H       11.91568873       4.76230558      21.80800492      -0.18750456       0.00683156       0.11759322
O        8.09637238      14.48241259      23.88811859      -0.51121867      -0.48561435       0.96191961
H        8.93016725      14.68124045      23.52585847      -0.42790929      -0.03550944      -0.07844085
H        8.08233867      13.41809663      23.83081016      -0.32664539       0.32988063      -0.17220847
O       -8.03042902       6.94944949      11.40534324       0.31475926      -0.26053158      -0.53787734
H       -7.19685524       6.59719462      10.99530768       0.19327424      -0.29300285       0.30682564
H       -8.08894355       6.61839078      12.30084836       0.58264907      -0.17992312       0.36030617
192
Lattice="12.739632302247388 0.0 0.0 -5.287670829968299e-07 12.739632302247388 0.0 -5.287670829968299e-07 -5.287670829968299e-07 12.739632302247388" Properties=species:S:1:pos:R:3:momenta:R:3 step=190 time_fs=19.0 phase=production pbc="T T T"
O       11.72759018       0.75096339     -16.44529564       1.59363088       0.01048175       0.84999067
H       12.15329951       1.01468110     -15.63502564       0.03675010       0.10717414      -0.09471578
H       11.15627970       0.10802245     -15.99599947       0.27609988       0.12686691       0.06511742
O       26.37803519      24.79072317       5.01746614       0.47572733      -0.25744426       1.38446839
H       26.84692063      24.10304079       4.62500754       0.08217650       0.53926889       0.26472714
H       25.77761140      25.13127329       4.34693644      -0.00428542       0.25133317      -0.10303992
O        4.53678055      -0.33773037       6.54644290      -0.22811321      -0.03937023      -1.08821282
H        5.30627429      -0.92539380       6.79768710       0.15667894       0.01226061       0.15708720
H        4.26076037       0.08919192       7.36242845      -0.06545753      -0.26883131       0.11501773
O       -2.88532027      -4.32966532       1.10915885      -0.57704634       1.03412917       0.66470972
H       -2.49125191      -4.02563463       0.23196151       0.06011522      -0.29411303       0.17285261
H       -3.76770770      -3.89841126       1.30333993       0.09806084       0.09715904      -0.08217482
O        4.35148392      15.91379225      10.68781300       1.10373584       0.47034309      -0.61060170
H        4.38043660      16.89246689      10.85383558       0.03271532       0.59864704      -0.07820678
H        4.92457726      15.79064698       9.96166704      -0.07842171      -0.19501875      -0.13941225
O       -1.36310257       6.52763783       5.16691425       0.42987936      -0.98720935       1.03331235
H       -1.77326217       6.34624318       4.28774282      -0.12914681       0.00913733      -0.43673865
H       -0.69971120       7.22294021       5.06357693      -0.24859015      -0.03052591      -0.27871582
O       22.82643609      12.30456473       5.77974673      -0.10392846       0.01454406       0.14034604
H       22.99028854      13.19568116       5.82096427      -0.24547176      -0.05882187      -0.18530475
H       21.90137415      12.34560478       5.36819107       0.09906854       0.03819182       0.54357073
O       -1.14738394     -15.74275017       6.75897347      -1.50049410       0.38076576      -0.67553709
H       -0.49370607     -16.13874626       6.15099970       0.17272759      -0.02333634       0.09972890
H       -1.34677803     -14.71364413       6.47780924       0.09301745      -0.20312179      -0.07393177
O       15.46955829     -17.94536951       9.70472721       0.63600167      -0.56646385       0.83424026
H       16.33469984     -18.32128660      10.15900100      -0.34352271       0.07678021      -0.14768407
H       15.78282614     -17.07420539       9.56842358      -0.15527289      -0.12452324       0.00860163
O        3.32589436     -14.62188704     -13.37002241       0.95354217       0.36081778      -0.34463927
H        4.21413577     -14.82073944     -13.16769523      -0.15178295      -0.16052679      -0.17007469
H        2.74285021     -15.28185546     -12.98321931      -0.00463620      -0.32436471      -0.07456585
O       -5.77436304       1.62538723       2.91451228      -0.49929615       0.48372554       0.94877521
H       -6.36825803       1.20808631       2.30348682      -0.07165433      -0.00167797      -0.14040926
H       -5.72509997       2.45809979       2.40172291      -0.31944125      -0.26179209       0.00204743
O       -5.34488372      16.15661126      25.88028400      -0.79788647       1.51573071      -1.01347398
H       -5.49820693      15.69034417      25.06223086       0.15550567       0.10904780      -0.14451882
H       -4.48223554      15.97923981      26.28724636       0.80252047      -0.31609891       0.64067513
O        7.56303593     -15.62689105      -8.39696326       2.12613583       0.78991066       0.89455044
H        7.90949219     -16.51329015      -8.11014510      -0.25561502       0.11410648      -0.04727849
H        6.65204698     -15.67289751      -8.09022638      -0.56954490      -0.35090931       0.22923764
O       13.64877471       8.53820023      18.01321717      -0.94678948       0.06232639       1.28922094
H       13.94996343       8.51265498      17.15375936       0.19847442      -0.24264309      -0.31356067
H       14.19700284       8.26221707      18.70413683       0.11281282       0.13231137       0.28340506
O       -0.19181174       1.26709428      -1.22131048      -0.83111560       0.17741861       0.03815206
H        0.71982812       1.09284985      -1.12053514       0.00922933      -0.25561862       0.12311024
H       -0.51948867       0.46940036      -0.76124657       0.01927695       0.51543883      -0.17472670
O      -14.11898347      12.68126698      15.73103226       0.46731043       0.07432891      -0.24487171
H      -13.76970308      12.28245403      14.85540912       0.18229310      -0.21256376      -0.32530038
H      -14.81858381      12.07640186      16.00446531       0.40527171       0.21260188      -0.38774177
O      -16.28716716       5.96892536      12.28612152       1.68957841       0.58480301      -0.57337143
H      -16.77518376       5.61975347      11.53526810       0.09350166      -0.21418296       0.11399262
H      -16.20952782       7.08557516      12.30609596      -0.08657585       0.21682318      -0.00077004
O       -9.97861399      32.88807753      -9.59847578      -1.12786578      -0.23187951      -0.34216477
H       -9.15143199      32.51378903      -9.43297731      -0.13857173      -0.04667405      -0.12634432
H      -10.61891259      32.16624241      -9.64742543       0.86696150       0.09771383       0.16843608
O       34.78009439      11.46673414      21.35257786       0.54135043      -0.41131573       0.01061468
H       34.77278770      11.75012428      20.32329925       0.25984132      -0.18359129       0.09833758
H       35.48835417      10.83588984      21.36375704       0.08596379       0.31701057      -0.80636244
O       30.34334469     -12.51629500       2.12182074      -0.58855299       2.27247902      -0.15466336
H       29.55049810     -12.31747438       2.66691258       0.03255893      -0.12640110       0.17616457
H       30.28170739     -12.65852424       1.16938606       0.04579581       0.05172659      -0.33455312
O       17.56382152       9.23312309      -7.45523745      -0.40984457      -1.52716760      -0.55365841
H       17.30246935       8.27092369      -7.60723917       0.28314628       0.65194349       0.32335440
H       17.49827162       9.40171188      -6.49568440       0.25619351      -0.13827172       0.15993065
O       -5.09024367       2.58792392      32.20524397       0.86700179       0.39492569       0.71045167
H       -5.73938387       1.89616065      32.13298878      -0.11291764      -0.42134765       0.22282447
H       -4.37564329       2.06548997      32.67346598       0.16978108      -0.01256394       0.19889408
O        3.88724052       0.86683194      -0.22857150       1.47126607      -0.31997704       0.34045750
H        3.22496258       0.20633577      -0.38201677      -0.15300682       0.32881478      -0.14372954
H        4.40604595       1.26570274      -0.97813219       0.17292699       0.38249698      -0.03809847
O       23.20334604       3.21981766      11.66985484       0.26632024       0.20123217       0.48800534
H       23.49216670       3.86915099      12.41387286      -0.00513158      -0.16011410      -0.38196694
H       23.69643628       2.42253843      11.58306766      -0.14491836       0.10847463      -0.09633851
O       -1.44705374      31.84519482      15.08740942      -0.55609500       0.64082732       1.13783258
H       -1.86121816      32.58591359      14.61100507       0.68081392      -0.04449730      -0.01591412
H       -0.68502464      31.50519701      14.54978050      -0.06937851      -0.02677902      -0.16043813
O        4.81373759      19.39246475       5.21487974      -0.78953490       0.19143412       0.21024395
H        4.09270448      19.14664656       5.73581653       0.48624604       0.33306801      -0.13648428
H        5.43641091      18.62743836       5.09674983      -0.13526309      -0.26491356      -0.12828414
O      -10.21732104      10.51080696       9.52549736      -0.86072280       0.06046944       0.03590057
H      -10.97782178      11.05931402       8.99710232      -0.03531380       0.16817795       0.38742902
H      -10.24935327      10.69259946      10.47373412       0.20084402       0.08641193       0.44356871
O       17.70242645      17.76789908      26.02943012       0.28264463      -0.17315183      -1.59410054
H       18.33472324      17.05731996      26.03113853      -0.00774243       0.14488572       0.05088260
H       16.83367285      17.35159516      26.25510863      -0.06319787       0.42694259       0.21137002
O        6.89903163      18.69102543      10.15371924      -0.84693572      -0.14030389       0.73789594
H        7.31399020      19.29053858       9.52900433       0.07179585      -0.12780487      -0.19956023
H        6.48689256      17.90010300       9.79968449       0.25363136       0.17001640       0.13043180
O       -0.71626040     -13.83668728      13.25181759      -1.21798265      -1.43696651      -0.10994288
H       -1.51687866     -14.20910639      12.92968728       0.23956499       0.20182546       0.06538912
H        0.03992747     -14.48767402      13.31097197      -0.19767803       0.62114447      -0.23257537
O        1.10624346       5.99333150       1.14720371      -0.61707360      -2.06104801       1.14355135
H        1.68385193       5.08827789       1.00948816      -0.13175064       0.18512822      -0.35113548
H        1.25793969       6.55167992       0.33713753       0.38888272       0.08047390      -0.32891762
O        3.22726206       1.26362279       8.38985696       1.31255022      -0.76832871       0.39517422
H        2.17618170       1.25342293       8.21822528       0.21447090      -0.03256548       0.03054150
H        3.42729305       1.16818547       9.26184046       0.06825823      -0.19795061      -0.28577148
O      -18.83326916      28.86590854     -16.18297182      -0.57840656       1.20348274      -0.67087434
H      -18.56481810      28.99126350     -17.18234201       0.38988094      -0.28410470       0.39343020
H      -17.96857628      28.37044388     -15.74411712       0.15126202       0.08013509      -0.35210477
O        2.90468111      26.80010257      -9.11435636       0.60539159      -0.57784768      -0.08996322
H        3.57684969      27.07369536      -7.98765541      -0.31677535      -0.25649284      -0.27745303
H        2.05037420      26.58844159      -8.81896721      -0.05432493       0.25980671       0.37489343
O      -18.13917213      18.95470560       1.97495297      -1.10296746      -0.75037326       0.27707419
H      -17.63704923      18.69659873       1.07947669      -0.60450531      -0.03291378       0.39320007
H      -19.07372683      18.64895714       1.87462727       0.44813366       0.25457969       0.00209574
O       11.70378946      17.54663522       7.03165358       0.13264259      -0.18821761      -0.79556894
H       12.49838391      17.53702710       6.48300425      -0.06775311       0.08430693       0.06233414
H       11.27087984      18.23971051       6.49817014       0.08142278      -0.06910622       0.05686557
O       -7.18352896     -11.22661000       5.16085320       0.51659227      -0.34566928      -0.16706358
H       -6.88714471     -11.52136760       4.24351343      -0.17293536      -0.09742767      -0.35451721
H       -7.38268363     -12.10504212       5.52253991      -0.01597332       0.20532692      -0.18585875
O      -24.16796707       3.34204244      10.72421429      -0.43652923      -0.29379753       0.19883883
H      -24.94715773       3.81882005      10.43641547       0.22485417      -0.27431243      -0.00893943
H      -23.39090872       3.57995950      10.11604096      -0.60127491      -0.33767435       0.09521873
O      -11.45806967      -8.26399492      18.47783864      -0.63416692      -0.41440640       0.44884809
H      -10.71409312      -8.91166067      18.64654468      -0.04196767      -0.20789903      -0.46614302
H      -11.36301624      -7.98910400      17.49697314       0.03717382      -0.10358619       0.01752683
O        8.47983991       7.38866851      16.84338403      -1.88165647       1.01399573      -0.66217121
H        9.38195463       7.25639049      16.87198170      -0.16238958      -0.12262256       0.03405758
H        8.15662473       7.01344410      15.97376859       0.09927068       0.07916278      -0.39063802
O      -11.61390244      -0.47839650      20.43557153      -0.18811507      -0.09490214      -0.15065820
H      -12.30503202      -0.02782352      20.88661943       0.24636043       0.26563293       0.10729884
H      -11.73914274      -0.66882441      19.44955208       0.10604320       0.06686721       0.45483017
O       24.11356958       2.53681062      16.15062464      -0.27038182       0.04911337      -0.89667419
H       24.05566479       2.28980128      17.09761683       0.03332121       0.11520621       0.00963514
H       24.26801571       1.56714191      15.76626020       0.15044592       0.59386884       0.17093550
O       -5.65474221     -17.93075688      -5.09509979       0.18690667      -0.27342588      -1.22235683
H       -4.80978794     -17.59544174      -5.36226089      -0.14300127       0.44273912      -0.30783694
H       -6.25932279     -18.55238161      -5.57695989      -0.31889415       0.52347208       0.15530085
O       29.33830355      -8.90551149      -6.18568456      -1.12124692       0.65610662      -0.75582551
H       30.19820806      -9.18016198      -6.41404624      -0.37268608       0.04960826       0.31382361
H       29.06206353      -9.76735676      -5.68524820      -0.10006957      -0.01353051       0.41545974
O        8.84057389      -0.64348772       3.49270622       0.67551702      -0.00188088       1.09217374
H        8.31674495      -0.07984244       2.87715065      -0.26106714       0.25030279       0.03005310
H        8.41106587      -1.46986163       3.33982494       0.03120284      -0.03419593      -0.11201750
O      -19.76883546      -3.11768770      24.76938879       0.03641439       0.01870413       0.24466066
H      -19.87560622      -4.01458861      24.28042563       0.07877104       0.41636120       0.17401724
H      -19.14792789      -3.18913759      25.62046959      -0.10959795       0.45903422      -0.06303992
O        2.46894711      -5.72243035      -6.02021326       0.95611463       0.79878557      -0.15225302
H        2.50552229      -5.67286004      -5.06080873       0.14477831       0.28630148       0.62721936
H        2.19796272      -6.67485523      -6.24293818       0.07248218      -0.25280235      -0.32758003
O        9.93569436       8.19782161       7.96760085       0.77515671      -0.89672527       0.23407548
H       10.26833492       8.69295949       7.20775568       0.18991490       0.11554707       0.03935667
H       10.21338880       7.28563006       7.84287393       0.20165962      -0.12037034      -0.55987535
O        5.39563381       9.73103015      -4.90039435       1.13867146      -0.50299752      -1.45153625
H        6.11456660       9.10469964      -4.78876092      -0.41133110       0.14529309      -0.05983538
H        4.82653326       9.65931746      -4.16869568      -0.24738709      -0.02301376       0.13832026
O       13.69489245      29.36273902      15.91575158      -0.44866556      -0.93296693       0.73908063
H       12.76836277      29.07327127      15.81700894      -0.16685267      -0.12930844      -0.22049450
H       14.31798078      28.65060616      15.74762711      -0.29081516       0.04351707      -0.06089683
O       -2.84847376       3.98470071       1.71304386      -0.86148478      -0.30816926      -0.06384581
H       -2.47505749       3.26944675       2.41792381      -0.20009886       0.01887766      -0.05980735
H       -2.42163918       4.79347787       1.86857892       0.50460109      -0.03649689       0.16413578
O        7.87271516     -14.01088776      10.88315900       0.68238815      -0.28612486      -1.59292625
H        6.82961827     -14.45358098      10.80288052      -0.02694778       0.07503444       0.11210631
H        8.15142110     -14.17488915       9.89840507       0.16119626       0.29297218       0.03072124
O       -2.51662469      10.56914011      24.31572735      -1.08284823       0.76940365       0.57178910
H       -2.16812623      10.33265828      23.42817556       0.28949774      -0.04191225      -0.65002620
H       -3.34695262      10.97044515      24.06708715       0.12815695      -0.47132970      -0.01686652
O       20.02038066      21.75710532       1.51490271      -0.96805457       0.04873738      -0.11040556
H       19.66720934      22.13641995       2.41532032       0.04613189      -0.08308948      -0.40497296
H       19.54685791      20.96295185       1.53953656       0.22231866       0.28165320       0.10367567
O       12.21623191      10.00747651     -15.85618365       0.90001421       0.20740703      -0.12360072
H       12.61475007       9.22649310     -15.66702727      -0.04773854      -0.04611551      -0.03439584
H       12.34397535      10.16994939     -16.85894671      -0.44361382      -0.11544128       0.71782748
O      -11.36259027      22.28857237       1.02595215       0.37410811       0.32687835      -0.30801032
H      -11.82404297      21.32873049       1.20213769       0.11074633       0.25329962       0.07175158
H      -10.93319792      22.34879830       1.86288665      -0.08932023      -0.36990645      -0.04027633
O        2.91261415     -15.05544599      16.02929420      -0.02789076      -0.60861443      -0.70086845
H        3.19196931     -15.52040286      16.81196275      -0.25887996       0.32912372      -0.20125520
H        3.71311575     -14.58353686      15.71939660      -0.14145835      -0.19329446      -0.29283594
O        2.34204223      16.27089474       0.40293697      -0.81954839      -0.38009490       0.88028737
H        1.80234022      16.24655665      -0.28850823      -0.20384249      -0.20584477      -0.14041266
H        2.82926287      15.44083157       0.35220190      -0.33827370      -0.20201620      -0.38194458
O       -5.80474603      -7.34015310       5.63738694      -0.76782499      -0.48150211       0.23337230
H       -5.30926442      -7.88468261       6.23424351      -0.17718461      -0.24496546       0.31573750
H       -5.12895768      -6.94527890       4.97342054      -0.50812060      -0.19933314       0.12842062
O       -2.15286984       2.43482663       6.65716006      -0.19379422       0.85675514      -0.26112678
H       -2.06510146       3.38656647       6.80619463       0.21343148      -0.39707210      -0.02752199
H       -1.74700416       2.18187702       7.39940443       0.33217289       0.37110474       0.35748558
O       13.23336737      -5.56764306      -1.46970623       1.03250762      -1.52042783       0.11815432
H       14.03122968      -5.54461381      -1.99772143       0.23377471      -0.21308771      -0.26248480
H       12.94130263      -6.58823737      -1.62303489      -0.03071498       0.13249662      -0.05164549
O       11.81119186       4.85765767      22.72150510       0.13374538      -0.69039380       0.40915032
H       11.10563543       4.33048655      23.12050011      -0.06923517       0.25745867      -0.05609350
H       11.89523726       4.76077469      21.80671499      -0.21039808      -0.02926266      -0.10978265
O        8.09179716      14.47699316      23.89212366      -0.77195335      -0.87268351       1.00156259
H        8.90183973      14.68178326      23.51292422      -0.12134853       0.08084736      -0.15500117
H        8.04727556      13.46432577      23.81401959      -0.38166612       0.62146111      -0.12854247
O       -8.02723841       6.94702379      11.40110392       0.50988061      -0.35411816      -0.49826686
H       -7.18414203       6.57109539      11.02701842       0.05461661      -0.22777504       0.35619549
H       -8.03201405       6.59972445      12.33128176       0.56722435      -0.18045121       0.25805865
192
Lattice="12.738470804690248 0.0 0.0 -5.287188742526036e-07 12.738470804690248 0.0 -5.287188742526036e-07 -5.287188742526036e-07 12.738470804690248" Properties=species:S:1:pos:R:3:momenta:R:3 step=200 time_fs=20.0 phase=production pbc="T T T"
O       11.73628750       0.75080671     -16.43872604       1.59768673      -0.02763313       0.78846731
H       12.16024507       1.02932848     -15.63865418       0.13003548       0.19644078      -0.00594797
H       11.17919737       0.11831925     -15.99100339       0.20389919       0.07174261       0.01694433
O       26.37790974      24.78771044       5.02580462       0.23442158       0.04054103       1.47728863
H       26.86398931      24.13946676       4.64393245       0.33166580       0.23715510       0.12001027
H       25.77332113      25.15521864       4.33838232      -0.01694417       0.27356304      -0.04452373
O        4.53558919      -0.33826256       6.53947672      -0.02437831      -0.14413688      -0.97635517
H        5.31114292      -0.91935534       6.80993864      -0.04801514       0.10967355       0.10315953
H        4.25206292       0.06333586       7.37291716      -0.10507019      -0.26154656       0.10731512
O       -2.88873339      -4.32265589       1.11262077      -0.61324297       1.10535929       0.51341232
H       -2.49343011      -4.05431302       0.26040438      -0.10044110      -0.29473265       0.38946756
H       -3.74801064      -3.89225163       1.29073125       0.28131757       0.03009846      -0.16980801
O        4.35746275      15.91604821      10.68368611       0.98319123       0.75679949      -0.42531570
H        4.38227227      16.93770536      10.84412221       0.01719231       0.33074068      -0.11056825
H        4.92350471      15.76775487       9.93969141       0.05185673      -0.23423598      -0.27358558
O       -1.36052826       6.52108708       5.17200066       0.34748007      -0.96770459       0.75584819
H       -1.78041183       6.34719626       4.25468232      -0.01318267       0.02428635      -0.21374722
H       -0.72453005       7.21705642       5.03773191      -0.24884148      -0.06375649      -0.24150686
O       22.82270106      12.30254860       5.77992626      -0.40441350      -0.29210229       0.10695798
H       22.97208846      13.20838629       5.80535143      -0.09027964       0.32960460      -0.12719676
H       21.91706351      12.34382241       5.42207120       0.23884708      -0.04923953       0.55872987
O       -1.15650115     -15.73812009       6.75373134      -1.49728036       0.65493194      -0.83370823
H       -0.48027291     -16.13544625       6.16349526       0.09843499       0.06139642       0.17048315
H       -1.33352336     -14.75013338       6.47306724       0.17480643      -0.56845360      -0.01082879
O       15.47249283     -17.94800121       9.70946530       0.75505507      -0.81273859       0.98463733
H       16.29041081     -18.31293028      10.14062060      -0.50989854       0.04972314      -0.19685617
H       15.76617590     -17.07111190       9.56538648      -0.15754271       0.15499713      -0.05290658
O        3.33063768     -14.61829146     -13.37118054       0.67069170       0.35920488      -0.42142987
H        4.21130674     -14.83928219     -13.18111435       0.10614451      -0.24888548      -0.13013930
H        2.74196805     -15.31116430     -12.98804327       0.00642870      -0.28793238      -0.05829691
O       -5.77692825       1.62834782       2.91999894      -0.52518031       0.49778878       0.91855592
H       -6.37994559       1.20194012       2.28823707      -0.16298141      -0.10818643      -0.15018611
H       -5.75353238       2.43293348       2.40510979      -0.27463974      -0.23178401       0.05956782
O       -5.34876445      16.16433239      25.87213082      -0.58490776       1.46621716      -0.85664630
H       -5.47936917      15.69822855      25.04713737       0.22323943       0.08360480      -0.11284184
H       -4.41391917      15.95050687      26.33945407       0.55106386      -0.23021224       0.45784762
O        7.57502923     -15.62114134      -8.39044965       1.94733602       0.63297823       0.98813334
H        7.88569597     -16.49667281      -8.11744300      -0.20820615       0.17691503      -0.11198164
H        6.59857482     -15.70217504      -8.06905512      -0.46802813      -0.27489328       0.17494446
O       13.64099897       8.53802186      18.01983458      -1.13616924       0.12054760       1.36299831
H       13.97253248       8.48729499      17.11397669       0.26882127      -0.26029454      -0.39748524
H       14.21280424       8.27009029      18.73394227       0.21579349       0.05497675       0.32882484
O       -0.19736100       1.26807190      -1.22113711      -0.92881255       0.21785914      -0.03952491
H        0.73323191       1.06947759      -1.10885298       0.23272066      -0.21658968       0.11099152
H       -0.52242831       0.51691005      -0.77578461      -0.09877510       0.41662716      -0.09936910
O      -14.11426770      12.68020332      15.72718183       0.69046442      -0.01012747      -0.56105664
H      -13.75319478      12.26792883      14.83206974       0.13190114      -0.05868178      -0.12308243
H      -14.78329182      12.09437802      15.96839111       0.25023098       0.14504569      -0.30573340
O      -16.27508813       5.97313406      12.28179285       1.76270698       0.96297473      -0.46839281
H      -16.76634322       5.60388520      11.54395826       0.05398198      -0.10073943       0.08313960
H      -16.21958089       7.08226318      12.30219240      -0.14933080      -0.27055549      -0.05672086
O       -9.98510292      32.88409600      -9.59981629      -1.22893534      -0.03672789      -0.37628905
H       -9.14919432      32.50431232      -9.44147079       0.17128850      -0.07998912      -0.06534848
H      -10.54138332      32.16829042      -9.63139829       0.64669167      -0.05445590       0.13808019
O       34.78002275      11.46366220      21.34964082       0.46574072      -0.24483573      -0.33181715
H       34.79225236      11.72964584      20.34590753       0.19420920      -0.20318810       0.39159052
H       35.49871466      10.85907336      21.28591434       0.20670350       0.16425829      -0.73999782
O       30.33708275     -12.50108634       2.12079083      -0.54409122       2.30378981      -0.14918354
H       29.55319149     -12.32890002       2.67601328       0.06960477      -0.12814382       0.02072799
H       30.27763357     -12.64954149       1.14252068      -0.07211584       0.11317992      -0.18987803
O       17.55960790       9.22263153      -7.45750304      -0.41553530      -1.52584957      -0.38696188
H       17.33159925       8.33880504      -7.57582460       0.32203545       0.65426096       0.28372343
H       17.52310838       9.38804973      -6.48539782       0.28602634      -0.11595068       0.04216343
O       -5.08409613       2.58966367      32.20709503       0.96571050       0.21801815       0.85160024
H       -5.75212274       1.85697406      32.14924539      -0.13323231      -0.35269474       0.17374650
H       -4.36203481       2.07049010      32.68533045       0.09479404       0.12281849       0.10009915
O        3.89658731       0.86527094      -0.22667893       1.69409547      -0.15924095       0.26677731
H        3.21115349       0.23850445      -0.40103642      -0.12599231       0.32981734      -0.24782390
H        4.41112460       1.29535258      -0.97255350      -0.06295173       0.22520777       0.15427696
O       23.20278304       3.22188549      11.67215374       0.22393779       0.55234576       0.58226971
H       23.48616128       3.84029856      12.36716538      -0.06321231      -0.40136771      -0.52611986
H       23.68526465       2.42915687      11.57615614      -0.03601684       0.02369927      -0.02585624
O       -1.44990702      31.84595099      15.09266631      -0.40622706       0.53083716       1.03408857
H       -1.79519128      32.57961575      14.60783785       0.65111636       0.00368592      -0.03250220
H       -0.69757779      31.50369253      14.53821276      -0.17863204       0.04631676      -0.04902912
O        4.80959744      19.39155204       5.21499790      -0.38589486       0.09310810      -0.03893954
H        4.12665789      19.17355036       5.73290706       0.18561156       0.24838865       0.11136578
H        5.41814132      18.60898450       5.08515393      -0.22817622      -0.07544564      -0.10026908
O      -10.22222345      10.51057881       9.52450034      -1.04034220       0.18668633      -0.03457302
H      -10.96914195      11.06836984       9.04222873       0.19215022       0.03675765       0.55320147
H      -10.22904254      10.70112768      10.51253103       0.19901944       0.10031306       0.33479069
O       17.70194496      17.76533690      26.01736179       0.08902498      -0.12152345      -1.56693521
H       18.33717738      17.06571354      26.03340093       0.09321088       0.05401554       0.04506365
H       16.83135441      17.39513218      26.27176975       0.04280198       0.49236368       0.18006675
O        6.89323275      18.68878134      10.15764888      -0.82105099      -0.00934675       0.84587720
H        7.31897380      19.27328013       9.50839851       0.04157051      -0.19309959      -0.19758637
H        6.51249882      17.91229934       9.80820159       0.27172412       0.08970068       0.05358054
O       -0.72291947     -13.84411654      13.25026424      -0.99759192      -1.33885970       0.00560037
H       -1.50092447     -14.19410862      12.92977262       0.04975932       0.06847325      -0.05212174
H        0.01518954     -14.42299095      13.28608807      -0.25174132       0.63614267      -0.24889202
O        1.10307141       5.97974944       1.15325880      -0.37783690      -2.17335604       0.84341582
H        1.66127563       5.12058301       0.97691508      -0.32756279       0.48255225      -0.30910144
H        1.29241312       6.54937210       0.31568753       0.31448594      -0.12173165      -0.09613147
O        3.23369566       1.25887061       8.38982853       0.88418154      -0.74089111      -0.16037503
H        2.21766070       1.24808093       8.22651983       0.63045709      -0.07298622       0.15015916
H        3.43489321       1.14767687       9.25317968       0.09936577      -0.22376259       0.13511583
O      -18.83390879      28.87032524     -16.18623921      -0.19288821       1.08797545      -0.85233865
H      -18.52986366      28.95867956     -17.12637408       0.29149562      -0.32020037       0.68843250
H      -17.96792550      28.38420235     -15.78356981      -0.16710554       0.25084763      -0.47435990
O        2.90913862      26.79443575      -9.11364493       0.90002607      -0.48316395       0.05248611
H        3.53850060      27.04158088      -8.02675755      -0.45726191      -0.34902931      -0.52992621
H        2.03874047      26.60815758      -8.77671856      -0.15063513       0.20151044       0.46400844
O      -18.14406306      18.94812987       1.97553147      -0.97706771      -0.80203077      -0.00038974
H      -17.70206487      18.69569705       1.13208432      -0.72712676       0.04301237       0.65260141
H      -19.02360929      18.67286868       1.87423454       0.45837268       0.24981872      -0.00120075
O       11.70336378      17.54401299       7.02596855       0.07523609      -0.15549158      -0.83442235
H       12.49662645      17.53996549       6.48888918       0.06090834       0.00971398       0.06576646
H       11.27510689      18.23109948       6.50567270       0.02144177      -0.06425024       0.10054371
O       -7.17950405     -11.22803443       5.15853047       0.58374370      -0.43266671      -0.45051251
H       -6.90376664     -11.52114748       4.21668726      -0.18085002       0.08063730      -0.18210438
H       -7.38592493     -12.08476281       5.50882710      -0.06909239       0.16793638      -0.07678275
O      -24.16761956       3.33988877      10.72446359      -0.19884768      -0.33547074       0.24667995
H      -24.92668629       3.79573414      10.43148103       0.11479276      -0.17944235      -0.07694161
H      -23.45595062       3.54455285      10.12959195      -0.71421965      -0.36920170       0.15854777
O      -11.46019945      -8.26588818      18.47798115      -0.40305587      -0.44850856       0.15177651
H      -10.72623123      -8.92237951      18.59783460      -0.21896765      -0.03768375      -0.48704268
H      -11.36159937      -8.00508828      17.51181954      -0.03383087      -0.22856539       0.30335326
O        8.46642913       7.39418178      16.83715228      -2.22171738       0.99709452      -0.87538855
H        9.37964232       7.24273354      16.87608958       0.11654511      -0.14253542       0.08214149
H        8.16702954       7.02310906      15.94270280       0.13201011       0.13548163      -0.20774566
O      -11.61364633      -0.47932268      20.43222327      -0.07165369      -0.20858444      -0.28018791
H      -12.28636332       0.00108130      20.89429132       0.11784651       0.32498268       0.08803374
H      -11.72924007      -0.65817505      19.50289183       0.06874152       0.14011690       0.62041823
O       24.10996630       2.53591596      16.14374697      -0.19209377      -0.23320522      -0.85459635
H       24.05571276       2.30555138      17.09462507       0.01101506       0.21502856      -0.03087623
H       24.27828549       1.63633363      15.78306890       0.10989935       0.79151547       0.18319683
O       -5.65366587     -17.93078159      -5.10204192       0.02351614      -0.24311338      -1.17590814
H       -4.82314896     -17.55411507      -5.39363981      -0.15069997       0.36699447      -0.34431378
H       -6.28077076     -18.49501758      -5.56169766      -0.15013151       0.59882240       0.12898251
O       29.32765257      -8.90148220      -6.18904664      -1.49834936       0.39831911      -0.51430905
H       30.17592365      -9.17561666      -6.39008902      -0.00591404       0.02062330       0.16084566
H       29.04978493      -9.75569428      -5.64865910      -0.09760049       0.23638217       0.32176468
O        8.84370432      -0.64287042       3.49864862       0.58723824       0.17803618       0.93381422
H        8.29553763      -0.05554513       2.88584523      -0.14825094       0.23397944       0.16525177
H        8.41141211      -1.48287629       3.33064271       0.00047654      -0.21572969      -0.06817013
O      -19.76646894      -3.11783758      24.76895511       0.14381804      -0.11930660       0.36322096
H      -19.86426475      -3.96293864      24.30312929       0.11526155       0.60029766       0.31979013
H      -19.16527300      -3.14529410      25.59969294      -0.27793374       0.42898107      -0.30995507
O        2.47432129      -5.71759089      -6.02049123       0.86810096       0.60077401      -0.08000434
H        2.51929943      -5.64539210      -5.00576287       0.13864850       0.25862179       0.44605142
H        2.20712204      -6.68759584      -6.27031132       0.12391118      -0.00529332      -0.23536708
O        9.93953898       8.19148273       7.96798874       0.78246329      -0.93313270       0.11656912
H       10.28712388       8.70344928       7.21314364       0.20914305       0.11124148       0.09299067
H       10.23181836       7.27513481       7.78929581       0.18965220      -0.06874443      -0.52085339
O        5.40213878       9.72727104      -4.90927261       1.07978375      -0.40937028      -1.54892746
H        6.07992138       9.11284005      -4.79440118      -0.26014295       0.01325930      -0.05928730
H        4.79557156       9.65674278      -4.14880903      -0.34639269      -0.00870162       0.22081673
O       13.69056746      29.35434335      15.91882557      -0.58367651      -0.91140161       0.73790594
H       12.75861742      29.05806147      15.79518585      -0.00505294      -0.12170463      -0.19554102
H       14.28649865      28.65216920      15.74079802      -0.30326202       0.01911781      -0.05617417
O       -2.85346807       3.98131049       1.71295066      -0.83405234      -0.64343885       0.08908961
H       -2.50037647       3.28281524       2.40059150      -0.32193712       0.25476702      -0.28699012
H       -2.36869038       4.79547371       1.88588870       0.55824528       0.05626366       0.18673925
O        7.87537336     -14.01192777      10.87143499       0.41865995      -0.46410718      -1.89059446
H        6.84508478     -14.43762066      10.81319742       0.35598807       0.22480515       0.11788854
H        8.16164224     -14.14257644       9.91211766       0.06532820       0.33994474       0.25922169
O       -2.52243419      10.57259216      24.31641323      -0.84588585       0.65026999       0.35488550
H       -2.13775059      10.32726927      23.37320027       0.31628136      -0.03949528      -0.40740303
H       -3.34306232      10.92760861      24.06684969      -0.07944971      -0.37754383       0.04681372
O       20.01261070      21.75655293       1.51486677      -0.95007550       0.42637029       0.11940201
H       19.67699052      22.12684882       2.36664791       0.18238438      -0.06512882      -0.56917335
H       19.56050076      20.96944211       1.54610351       0.08503755      -0.12421789       0.03730756
O       12.22013922      10.00898270     -15.85633996       0.73573350       0.54676518      -0.30735220
H       12.61809551       9.20348762     -15.66288871       0.12969397      -0.39226497       0.08917942
H       12.29774621      10.15639400     -16.77963610      -0.47262467      -0.12566871       0.78825970
O      -11.35987410      22.28768544       1.02375043       0.17835762       0.05002920      -0.37500459
H      -11.80791844      21.36319000       1.20388387       0.19263514       0.48632879      -0.03605329
H      -10.93430644      22.31449634       1.86679621       0.04711669      -0.28963035       0.12307458
O        2.91219335     -15.05745162      16.02303640      -0.04315491      -0.48465974      -0.88263722
H        3.16976570     -15.49175213      16.79797293      -0.18317918       0.21452894      -0.02744250
H        3.69578503     -14.60243477      15.68980710      -0.19423205      -0.21383249      -0.29108233
O        2.33769983      16.26704214       0.40933336      -0.55797156      -0.40062292       1.16735154
H        1.76371281      16.22784767      -0.32436672      -0.54919286      -0.14585119      -0.54820540
H        2.79965186      15.41802791       0.31895924      -0.26650672      -0.22995790      -0.29835732
O       -5.80854627      -7.34216677       5.63787319      -0.65806152      -0.41753479       0.12749629
H       -5.32588202      -7.90884460       6.26458875      -0.18305324      -0.25183686       0.30291539
H       -5.18469762      -6.96854617       4.99267312      -0.62046669      -0.27962343       0.25504849
O       -2.15441097       2.44004842       6.65400093      -0.34888742       0.85824083      -0.52456427
H       -2.04421837       3.35306406       6.80110151       0.21573995      -0.24467965      -0.05963056
H       -1.70478180       2.20900228       7.45038861       0.50317696       0.20732309       0.65205123
O       13.23843649      -5.57744705      -1.46890853       1.03694313      -1.83187714       0.08194170
H       14.05357528      -5.56271825      -2.02416825       0.23012435      -0.16742887      -0.26923913
H       12.93978357      -6.56032687      -1.62661977       0.02104674       0.42005284      -0.02470090
O       11.81105420       4.85300861      22.72269939       0.18129317      -0.67640250       0.62729841
H       11.09697666       4.35459609      23.11104839      -0.09544318       0.23973476      -0.08991416
H       11.87261100       4.75612054      21.78462564      -0.23254953      -0.05470707      -0.28092851
O        8.08556388      14.46961741      23.89623962      -0.99101842      -1.03292601       1.04461347
H        8.90424950      14.69482853      23.49162711       0.16498173       0.20962955      -0.22845477
H        8.00597588      13.52923997      23.80158008      -0.45559330       0.67331495      -0.08659307
O       -8.02275361       6.94379160      11.39751580       0.70914497      -0.49474953      -0.31624378
H       -7.18393990       6.55184097      11.06073598      -0.05323378      -0.15669689       0.34233080
H       -7.97839186       6.58341975      12.34634221       0.50935907      -0.13800145       0.07166177
