192
Lattice="13.066373825073242 0.0 0.0 -5.291772140481044e-07 13.066373825073242 0.0 -5.291772140481044e-07 -5.291772140481044e-07 13.066373825073242" Properties=species:S:1:pos:R:3:momenta:R:3 step=5000 time_fs=500.0 phase=production pbc="T T T"
O       13.09522075      -3.74664475     -16.91744327       0.53962708      -0.03477761       0.93933007
H       13.43321618      -2.84014618     -16.86825960       0.14614569      -0.15830479      -0.11079220
H       12.15097354      -3.70522211     -16.81762943       0.17388913      -0.05981438      -0.19817264
O       25.15334238      24.68868570       0.95584440       1.11112911      -0.01415936      -1.53703162
H       25.75144028      25.36466977       0.74305414      -0.14148790      -0.07527016       0.13442553
H       25.45302226      24.02167380       0.27918115      -0.14559323       0.24316830       0.24357258
O        5.86893030       0.33476833       7.88885301       0.40603396      -1.13908692       0.06682409
H        6.73710894       0.74113639       7.58255128       0.23099010       0.12649360      -0.03415423
H        5.73789180       0.71682642       8.74327887      -0.10624407       0.16022102       0.19418416
O       -2.52561509      -4.10949899      -3.02197311      -0.12358928      -0.98711288       0.16076117
H       -2.18932023      -4.99106397      -2.80784412      -0.25894959       0.16206869       0.13719294
H       -3.09253237      -4.88637206      -2.82678524       0.16648769      -0.06771088       0.02582477
O        2.69338071      19.39353539       9.58582900      -0.70607149       0.23728035      -0.60187871
H        3.22205212      18.77182265      10.13090478      -0.06071324      -0.08745862       0.01629795
H        2.58974204      19.08904620       8.67293765      -0.16018150      -0.17533029       0.04550148
O       -2.96133135       4.88184366       3.13715865      -0.05786813      -0.16183783      -0.69978992
H       -3.42465952       4.61843121       3.91639571       0.07122270      -0.00266808       0.13731871
H       -3.64855311       4.97963961       2.37928979      -0.23939601      -0.02568438       0.09841221
O       24.23211052      12.61956229       7.36602104      -0.66404407      -0.47646254      -0.15852851
H       25.11399827      12.42614507       7.61118601       0.30015476      -0.11981536       0.09733335
H       24.12898476      12.68886744       6.45924165      -0.03596799       0.00769591      -0.23612593
O       -1.35051426     -16.41373160       5.15024128      -0.48289535      -0.36349787      -0.54694981
H       -1.19346431     -16.97275905       4.38150280       0.21860885       0.05462516      -0.04588354
H       -2.28481262     -16.50190340       5.33828423      -0.19053262      -0.02336103      -0.12453059
O       19.30290515     -18.25346119      10.18750367      -0.22591961       0.55921273      -0.13182819
H       18.79344391     -19.02184483      10.39284803       0.02704895       0.02179049      -0.24325650
H       18.88845935     -17.59350791      10.71592771      -0.07265243      -0.06087361       0.40694324
O        4.69877408     -15.45680224     -14.01174681       0.01099456       0.11678927       0.64484272
H        5.61968433     -15.18359958     -13.81474121       0.08696176      -0.10659064      -0.16282362
H        4.33169561     -15.66407625     -13.11507725       0.04952250       0.12464319       0.00766716
O       -4.47329173       0.97577165       5.60845940       0.34712910      -0.06236059       0.01918177
H       -4.79620006       1.35051552       4.79612619       0.23856058      -0.27396195       0.23248422
H       -5.24454963       0.44910195       5.85078893      -0.15979652       0.23820630       0.04293098
O       -6.06225102      15.52235049      26.95428747       0.48832717       0.90321840      -0.40839178
H       -6.20921252      15.29944777      27.82290454      -0.05215883      -0.16758672       0.38627678
H       -5.52206171      14.83573829      26.52330699       0.16150169      -0.19008447      -0.28976932
O        8.72656943     -16.15587032      -6.70497515      -1.38869439      -0.68079652       0.76959898
H        9.03286960     -15.85908753      -7.58144265       0.10658036       0.14567514      -0.26995215
H        8.46861767     -17.06028513      -6.84812396       0.03060972       0.35343650      -0.16717609
O       15.04178628       8.01220143      19.40529316      -0.13828501       0.38401977      -0.05486172
H       14.37597760       7.34825402      19.19901159      -0.05492174      -0.33898686       0.06742812
H       15.96327176       7.67746063      19.41289375       0.14905162       0.27963810       0.23211263
O       -1.04075422       2.11613042      -0.05004471       0.26064011       0.70025368       0.25544592
H       -1.02305496       2.25955787       0.89065170      -0.04975251      -0.00357344      -0.04921933
H       -0.15100199       2.24254076      -0.35031001       0.06574111       0.14478333      -0.01346919
O      -15.51768164      13.05498233      17.72130011      -0.49789918      -0.91784683       1.05294557
H      -15.33834053      12.32783136      17.12937286      -0.06254622      -0.03743072       0.00856316
H      -16.42473799      13.21123919      17.70710446      -0.28539808       0.22860403       0.07162891
O      -17.74088965       5.09624561      11.14798260       0.64706103      -0.41914400      -0.63497963
H      -18.56481850       4.83312328      10.78926310      -0.00756880      -0.13466163       0.01008786
H      -17.46543466       6.03476518      11.02105104       0.12173933       0.18655889      -0.12659428
O       -9.43448757      35.01808221      -9.83476521       1.17767756       1.26234874       1.70956806
H       -9.58892464      34.17880727     -10.28496743       0.03404639      -0.05512054       0.20931326
H      -10.16087826      35.56453724     -10.16719609      -0.01145517      -0.15929276       0.04934080
O       35.78173838      10.87328756      21.65845703      -0.83659678       0.46289648       0.44059487
H       36.34500567      11.34290843      21.06735782      -0.13278222      -0.27582656      -0.04704447
H       36.16359174      10.33103681      22.31622923      -0.06084528      -0.03815421       0.29204564
O       30.17511522     -10.58672009       1.60179128      -0.32699000       0.52610775      -0.59122241
H       30.55918653     -11.34704690       2.05835294      -0.14219890      -0.20511834       0.18416871
H       29.47640818     -11.06197493       1.19556138      -0.07623583       0.07147883      -0.02174096
O       17.25701674       8.64124176      -7.44203667       0.69271024       0.31633953      -0.55023366
H       17.85261465       9.32003940      -7.08074340      -0.04460011      -0.05091989      -0.05753567
H       17.79236343       7.97254908      -7.89979081       0.10818960       0.11659614      -0.03373667
O       -7.89858867       5.28709675      33.73281351       0.42885600       1.37507991       0.13514059
H       -8.08819271       4.86682620      32.87336457      -0.04838244       0.02028302       0.14620868
H       -7.19919795       4.80551971      34.15929268       0.14736193      -0.15135761      -0.39862315
O        5.74777221       1.70821000      -2.02013181       0.29636978       0.28433072       0.40066720
H        5.10057141       2.35039583      -1.85756460       0.03526107      -0.02063207       0.00958434
H        5.25788664       1.14669339      -2.59470811      -0.19056545      -0.02282711      -0.24230485
O       23.14365134       3.30080891      11.56785139       0.49155351      -0.10685200      -0.61011707
H       22.77340798       4.19731351      11.66058973       0.10195167      -0.09312356      -0.07441027
H       23.68183230       3.14414408      12.32905858      -0.10549555       0.05685559      -0.15245000
O       -0.60510065      32.64840036      16.64954535       0.33697873      -0.01494050       0.48386034
H       -1.32265726      32.13367006      16.26388762       0.14867456      -0.25549198      -0.12842911
H       -0.90900091      33.51995783      16.73507097      -0.09464673      -0.16805803      -0.40028850
O        5.29557002      19.14208552       5.27809220       0.61770628      -0.59117327       0.35150545
H        4.60444660      18.81369338       4.71197293      -0.09223034      -0.10478661      -0.10478631
H        5.99433483      19.52689927       4.81910561       0.06674257      -0.39618923      -0.02428866
O       -9.83253410       9.86228949       9.88978354       0.39520980      -0.31862076      -0.25734402
H       -9.95414178       8.92586192       9.93546429       0.11844550      -0.25854736       0.00517574
H       -9.53622372      10.10703917      10.77180368       0.41994943       0.26267973       0.08408778
O       16.09791394      18.79051664      28.66489073       1.22717221      -0.99956316       0.39979896
H       16.56938985      18.02974428      28.38287038      -0.21286954       0.26941208       0.25321854
H       15.12275243      18.69270443      28.61053553       0.03561521      -0.19881725       0.07472631
O        6.99585613      17.34612564       9.06275096       0.27636206      -0.40097462      -0.21369196
H        7.80485992      17.41327852       8.49196142       0.13243554       0.10226332       0.10524704
H        6.87946203      16.41731479       9.25183477      -0.18500669      -0.19118794      -0.10762243
O        1.37520809     -13.85059718      10.19028996      -0.02253199       0.68964701       0.34998699
H        1.01181784     -13.00943309      10.60884330       0.04405088      -0.22886702      -0.08678266
H        2.35057222     -13.67082452      10.06605232       0.32549594       0.05642420      -0.09710613
O        0.45672869      10.98849299       3.67345851      -0.75982283       0.44492010      -0.68136560
H        1.16618556      11.67168357       3.70823324       0.11330290       0.12217603       0.05410196
H        0.57272620      11.72697382       2.99368895       0.28556203       0.03218673       0.25441566
O        0.26430830      -1.73531665       8.02634588      -0.28980158      -0.00405322      -0.71276314
H        0.67735195      -1.90118149       7.13148997      -0.09492186       0.06694470       0.17006768
H        0.80117707      -1.08515585       8.47245271      -0.40764623       0.06253663      -0.09408962
O      -18.13902638      28.02923789     -16.97707975      -0.24170475       0.75363471      -0.10654441
H      -17.26372875      27.89031846     -17.38073416       0.15831605      -0.00899137      -0.15274159
H      -18.02748737      27.67289094     -16.07216623       0.00951586       0.12030619      -0.15830535
O        3.30280475      25.87898733      -7.50202755      -0.02444620       0.37065273       0.12174390
H        3.03184571      26.27619042      -6.66072262      -0.08370460       0.13871891      -0.37171924
H        3.50745999      26.66878841      -7.97269766      -0.08709189       0.16343699       0.18801612
O      -18.85789673      20.68019460       3.43020591      -1.25330644      -0.43680607       1.40008554
H      -19.18016344      19.97154880       2.91146725       0.26729518      -0.09095974       0.26561288
H      -19.32275553      21.48921992       3.14323977       0.21712765      -0.10133969       0.06064603
O       11.63477584      19.93689182       6.91631865      -0.16138786       1.29969554      -0.74032552
H       11.56523474      20.81045342       7.28982479      -0.03832646       0.38779284       0.37656077
H       10.75686670      19.47025271       6.85519116      -0.04372181      -0.23235714       0.10403913
O       -9.94635918      -8.03088906       4.85648544       0.59848613      -0.40697187      -1.09614425
H      -10.54206731      -7.62566942       4.31095344      -0.04053630      -0.01137875      -0.07409392
H      -10.35591037      -8.73196952       5.38622137      -0.07871468      -0.36379839       0.27365140
O      -25.04423949       3.25778447       9.33005259       0.09034608       0.93758160       0.18442334
H      -24.66196166       2.47425975       8.93772154      -0.09882141       0.25971386       0.14329281
H      -24.32964385       3.59692557       9.80756171       0.13608508      -0.07677985       0.17401249
O      -12.92245736      -6.97368418      19.20809166       0.00524197      -0.39076845      -0.44055092
H      -12.46142428      -7.80013436      19.40143896      -0.11496899      -0.08246866       0.01214287
H      -13.16496041      -6.99955643      18.26901126       0.17301108       0.00038689      -0.10954064
O        7.21777090       7.75172869      19.00136763       0.12442085      -0.45731399       1.12306668
H        7.61455842       7.09426845      19.62110787      -0.00048423      -0.15601781      -0.02223454
H        7.58931781       7.62338919      18.14120165       0.01197180      -0.07531121       0.24803435
O      -11.28311913      -2.70996800      19.03429742      -0.58252531      -1.03951072       0.85702078
H      -10.48167677      -3.27815495      19.13179340      -0.07384126       0.03395588      -0.02814170
H      -11.36393817      -2.44598584      18.11741009       0.13807312       0.18354832      -0.04068286
O       23.46021739       4.66686988      19.86208687       1.12051419      -0.12285385       0.30653262
H       23.22130072       4.42469836      18.95485186      -0.21801416      -0.03054659      -0.05495315
H       23.37280622       3.84126783      20.38232383      -0.05958111      -0.03926656       0.10868049
O       -5.30815398     -18.14280310      -4.09061816       1.07968208       0.13585758       0.15705753
H       -4.60916898     -17.75015092      -3.58505263       0.18255022       0.30049483       0.06655193
H       -4.95173311     -18.83423150      -4.67792677       0.09242571       0.15776586      -0.18297808
O       28.12455210      -8.20876710      -5.72951245      -0.79658884       0.74024448      -0.73276341
H       29.03373176      -8.25941651      -5.88275411       0.07687063      -0.10524230      -0.06193009
H       27.80468662      -8.84111154      -5.10495517       0.38139339       0.22485901      -0.08595811
O        7.25795539      -2.11662799       7.31887622      -0.81567310      -1.10747256      -0.34328221
H        6.86746460      -1.26738808       7.50941731       0.00837046      -0.17293762       0.10441027
H        8.02604784      -2.13061287       7.90124496       0.11024694      -0.20795159       0.19592948
O      -18.45750424      -1.14710972      24.49099368       0.02395691      -0.25871158      -0.31958396
H      -18.02526824      -1.33364181      23.68578624      -0.05543569       0.19032436      -0.15239561
H      -18.19278277      -1.76639070      25.17370476      -0.08875735       0.03271738      -0.07536530
O        4.33930402      -5.29573751      -5.84047116      -0.92875203      -0.37488366      -0.99577848
H        4.07015153      -5.95136866      -5.15943291       0.09401028      -0.37607379       0.20108942
H        4.87481297      -4.65874011      -5.37331498      -0.01444209      -0.06491341      -0.01472474
O       13.22709854       8.47372895       6.75784945      -1.22792857       0.39657331       0.18336024
H       13.45405449       8.83802495       7.65986941      -0.07380035       0.02327819      -0.39696267
H       13.02417727       9.13058383       6.15861743       0.25607978       0.53672528       0.23413942
O        4.50161171      11.31496049      -4.76822793      -0.52895222      -0.24248515      -0.26636782
H        3.88635936      10.99099084      -4.12871560       0.02827846      -0.03673414       0.10288607
H        4.08970804      11.81264338      -5.49776339      -0.08712775      -0.08178871       0.01993016
O       11.27361616      28.83994981      15.44123931      -0.28485269      -0.47830740      -0.47319174
H       11.81513815      28.35843220      16.03482671       0.05041206       0.04063881      -0.04420769
H       11.16089093      29.77238405      15.63913462       0.07982374      -0.29283234       0.19206584
O       -4.95316632       4.88345131       0.91667372      -0.38945707       0.94945248      -1.16253103
H       -5.35880867       5.72149855       0.98449675       0.13335985       0.01406070       0.06047247
H       -5.54518403       4.06670479       0.99106988      -0.38042634       0.01623572       0.06490763
O        6.36064593     -16.89655265       7.98566876      -0.94197740       0.07503122       0.16476044
H        5.86837484     -16.06519731       8.13837225       0.13452342      -0.07465451       0.11556646
H        6.38038511     -17.32031505       8.87870035      -0.06690942       0.07418866      -0.06219935
O        1.73538003       8.64010498      21.90389114      -0.61650497       0.42490104      -0.68693942
H        1.73044009       7.88496786      22.50045903       0.07281732       0.15276475       0.24293363
H        2.33051142       8.57795815      21.13206473       0.27473622      -0.01321883       0.11874292
O       21.67137762      24.28470799       0.93614559       0.79608287       0.17078027      -0.80760215
H       22.55816823      24.54127466       1.24710392       0.07822894       0.16010249       0.16837411
H       21.61027823      23.38242339       1.19202394       0.11021077       0.12344797       0.18694929
O       12.27205073       6.56032765     -16.60702849      -0.80973563       1.36424991       0.79010307
H       11.97146044       5.72332447     -16.30290246       0.06811567      -0.29572823       0.16948736
H       12.19705201       6.49966680     -17.53863080       0.16859850      -0.19913785       0.20994893
O       -6.98738907      23.05591616       3.00969549       0.74335370      -0.45851162       1.39967418
H       -6.36084761      23.46554064       2.35874313      -0.05120486       0.18129622      -0.09815759
H       -6.96852780      23.73855812       3.80661660       0.05286668       0.20051887      -0.11578150
O        5.44674953     -15.44228405      18.43071206       1.03547982       0.12683656       0.63375993
H        6.14223096     -15.36485751      19.07092231      -0.00644236       0.00174674      -0.07665422
H        4.82533379     -14.71694369      18.38530944       0.12271079      -0.08368016      -0.02724240
O        1.14481386      19.93900165       1.76595822      -0.06285064       0.54474737       0.42925108
H        0.40378643      20.18605863       2.27058313      -0.16006203       0.09395006      -0.06707876
H        1.05952803      20.33403108       0.89504035      -0.04038053       0.12988887       0.16153399
O       -4.95392424      -7.29192286       7.55105235       0.47231458      -0.04773867       0.45030138
H       -4.18589013      -7.63894608       7.06210797       0.00564035      -0.02978713      -0.07276259
H       -5.68879533      -7.71070352       7.19227446      -0.19890552       0.28670589       0.25562977
O       -2.85809982       2.26869958       7.94790364      -0.60336717       0.47788095      -0.61996476
H       -2.42319893       2.56076709       8.73393121       0.06493846      -0.08733460      -0.02040964
H       -2.40730167       1.50053339       7.62226820      -0.00539337       0.16000399      -0.00704039
O       14.38415690      -6.03106953      -2.20371738      -0.78032747      -0.75906386       0.52711948
H       13.54914098      -6.46722174      -2.52823432       0.05126278      -0.25628986      -0.28105167
H       14.13143271      -5.54312632      -1.43750869       0.18733658      -0.04019214       0.06174483
O       11.41028879       3.94910580      22.53698326      -0.78794511      -0.99630609      -0.37261243
H       11.13407142       3.99490566      23.42992964       0.05424512       0.06143873       0.08376186
H       12.37315333       3.80952991      22.54400211      -0.13712742       0.03429555       0.04264773
O        7.99276430      14.57050066      24.83656562       0.23816951      -0.53071839      -0.81615270
H        8.79429391      15.10675140      24.97660065      -0.23694136      -0.04346055      -0.11366153
H        8.18543889      13.65168182      24.92351568       0.07424999      -0.41332114       0.10588747
O       -8.63676396       4.70343073      10.98997398       0.18770664      -0.21111866      -0.74479321
H       -7.96513092       5.43994441      11.10114064      -0.04747730      -0.02023606      -0.01366821
H       -8.80728331       4.55866745      11.89963588       0.07678606      -0.07229768      -0.27457376
192
Lattice="13.066373825073242 0.0 0.0 -5.291772140481044e-07 13.066373825073242 0.0 -5.291772140481044e-07 -5.291772140481044e-07 13.066373825073242" Properties=species:S:1:pos:R:3:momenta:R:3 step=5100 time_fs=510.0 phase=production pbc="T T T"
O       13.13015313      -3.76054141     -16.85640568       0.64843524      -0.38713578       1.10493133
H       13.56970004      -2.93220747     -16.93702004      -0.00467301      -0.05318236       0.00097996
H       12.19390952      -3.78825377     -16.91558052      -0.09001233      -0.02833504       0.01737205
O       25.19063686      24.68768688       0.89615443       0.21268059      -0.03610579      -0.56346841
H       25.81651582      25.45729251       0.65190304       0.18869781       0.12243031      -0.27343037
H       25.48610512      24.05707375       0.24522183       0.18012994      -0.00648224      -0.18237574
O        5.91542644       0.27191253       7.90246881       1.03267900      -1.01487187       0.11888341
H        6.69828616       0.70977844       7.46901240      -0.36228969      -0.18389273       0.01146067
H        5.56668749       0.68670644       8.71365641      -0.12527439      -0.11958254      -0.17933676
O       -2.52849326      -4.16796505      -3.01483315       0.06019075      -0.51656091      -0.03569337
H       -2.13638938      -4.99499466      -2.68550004       0.12881160      -0.29102675       0.15138896
H       -3.10003752      -4.92782735      -2.73039886      -0.03782083      -0.22980229       0.19411319
O        2.64994589      19.40798432       9.55717566      -0.56890800      -0.04124934      -0.31292972
H        3.22600585      18.81142640      10.07296420       0.03827276       0.30417013      -0.04554630
H        2.52180447      18.89771260       8.75122372      -0.06103073      -0.08394503       0.02457923
O       -2.98074496       4.87080212       3.09216463      -0.72478915      -0.18099889      -0.99057804
H       -3.28435306       4.62831908       3.96824501       0.16158870      -0.01392787       0.08038018
H       -3.73801280       4.95422150       2.51466481       0.34388243      -0.05092099       0.29251375
O       24.19022104      12.58768746       7.34549004      -0.80413845      -0.61121742      -0.25888667
H       25.18172083      12.44767891       7.55990891       0.03639634       0.09129628      -0.06921716
H       24.14878902      12.72406547       6.36392112      -0.02991210       0.08876208      -0.29582481
O       -1.37789365     -16.43201546       5.10772308      -0.35206970      -0.25670858      -0.84015710
H       -1.09759055     -17.02448995       4.41399137      -0.03375814      -0.16579896       0.11833810
H       -2.34207399     -16.54864921       5.15926273       0.04344097      -0.07616835      -0.19906144
O       19.27491326     -18.21623200      10.19762434      -0.42510185       0.58162345       0.29015920
H       18.85486647     -19.08315553      10.16236708       0.02372805      -0.10318295      -0.16897522
H       18.93430449     -17.71312302      10.99031229       0.00532580      -0.15268718       0.21913332
O        4.69801339     -15.44491604     -13.97696674      -0.33968625       0.22450357       0.19449732
H        5.66302027     -15.35487213     -13.98907244       0.22930068      -0.19063078      -0.02327954
H        4.39609159     -15.56375717     -13.09905559       0.16413640       0.08218552       0.14093673
O       -4.46957355       0.97317182       5.62158662      -0.05780991      -0.00786975       0.51595272
H       -4.70912601       1.41691890       4.81863717      -0.17551469       0.35494863      -0.16837572
H       -5.30809935       0.62707989       6.00131444       0.00411813       0.11462211       0.09560690
O       -6.03448809      15.56603843      26.94530900       0.58292925       0.22582243       0.11267642
H       -6.14480957      15.14224293      27.81906202       0.09761219       0.05135070      -0.38933096
H       -5.53827067      14.89635998      26.46386840      -0.26411130       0.47455022       0.16431321
O        8.65164454     -16.18136574      -6.68624277      -0.92753098      -0.02362118       0.12949886
H        9.10458686     -15.71351985      -7.44012125      -0.02888596      -0.02804321       0.34809125
H        8.36688354     -17.03773091      -6.93181980      -0.19572184      -0.24745355      -0.17422771
O       15.01989452       8.03318596      19.40603014      -0.45812149       0.39642512       0.17288981
H       14.54204460       7.16931064      19.29382713       0.17323042      -0.09916373       0.07145561
H       15.97771273       8.05414060      19.57809902      -0.21568654       0.37065927       0.02066142
O       -1.02662786       2.16211612      -0.05125425       0.22515310       0.82713079      -0.39042934
H       -1.08354331       2.32983243       0.88501434       0.00390546       0.13374417      -0.02846775
H       -0.13511041       2.38761831      -0.33992938      -0.10313038       0.12007155       0.10800280
O      -15.54334844      12.98639140      17.79392563      -0.33979928      -1.39754232       1.10293524
H      -15.38608321      12.32151512      17.13425782      -0.01442220       0.06596386       0.10982716
H      -16.48665157      13.26695345      17.63471852       0.08013294      -0.08481234      -0.11317798
O      -17.69272952       5.07512501      11.11552505       0.74430573      -0.04486626      -0.61378483
H      -18.53528811       4.90781797      10.63922759       0.06426423       0.10321044      -0.23276891
H      -17.48705818       6.01971799      10.89676445      -0.01558571      -0.26378106       0.01162774
O       -9.36956770      35.08348081      -9.74759881       0.97322110       0.93013804       1.23830997
H       -9.48944135      34.15393239      -9.96770170       0.11674874       0.01524262       0.35515366
H      -10.15253139      35.53545429     -10.01735371       0.05292690       0.00476063       0.22410600
O       35.71251057      10.89512314      21.69030182      -1.45109654       0.38625656       0.41669015
H       36.37458818      11.18463150      21.06445852       0.18053686      -0.02065643       0.02165173
H       36.10346432      10.39836776      22.44538306       0.02363376      -0.01210270       0.15435974
O       30.15892780     -10.57140238       1.57212745      -0.12880600       0.26175462      -0.31466751
H       30.37211289     -11.26286405       2.16820803      -0.24944372       0.23310414      -0.05447959
H       29.39476118     -10.90871281       1.12283202      -0.13058398       0.07755860      -0.09631566
O       17.28729709       8.64963053      -7.47414434       0.39728022       0.08028037      -0.37691454
H       17.83119852       9.29532705      -7.03950864      -0.05921936      -0.08184690       0.02095489
H       17.84467247       8.04550818      -7.95069046       0.05113488       0.04540311      -0.08111158
O       -7.86859731       5.35369263      33.73822373       0.39369921       0.81519371      -0.07124681
H       -8.26592849       5.07696498      32.92070177      -0.24578248       0.41937826       0.12404003
H       -7.18118292       4.72815270      33.98270781      -0.00543318      -0.09816646       0.11248108
O        5.74624093       1.71652871      -2.00980756      -0.04945924       0.01507538       0.10238781
H        5.19868715       2.45833414      -1.69830112       0.08249135       0.08494784       0.13998306
H        5.27273637       1.13917863      -2.67131714       0.01492639       0.14186988       0.10092795
O       23.17482943       3.29197272      11.52608397       0.44126557      -0.18912414      -0.76356854
H       22.73758226       4.12293364      11.67019087      -0.11298367      -0.09726751       0.12563625
H       23.67290627       3.08528866      12.31529583       0.10930177      -0.17094260       0.15703228
O       -0.58866053      32.64257678      16.66605213       0.17048781      -0.25716347       0.05492550
H       -1.18165182      31.98309754      16.29816849       0.14088060       0.12255610       0.23756322
H       -1.05088080      33.52989350      16.65216953      -0.20613429       0.08119950       0.22665549
O        5.32268188      19.10170081       5.30158267       0.32927399      -0.68646537       0.29578375
H        4.65419132      18.79622342       4.61094863      -0.01699135       0.02771478      -0.06448903
H        6.11034088      19.24837542       4.75970001       0.25379144      -0.14852496      -0.05940126
O       -9.80293188       9.83634867       9.90376453       0.75676621      -0.45231288       0.56493218
H       -9.70916431       8.86576116      10.01262612       0.20839614       0.08413416       0.10404453
H       -9.22184986      10.25078340      10.58876622       0.10900160      -0.02773240      -0.27878277
O       16.16235788      18.74022702      28.71258713       0.69608645      -0.92245467       0.93925115
H       16.50944547      17.94290821      28.33817086       0.26760449      -0.38037019      -0.34211061
H       15.23655098      18.58571645      28.52563116       0.21981886       0.23112513      -0.14238955
O        7.01255048      17.31694094       9.06305322       0.38211882      -0.38390057       0.03593928
H        7.82839868      17.42214191       8.56232235      -0.27385730      -0.07171381       0.07154396
H        6.84322865      16.36737793       9.11965540       0.10411752       0.00768943      -0.14390812
O        1.39971181     -13.81316715      10.19318314       0.43190516       0.48150002      -0.20847474
H        1.04090509     -13.08359735      10.54071297       0.14400315      -0.00448065      -0.11155835
H        2.32234486     -13.69211955      10.08673005      -0.14039472       0.02589788       0.14421212
O        0.42447615      11.02647655       3.63377108      -0.79240174       0.25310845      -0.54934513
H        1.18216481      11.62510745       3.81006125       0.16821105       0.21704825      -0.04244247
H        0.67319242      11.76666926       3.11775624       0.11408961       0.18792614       0.04410416
O        0.24465351      -1.72998380       7.98633432      -0.31454289       0.10798207      -0.77746249
H        0.70012664      -1.79509198       7.16758119       0.06491754       0.21529511       0.13169188
H        0.58488698      -1.05021816       8.52764758       0.00667749       0.04329288       0.22239396
O      -18.14708393      28.07651258     -16.99192439      -0.09909224       0.76097103      -0.35121329
H      -17.31001445      27.83365868     -17.44886684      -0.15316832      -0.08028920      -0.00114338
H      -17.99958232      27.84515036     -16.09612906       0.05717088       0.21253867       0.00967104
O        3.29357193      25.92663184      -7.50355656      -0.24361607       0.95108798      -0.17233114
H        2.88411680      26.21204257      -6.67891513      -0.16601407      -0.15575477       0.16709937
H        3.63073054      26.72686720      -7.96333082       0.26394546       0.04825130       0.00420020
O      -18.92043842      20.65224442       3.53572026      -0.78255648      -0.26203883       2.00679330
H      -19.01007946      19.90652753       2.93587282       0.06396001      -0.14128771      -0.24552304
H      -19.23932856      21.42870760       3.08658989      -0.03082790      -0.11368376      -0.07671469
O       11.62385127      20.02244500       6.88409834      -0.12950580       1.08387930      -0.39892552
H       11.64472958      20.85008299       7.44404225       0.12185991      -0.02818169       0.03002794
H       10.87336153      19.38568844       6.98474109       0.29395984       0.18457840       0.06674011
O       -9.91994643      -8.07107202       4.81390344       0.43914515      -0.99901500      -0.13525410
H      -10.51428184      -7.74840251       4.13088358      -0.06631783      -0.13137852      -0.34424722
H      -10.35030006      -8.75985280       5.37744350       0.10087667       0.29706731      -0.34177772
O      -25.02341173       3.32710938       9.34235784       0.29115442       1.28984506       0.11948433
H      -24.85750667       2.45344827       8.99710125      -0.08646431      -0.04806011       0.18434304
H      -24.32608551       3.55086793      10.04745800       0.02897804      -0.21408565       0.13520368
O      -12.93961990      -7.00238966      19.17727128      -0.53170869      -0.41908881      -0.46866527
H      -12.49180681      -7.78554764      19.48145797       0.03719501       0.12537629       0.07348709
H      -12.91130476      -6.92880195      18.22029025       0.28869836       0.07948167       0.02199535
O        7.23023731       7.72449133      19.07409109       0.26096105      -0.44160076       1.04696224
H        7.65411415       7.06328150      19.61881974       0.12721653       0.12073686       0.10588761
H        7.62036548       7.55762092      18.23709233      -0.00494132       0.03633661      -0.05589506
O      -11.31522525      -2.77102904      19.08481058      -0.27213935      -1.09042692       0.99922492
H      -10.56249300      -3.35647814      19.07797015      -0.18965644      -0.05060222      -0.04866228
H      -11.32292498      -2.39618790      18.18017218      -0.07628973      -0.02065442      -0.02771299
O       23.51461554       4.65608410      19.86923077       0.62303035      -0.12317975       0.03878725
H       23.13026078       4.45893751      19.00660188       0.05299204       0.05841149       0.09661984
H       23.38068631       3.91609466      20.44909416       0.08401019       0.17348945      -0.02709716
O       -5.23282089     -18.13904979      -4.07309885       1.26785312       0.01390391       0.28296729
H       -4.50009804     -17.60638383      -3.68805158       0.14747095      -0.02006895      -0.17191275
H       -4.90176113     -18.66710321      -4.81342995       0.03279342       0.14566738      -0.00829632
O       28.09606209      -8.15677564      -5.77105740      -0.35393293       0.67972327      -0.29857919
H       29.04386103      -8.29548400      -6.04098161       0.18992319       0.09261202      -0.32984137
H       27.90418791      -8.85366119      -5.15548272      -0.20882515      -0.10699390      -0.14081409
O        7.22697299      -2.17607858       7.31721160      -0.46171505      -0.78021595       0.20313322
H        6.84285542      -1.35050301       7.62830783       0.05263181      -0.02094669       0.11323660
H        7.95192317      -2.42455118       7.96185431      -0.04686721      -0.25806802       0.09147117
O      -18.46725307      -1.14258881      24.46504675      -0.23824200       0.24320435      -0.39163909
H      -17.95921005      -1.36246344      23.63856857       0.16972172      -0.18293475      -0.01616754
H      -18.11402880      -1.73145149      25.12898496       0.15645133       0.14138183      -0.06643815
O        4.28575094      -5.34769225      -5.87172709      -0.56206624      -0.86749633      -0.28296237
H        4.10107657      -6.10478337      -5.23648286      -0.08590799      -0.16870285      -0.01839963
H        4.81929739      -4.63214099      -5.48133568      -0.16151487      -0.02300526      -0.23641041
O       13.15546694       8.51536211       6.75711967      -0.79176557       0.75959090       0.53433719
H       13.49848270       8.74001956       7.62487894      -0.10135733      -0.52159748      -0.24433183
H       13.14619990       9.35313855       6.26344883      -0.05605371       0.33189437      -0.42324653
O        4.48402697      11.29824966      -4.79125312      -0.25763121      -0.16473474      -0.63171206
H        3.92392402      11.08642324      -4.04439614       0.06421570       0.14824035       0.12708990
H        3.88995194      11.70387695      -5.41571839      -0.14841674      -0.21757018       0.17987488
O       11.25523635      28.79992937      15.41729618      -0.17534937      -0.68400931       0.06014902
H       11.83513788      28.27114099      16.00224436      -0.06621597      -0.32280098      -0.17563670
H       11.25880829      29.66560987      15.82367716      -0.02983759       0.10601774       0.05205950
O       -4.96726279       4.92148122       0.84094980      -0.68163061       0.40437991      -1.15076162
H       -5.38741200       5.74920858       1.06803151       0.05938367       0.21639758       0.05775610
H       -5.77438334       4.35798575       1.04200473       0.23242268       0.20199584      -0.12691257
O        6.30054900     -16.87485461       7.99772611      -1.02194088       0.57701042       0.41126794
H        5.94965731     -16.01882568       8.16833114      -0.04175961       0.00670589      -0.05738637
H        6.39096855     -17.27362084       8.85219350       0.03087557       0.07369191      -0.16792980
O        1.69165260       8.65976661      21.85130639      -0.44543282       0.10275342      -0.84512123
H        1.76164826       8.01742200      22.58707836      -0.08973998       0.11873133       0.04672861
H        2.41661238       8.40111279      21.24555189      -0.10157752      -0.19959920       0.02980698
O       21.73635313      24.30080119       0.89760084       1.25570544       0.43872948      -0.47260329
H       22.53700640      24.67071152       1.25511495      -0.09239785       0.01720824      -0.14414855
H       21.69167942      23.40316394       1.23605667       0.10692217      -0.08332069      -0.06086374
O       12.20668933       6.61139252     -16.56113111      -1.19456419       0.73638662       0.62484234
H       11.98022125       5.70240146     -16.16567350      -0.24576783      -0.20276219       0.24625506
H       12.28398699       6.48515856     -17.51205422       0.02983850       0.13161817      -0.20071407
O       -6.93301871      23.04801727       3.08804125       0.89485270       0.47469707       1.26328419
H       -6.52776619      23.41602087       2.33611491      -0.24481114      -0.26139853       0.19034837
H       -7.00255248      23.77885172       3.75831287      -0.00277785      -0.42640952      -0.26205156
O        5.51052123     -15.44463280      18.45034933       0.95457080       0.00168051       0.18829568
H        6.21058090     -15.20620473      19.04804644       0.22890035       0.16557413      -0.02743694
H        4.93618365     -14.67798755      18.44694979       0.02823693       0.07435761       0.03115202
O        1.13324157      19.98122078       1.78407763      -0.39039455       0.86893781       0.17215956
H        0.30194769      20.19824281       2.28803789       0.08027114      -0.05623712      -0.04327685
H        1.14925803      20.44098164       0.95592389       0.19129892       0.05002497       0.08950842
O       -4.92044660      -7.28796540       7.58615196       0.98534862       0.20449431       0.80660097
H       -4.22899731      -7.67859127       7.02975237      -0.14370072      -0.04414031       0.04853152
H       -5.82433230      -7.45422430       7.31566457      -0.33316766       0.04306503      -0.04952029
O       -2.88378537       2.29957075       7.91770083      -0.27190752       0.47270133      -0.40480738
H       -2.39072306       2.54134467       8.73329865       0.01261581       0.04716768       0.06139922
H       -2.42209135       1.55324962       7.51022132      -0.06254627      -0.01547478      -0.17919821
O       14.36309954      -6.07851344      -2.19071769       0.15431144      -0.80370884      -0.21662958
H       13.59766274      -6.52009720      -2.51803996       0.08028944       0.20789798       0.36956676
H       14.13933722      -5.64741965      -1.36363684      -0.19822216      -0.15306426       0.12699819
O       11.37151391       3.89670299      22.52579429      -0.43620368      -0.74087128      -0.31004020
H       11.01631592       3.97141527      23.44152557      -0.25535831      -0.06757179       0.13916904
H       12.30381508       3.75553255      22.52808891      -0.08968822      -0.09718293       0.01802069
O        8.00860130      14.51364105      24.78904441       0.36742615      -0.71373478      -0.71997511
H        8.76644795      15.06290432      24.87005057      -0.02718452      -0.19913601      -0.08519180
H        8.21256471      13.53768120      24.90620760       0.07398630      -0.24134677      -0.08260081
O       -8.62465877       4.70785835      10.93459153       0.11278673       0.33982174      -1.39271460
H       -7.98227771       5.39549710      10.99825385      -0.05914863      -0.18176168       0.03426100
H       -8.86105044       4.34863217      11.80412819      -0.03408376      -0.24823151       0.16266748
