192
Lattice="13.288974971199256 0.0 0.0 -5.291962870423057e-07 13.288974971199256 0.0 -5.291962870423057e-07 -5.291962870423057e-07 13.288974971199256" Properties=species:S:1:pos:R:3:momenta:R:3 step=100 time_fs=10.0 phase=production pbc="T T T"
O       10.26481099       0.36603718       9.49555462       1.66916251      -0.05438597       0.32727676
H       10.93455945       0.49413155      10.15663847      -0.04839916       0.75695529       0.26660481
H        9.45779545       0.52067427       9.91949691       0.37289483       0.29078464      -0.18237885
O       11.34012890       2.59209328       2.51807503       0.70641612       0.44632783       0.52948347
H       10.69173563       3.16396455       2.11462301      -0.01968658      -0.08271687       0.03306892
H       12.19942931       3.01521376       2.36597610       0.02044792      -0.09546459       0.21430720
O        3.06211443       8.23489973      10.81660508       0.77819121      -0.52994968      -1.35009625
H        2.13436274       8.32343277      10.65140282       0.03494451       0.28245292      -0.16448091
H        3.55298470       9.00741389      10.56907512       0.12744145      -0.08264892      -0.41778755
O        8.87497551       6.25905741       7.61771180      -0.35734267       1.21621397       0.70976335
H        9.27636936       5.88658736       8.40644888       0.00883913      -0.03575775       0.13562669
H        7.92547899       5.93658907       7.53916559      -0.06179320      -0.10696936      -0.01076482
O        6.69235580      13.51341282      -0.02332331       0.67764808       0.73965336      -0.89228097
H        6.57678045      12.52573357       0.05885933      -0.14982262       0.15006411       0.50948595
H        7.14627714      13.76484297       0.75797105      -0.12294941      -0.07224786       0.23528763
O       12.52485789       6.82166395       9.60829786       0.14014749      -0.91481877       0.15250381
H       11.74969767       7.18232301      10.04744404      -0.09661756      -0.16506323      -0.20702776
H       12.99540969       7.32778069       8.92495964      -0.06922144      -0.23359184      -0.03350498
O        7.75556049       9.79199384       5.20008373       0.49702001       0.32891947      -0.59461209
H        7.42339376       8.90826319       5.45484013      -0.29516273       0.19159923       0.46552625
H        7.85370850       9.64725592       4.28806072      -0.46743694      -0.11067436       0.01741643
O        0.59862009      12.80915441       3.26833065      -1.42362807       0.40982523      -0.15880208
H       -0.36858303      12.67882133       3.17402036      -0.02314327      -0.12901525      -0.27247642
H        0.98051676      12.76787283       2.38642579       0.24299521      -0.39087098       0.30622669
O        8.96958754       8.52123404       1.42741870       0.59656057       0.10330922       0.59968570
H        8.92796043       8.60454920       0.45318688       0.02883899      -0.23984236       0.02626434
H        9.18066057       9.47947704       1.77846429      -0.09286138      -0.41125863      -0.41069248
O        3.62596847       7.80520963       3.71674646       0.75286447      -0.76311108      -1.57694104
H        3.72626466       7.29979632       4.53932002       0.35503074       0.54322460       0.08307402
H        3.11177190       7.19856911       3.22580472       0.46497642      -0.31160183       0.25705016
O        9.78499285       6.66248391      10.72049880      -0.29670041       0.52459261       0.51496657
H       10.15946576       5.80358289      10.80054616      -0.21806023       0.16265218       0.38501919
H       10.15385151       7.33027365      11.29463480      -0.13771826       0.01173362      -0.04758810
O        2.81826369       1.82215080       6.18003181       0.39395786       1.04297864      -0.88418495
H        3.73332044       1.61626969       6.16096313       0.28021663       0.25257352      -0.23994946
H        2.20674838       1.14462538       6.46770950      -0.12399505      -0.07624756      -0.14613965
O       10.97802191       3.05782303       5.42680187       0.82419407       1.06551812       1.19054775
H       10.87695504       3.76982792       6.00723376       0.31728465      -0.26961385       0.24571103
H       11.73206268       3.01040973       4.86889393       0.17611807       0.06756337      -0.03542001
O       11.57736319       3.86833291      11.23900119       0.18403282      -0.02550439       0.61961185
H       11.92860217       3.82247191      10.37237716       0.01146634       0.13651146      -0.15089371
H       11.64400169       3.05168560      11.70054894      -0.19561036       0.06955329       0.00247062
O       11.87881348      10.86085157       7.36573690      -0.50208751       0.70632299       0.15368433
H       11.74637971      10.20216968       6.68699705      -0.01105641       0.03164946       0.07371027
H       11.87941979      11.76509335       7.08523475      -0.17321527       0.04191760       0.04917979
O        3.83434087       7.69492293       0.32558839       0.84608168      -0.16588485      -0.44337620
H        3.99577288       7.43749097      -0.58154288       0.01299758       0.02743218       0.21757669
H        4.58782026       7.53559978       0.88580320      -0.13730186      -0.01120866      -0.07909321
O       11.64914342      12.55133690      12.85185598       1.50640491       0.47904422      -0.33935222
H       11.09207588      11.99192105      12.28261443       0.51225676      -0.18760371      -0.10707536
H       11.41795838      12.34330106      13.75112906      -0.19370242       0.26403118       0.13028611
O        3.18187697       9.95042551       1.54502733      -0.46934262      -0.52390661      -1.03884999
H        3.05211239       9.58146096       2.42606571      -0.13346560       0.69870572       0.22856769
H        3.43522602       9.14055750       1.15477556      -0.00898853       0.11017262       0.23720520
O        0.20026433       9.88855393      10.53353111       1.08764539       0.07974541      -1.05268285
H        0.67297487       9.71881821       9.72632371      -0.15766241       0.26023528       0.05213490
H       -0.43250411      10.60622793      10.61276541       0.15631410       0.19923110       0.31601840
O        1.55776877       2.08228881       3.61125651       0.27521782       0.43229018      -0.50091473
H        1.58949513       1.12215783       3.53146418      -0.30109844      -0.09995043      -0.04093037
H        1.71478320       2.42131266       4.49221213      -0.08264179      -0.05483377       0.10221547
O        1.00816108       7.32978069      13.09065551      -0.76508177      -0.96845662      -0.35178932
H        0.80687245       6.63851900      12.47443357       0.14778773       0.10076365      -0.17557459
H        1.94060892       7.32593810      13.22452325      -0.18683748      -0.25048545      -0.24116665
O        0.66068080      12.42362608       6.00241094       0.67556278       0.14457258       0.45924883
H        0.91296164      12.22314605       5.11749487       0.05293155      -0.38607590       0.23262068
H       -0.11846620      12.97589803       6.11872006      -0.25920455      -0.70814417      -0.36243541
O        1.68091429      11.66405227       8.25124236       1.35556320       0.57469668      -0.03230414
H        1.39360465      11.82575573       7.36502832      -0.00545250      -0.04339646       0.00691342
H        1.64198457      12.35455521       8.87824909       0.22413058       0.20090316       0.12922275
O        0.84556619      13.26783281       0.41394008      -0.47290380      -0.32734597      -0.46731597
H        1.56493185      12.71239801       0.14009350      -0.00444789      -0.00690120       0.33249018
H       -0.03858234      13.01651698       0.11837107       0.07447082      -0.03571357      -0.05159213
O        6.70086273       0.93813150       5.94152464      -0.12307320       0.26747239       1.48088580
H        7.09886859       0.06926635       5.79726338      -0.12086217       0.12631997      -0.08200985
H        7.08231140       1.64314463       5.39711682      -0.25762932      -0.00378635       0.17186486
O        0.81240974       7.67923462       4.69214334      -0.15044567      -0.64282477       0.48615903
H        2.84698635       8.52743833       4.28973514      -0.62354111       0.59792404       0.52624760
H        0.90065792       6.86444467       5.17829054      -0.15612468       0.07540225       0.12487756
O        5.67997131       2.91559083      13.00413747      -0.54629755       0.62565356       1.25896565
H        5.60006111       2.04269709      13.37039698      -0.31743446      -0.11138780      -0.35304538
H        5.38494311       3.54483884      13.65379626      -0.35607839      -0.07229072       0.22882523
O        5.69321230      12.43829163       8.54912617      -0.45631360       0.57488528      -1.23039315
H        6.02861718      12.35300389       7.65949690       0.25489693      -0.39132294       0.18155565
H        5.22978898      13.25543643       8.78387854      -0.07993254      -0.02411305      -0.44321562
O       11.37256241       8.92608450       5.07109802      -0.02260502       0.04062594       0.27719371
H       10.82299860       8.16698626       5.13479130       0.02926630       0.03585577       0.29192663
H       12.23495119       8.84201557       4.75629938       0.05122324       0.39109142      -0.16160231
O        9.91120718       6.58561398       2.95072669      -0.24083522      -0.58016152       0.37523861
H        9.40339506       7.27832390       2.42811007      -0.18619792      -0.29560383       0.21783219
H       10.82303587       6.52814890       2.66126666      -0.28116855       0.31454657      -0.17437059
O        3.74239059      10.45197201       9.49000403      -0.05886408      -1.43916010       0.84336156
H        4.52932497      10.99479078       9.35351026       0.28758888      -0.50995343       0.25225395
H        3.08010684      10.48206191       8.78258547       0.29069248      -0.21775357       0.01881291
O        7.20519100       7.57576198      11.48165514       1.20721293       0.06005227       0.86756154
H        7.12177066       8.54785704      11.62535499       0.24275994      -0.09695246       0.01454323
H        8.03306780       7.34669555      11.07646277      -0.00355236      -0.00891382       0.12244592
O        4.92269086      11.00233414      12.67426515       0.02716799       1.27522019      -0.57944162
H        4.26670399      11.17570228      13.34790906       0.10615748       0.31227981       0.10422784
H        4.72107613      11.41974565      11.83106750       0.27694780      -0.17684902      -0.17433633
O        8.09873385       4.54834104      12.67147972      -0.13430656       0.31071703       0.76897574
H        7.12734127       4.42294345      12.69311261       0.08222330      -0.30542155      -0.18572210
H        8.28030947       5.31402732      12.09791376       0.23436383      -0.31672542      -0.18686978
O       11.34229501       8.35894917      11.77217805      -1.01550829      -1.28491689       0.31904132
H       12.06508188       8.56347267      12.33486637      -0.47601924      -0.01377876       0.26294704
H       11.17017101       9.06140510      11.18999211      -0.05340780       0.34321107       0.47770815
O        5.18859946       4.12072239       2.15878244      -0.18836975      -0.11992556      -0.33031123
H        5.63048079       3.78076584       2.91876395      -0.09939132       0.24139513       0.18554017
H        4.29923342       4.29778318       2.45548249       0.00313113      -0.24713456      -0.11352478
O        1.82942248       1.07564399       8.88703114      -0.02261647      -0.26983855       0.08275393
H        2.82922526       1.07693652       8.86720252      -0.04558476      -0.05286241       0.26827344
H        1.62056624       1.49399134       9.73800130      -0.44519270      -0.43521732       0.03454255
O        4.59205298       6.18540142      10.33085563      -0.38422399      -1.58202380       0.92249023
H        3.95752684       6.91370644      10.07177737       0.11853078      -0.26392166      -0.33058939
H        5.42623002       6.62895577      10.59307883      -0.17254755       0.01631799      -0.31971735
O        9.00059696      12.52011654       5.56523673      -0.23994885      -1.04273721      -0.38765212
H        8.51832011      11.70130191       5.58266871       0.11028675      -0.06457278      -0.16584489
H        9.93601400      12.44080042       5.80974614      -0.33706171       0.06848188       0.71270555
O        6.24831517       5.27606718       7.96580477      -1.33800034       0.60638816      -1.01185783
H        5.40456230       5.53811924       8.29906538       0.04479169       0.18523846       0.18783654
H        6.07860362       5.00947164       7.06268001      -0.09617471      -0.08786858      -0.16796351
O        9.83809389      10.54968906       3.21122124       0.79139554      -0.28644211       0.64499303
H       10.51929007      10.10101815       3.71044298       0.18225834       0.00069057      -0.13709706
H       10.54970825      12.24060657       2.64248564       0.23771055       0.42767940      -0.04369579
O        7.36843073      12.82538355      10.61098981      -0.75470249       0.23952784      -0.59597682
H        7.03156968      13.39926296      11.27810659      -0.06366455       0.06294470      -0.07443207
H        6.97921588      12.69898557       9.71897326       0.02274595       0.08750426       0.11800143
O        0.96135900       5.49181667      10.99994474       0.02479240       0.62103965      -0.81777946
H        0.34007360       5.67737677      10.31059316       0.20280612      -0.52721256      -0.21450439
H        1.75704269       5.35212395      10.48261400      -0.01502244      -0.42856854      -0.10760301
O       10.76519301       5.89363823       5.61891500      -1.90451491       1.31305378       0.19818861
H       10.13830270       6.70561185       4.13495358       0.65615568      -0.88439793      -0.86560742
H        9.93635978       5.98108306       6.09744952      -0.21856621      -0.06225769      -0.18918604
O        1.29825107       4.99143090       5.61585923       0.82819233       1.00587324       0.69401176
H        1.14920353       4.18956877       5.06845489      -0.02714596       0.14231966      -0.03820999
H        0.73512675       4.95980567       6.34943116       0.12295471      -0.10207002      -0.06496002
O        5.91776240       6.94326824       1.73825660       0.50532532       0.42347085      -0.20090806
H        6.51387643       7.45161398       1.21342479       0.03006381       0.03999965       0.12230115
H        6.18474004       6.02432982       1.78152282      -0.14443829       0.11617193       0.14018449
O        9.24988707       4.19999816       1.78477779       0.74417273       1.03304724       0.20702739
H        8.64571751       4.30384449       1.06014529       0.21475425      -0.20669609      -0.07278274
H        9.55628354       5.08087316       2.04403872       0.49547657       0.18538135      -0.07429244
O        0.95102186       2.58223589       1.17575244      -0.07465211      -0.56743450       0.26246381
H        0.94508319       1.72244042       0.64551737       0.20292794      -0.00895359      -0.28363276
H        1.51122434       2.43317459       1.91218531       0.01119580       0.23799321      -0.04562319
O       12.91543315       4.77196666       7.65266004       0.59615787       0.06401532      -0.80597125
H       13.02133847       5.38897948       8.39320387       0.12836931      -0.06099733      -0.02221198
H       12.15226804       5.01236110       7.16494993      -0.08584357      -0.16865634       0.25661538
O        7.55629861      10.02988808      12.79207120      -0.93904090      -0.54244241       0.33123742
H        6.64146855      10.22787456      12.80707975      -0.07389592       0.10450825       0.09275630
H        8.05906201      10.54659550      12.18234166       0.01869294      -0.17085749      -0.07345810
O       10.92206530      -0.02168862       2.78386745      -0.06131814      -0.56952756      -0.15644048
H       11.14864073       0.55524047       2.13536199      -0.19810438       0.11769860       0.30933304
H       10.02307477       0.12396163       3.09480989       0.23791445      -0.23095619      -0.21719900
O        1.61292279       2.37105643      11.23196429      -0.10922096      -0.51403958      -0.76683513
H        1.95126103       2.13997983      12.08238033       0.12253585      -0.16322576      -0.11608710
H        1.72322363       3.26844947      10.95775167       0.47915188       0.06719232      -0.27045009
O        4.72717503       1.85409579       8.18443203      -0.78729561       0.53073699      -1.00133330
H        4.45247685       2.32544390       8.95383366      -0.06976756      -0.25731697      -0.01112174
H        5.59430668       2.16280965       8.00487727      -0.28630138       0.02121844      -0.17701406
O        9.47586363      11.51839091      11.41427165      -0.71103545       0.41221451      -0.89974359
H        8.88358831      12.16486939      11.03395323       0.15107616       0.10238773       0.21535723
H        9.88382183      11.05877685      10.63568625       0.07425764      -0.10608539       0.13436265
O        1.71044318      10.83224727      12.68648252       0.62208711       0.37417664       0.34242976
H        1.84896745      10.18646485      13.38515285       0.24199612       0.02084040       0.05289581
H        1.05677273      10.50946213      12.10236794       0.27309892       0.31269505       0.34468942
O        8.51875555       0.38813271       3.17151149      -1.28087554      -0.16899443       0.41489303
H        7.88153493       1.05278932       2.96382196      -0.01244928      -0.26446680      -0.29057910
H        8.47947855       0.28609778       4.10988531      -0.14118307       0.03374904      -0.25469581
O        8.24541796       3.06826758       4.09382587       0.67444846      -0.54327973      -1.12899904
H        8.33162108       3.74475515       3.43173194      -0.51979640      -0.33786790       0.22995897
H        8.98676352       3.25459714       4.66617449      -0.37634542       0.61076497       0.17258313
O        2.43546203       4.94721647       1.90609353      -0.85494013      -0.21556324       0.03636150
H        2.00588999       4.17351179       1.59032359      -0.18101913      -0.02871960       0.06187859
H        2.77556693       5.38865142       1.09128216       0.06474097      -0.10374949       0.00048226
O        0.65977684       8.74350431       8.04148062      -1.37759583       0.35522487      -0.31108994
H        1.29899419       8.37325097       7.48531481       0.08990039      -0.00196102      -0.14645060
H        0.06041592       9.31305530       7.51174222      -0.09330666      -0.46182875       0.22954334
O       11.88997060       0.74236025       6.79746849       0.22350056       0.81437101       0.00439068
H       11.29172414       0.99011113       7.48800540       0.07714272      -0.29615272       0.10577447
H       11.72851225       1.34415833       6.05938015      -0.33794748       0.20342521       0.13523814
O       12.55021328       7.11044831       2.33230264       0.84458431      -1.15761394      -0.03487457
H       13.17286849       7.11878059       3.05311713      -0.30864793       0.01250769      -0.09003667
H       12.92744289       6.58465110       1.64224644      -0.33818186      -0.34657820       0.02775651
O       10.55771822       9.36325035       9.34041283       0.11644138      -0.45492209      -0.38147790
H       10.21920253       8.51945964       9.02015878      -0.55871039       0.37787045       0.04163303
H       11.03982580       9.71959082       8.58781838      -0.13658653       0.18255580       0.19273308
O        3.99376453       4.46506741       5.54845691      -0.71434551      -0.10485319       1.26833110
H        3.78086041       3.56433668       5.47239373       0.07861317       0.02979208      -0.05144353
H        3.23529388       5.03107498       5.67780909      -0.12890526      -0.17782541      -0.02075444
O        4.61400406       3.47101643      10.41820120       0.96465656      -0.27165697       0.36229727
H        4.63708077       4.40188303      10.51412765      -0.01728049       0.12358801      -0.46646840
H        5.38992213       3.05008711      10.80940616      -0.31199389      -0.09857795       0.61361820
192
Lattice="13.289006969400072 0.0 0.0 -5.291975612812218e-07 13.289006969400072 0.0 -5.291975612812218e-07 -5.291975612812218e-07 13.289006969400072" Properties=species:S:1:pos:R:3:momenta:R:3 step=110 time_fs=11.0 phase=production pbc="T T T"
O       10.27594415       0.36552331       9.49751337       1.98457894      -0.10873897       0.32018827
H       10.92984899       0.56962520      10.18072499      -0.06225234       0.78540313       0.20445340
H        9.48126922       0.55176040       9.90517883       0.08530905       0.34904669      -0.10546920
O       11.34477069       2.59475878       2.52134592       0.78133456       0.41315792       0.53594845
H       10.68688508       3.15840063       2.11611542      -0.07810456      -0.03239994      -0.00134597
H       12.20021074       3.00452628       2.38725425       0.00690200      -0.11711504       0.21909473
O        3.06711522       8.23141436      10.80844205       0.84660000      -0.59643143      -1.32432999
H        2.13559639       8.35222129      10.63548844      -0.00068884       0.30594657      -0.16053482
H        3.56520585       9.00310776      10.52606356       0.11543095      -0.02024493      -0.46024490
O        8.87228395       6.26630919       7.62208631      -0.52074022       1.13538032       0.71963050
H        9.27408395       5.88429222       8.41736890      -0.06113954      -0.00657836       0.07778412
H        7.93033502       5.92914979       7.54009657       0.15997811      -0.04541771       0.02945785
O        6.69636918      13.51726131      -0.02904209       0.63703168       0.51641333      -0.94680947
H        6.56195638      12.55062118       0.10873702      -0.15731363       0.34859789       0.50926180
H        7.13708339      13.75876380       0.78483619      -0.07603256      -0.05493822       0.29627579
O       12.52596617       6.81600984       9.60911822       0.21046821      -0.94235896       0.11442795
H       11.74149055       7.16654314      10.02622605      -0.07775072      -0.15643749      -0.22656400
H       12.98671004       7.30572507       8.92438559      -0.10388537      -0.21204588       0.01251401
O        7.75844886       9.79361798       5.19720834       0.43825587       0.18981390      -0.35482993
H        7.39552115       8.93487174       5.50203242      -0.27348614       0.35724302       0.49611866
H        7.80993720       9.63625174       4.27543616      -0.43513378      -0.11696626      -0.26192350
O        0.58950489      12.81174797       3.26729415      -1.54442620       0.42649545      -0.16985573
H       -0.36475483      12.66688057       3.14776273       0.09467532      -0.11692218      -0.26587497
H        1.00448717      12.72759439       2.41769013       0.25488568      -0.43719742       0.32333183
O        8.97333838       8.52294920       1.43091712       0.61249288       0.41572005       0.53955696
H        8.93102962       8.57978542       0.46297114       0.03179422      -0.27001838       0.15574341
H        9.16900968       9.42552327       1.73523573      -0.13964443      -0.66224033      -0.46019240
O        3.62981394       7.80129294       3.70829879       0.43925446      -0.41880257      -1.12697627
H        3.76046459       7.35822139       4.54391666       0.34088359       0.65343542       0.02479867
H        3.15568399       7.16368278       3.24408536       0.41736599      -0.41013273       0.11907467
O        9.78272576       6.66604797      10.72342288      -0.45791477       0.63405840       0.41983464
H       10.14156319       5.81372233      10.84049772      -0.14483013       0.03274156       0.43555461
H       10.14195084       7.32927865      11.29308290      -0.10159514      -0.02209298       0.02271183
O        2.82039946       1.82868863       6.17451861       0.32191373       1.06751148      -0.91365701
H        3.76323194       1.63796070       6.13842515       0.29742820       0.19835404      -0.22130849
H        2.19679440       1.13750542       6.45321600      -0.06710915      -0.05777842      -0.15666577
O       10.98290868       3.06349155       5.43375560       0.77975110       0.77399930       1.05117160
H       10.90915802       3.75353087       6.03709683       0.34341919      -0.06212838       0.37093111
H       11.75155599       3.01943444       4.86417863       0.20270625       0.11800210      -0.04593083
O       11.57834508       3.86869105      11.24296216       0.13833505       0.14487869       0.62911656
H       11.93168746       3.83317402      10.35529154       0.03882414       0.08308405      -0.16872922
H       11.62570132       3.05348292      11.70075412      -0.17936990      -0.03890531       0.00278818
O       11.87571716      10.86495993       7.36691951      -0.51545476       0.62644482       0.22748633
H       11.74438442      10.20563151       6.69113884      -0.03048858       0.03657241       0.00919455
H       11.86218576      11.77126216       7.08912353      -0.18129017       0.08231129       0.03092626
O        3.83924092       7.69395207       0.32294686       0.72897183      -0.14548788      -0.39914493
H        3.99782420       7.43935233      -0.56469153       0.03281037       0.00200823       0.09803265
H        4.57906692       7.53284779       0.88100337      -0.02848020      -0.04768234      -0.00660824
O       11.65840170      12.55428631      12.84969382       1.49916986       0.47143888      -0.35125596
H       11.14355208      11.97460163      12.27332478       0.53934635      -0.17144395      -0.08578471
H       11.39744170      12.36862757      13.76508549      -0.22283146       0.25910689       0.13343262
O        3.17881533       9.94753402       1.53905423      -0.53541795      -0.40829159      -0.90075680
H        3.03779895       9.65528483       2.44700874      -0.16044742       0.81425935       0.19951949
H        3.43701760       9.14350167       1.17183753       0.05076076      -0.06557883       0.10779772
O        0.20666534       9.88933273      10.52749686       0.97769363       0.17658167      -0.89616946
H        0.65883866       9.74544762       9.72647065      -0.11832720       0.28143782      -0.07348875
H       -0.41351857      10.62220380      10.64240894       0.23836963       0.12106126       0.29000394
O        1.55947768       2.08479895       3.60812989       0.28102595       0.37543818      -0.51492518
H        1.55990719       1.11529551       3.52952462      -0.30598505      -0.02998806       0.00179402
H        1.70656783       2.41398551       4.50128747      -0.08709239      -0.09816000       0.07758558
O        1.00314675       7.32409705      13.08869399      -0.87754448      -0.89061126      -0.30005052
H        0.82068979       6.64323522      12.45414521       0.13201589      -0.00396649      -0.24191230
H        1.92811387       7.30203965      13.20194513      -0.05801456      -0.23804670      -0.21924413
O        0.66486053      12.42457538       6.00551423       0.70076898       0.14649726       0.54780191
H        0.91932718      12.18389950       5.13501243       0.07957404      -0.42206646       0.12228633
H       -0.14512321      12.90850252       6.08392082      -0.30480239      -0.66420534      -0.34882335
O        1.68943085      11.66707212       8.25132221       1.41346925       0.42450580       0.06698770
H        1.39201884      11.82351786       7.36154801      -0.02444871      -0.00349438      -0.07010275
H        1.66306105      12.38030224       8.89221023       0.20941405       0.30333190       0.13366913
O        0.84256063      13.26604526       0.41110793      -0.50181598      -0.25702867      -0.45125177
H        1.56565503      12.70831585       0.17099080       0.02501482      -0.08135375       0.29986574
H       -0.02992264      13.01271933       0.11257511       0.09230898      -0.04587119      -0.07050244
O        6.70005547       0.93986144       5.95062287      -0.16079347       0.29512995       1.49332863
H        7.08713575       0.08393815       5.78859142      -0.11344487       0.15915397      -0.09912665
H        7.05676347       1.64061130       5.41600268      -0.25826582      -0.03230032       0.20283517
O        0.81141940       7.67539258       4.69505589      -0.17280242      -0.61123876       0.45693437
H        2.80165543       8.57059665       4.33040618      -0.22447261       0.18814101       0.23940259
H        0.88624806       6.86829628       5.19352072      -0.13883983       0.00251552       0.18930422
O        5.67669864       2.91955558      13.01174450      -0.53037764       0.67229433       1.22182344
H        5.56926310       2.03050890      13.33618922      -0.31471658      -0.13515079      -0.34997843
H        5.34929367       3.53781859      13.67813750      -0.36990648      -0.08442839       0.25711809
O        5.69036883      12.44175840       8.54193661      -0.47057166       0.53277590      -1.10990598
H        6.05251092      12.31577482       7.67717874       0.23850482      -0.37332553       0.16991925
H        5.22308156      13.25314961       8.73642214      -0.06441060      -0.01168174      -0.52775282
O       11.37186261       8.92707601       5.07298084      -0.19222564       0.27149177       0.32316096
H       10.82558734       8.16568940       5.16421596       0.02751666      -0.06041435       0.30973497
H       12.25025981       8.87629075       4.73679357       0.23577979       0.31243319      -0.22951835
O        9.90932434       6.58229734       2.95214200      -0.40284010      -0.52771082       0.06068716
H        9.38935312       7.24440461       2.45286544      -0.11058665      -0.38355825       0.28219454
H       10.79865382       6.55999536       2.64251971      -0.19540138       0.34036740      -0.22581736
O        3.74209952      10.44314537       9.49517549      -0.02504450      -1.44741195       0.85243336
H        4.55445551      10.94405887       9.37695517       0.22966982      -0.52938404       0.22755113
H        3.11038640      10.46314234       8.78567840       0.31500533      -0.17053681       0.02664349
O        7.21231145       7.57657183      11.48723349       1.10375009       0.18202892       0.94066117
H        7.14732201       8.53222642      11.62615479       0.27781744      -0.20584997       0.00417748
H        8.03610771       7.34567434      11.08580104       0.07091485      -0.01506240       0.06562941
O        4.92300937      11.01021567      12.67069476       0.07196405       1.28023030      -0.58130952
H        4.27707494      11.20722267      13.35582828       0.11045172       0.33288631       0.05085105
H        4.74661754      11.40103508      11.81607145       0.24407423      -0.20358544      -0.13936612
O        8.09765481       4.55042502      12.67631845      -0.21387843       0.35549579       0.80404060
H        7.14137848       4.39323091      12.67374404       0.19458394      -0.30424617      -0.21206352
H        8.30174901       5.27860557      12.08148949       0.20655728      -0.40146887      -0.15748464
O       11.33602034       8.35059430      11.77437356      -1.05129450      -1.42521516       0.36093425
H       12.02280289       8.56127212      12.36508091      -0.38058335      -0.03083725       0.36724454
H       11.16267748       9.10397653      11.23034827      -0.09834487       0.50972762       0.36524910
O        5.18747653       4.12002864       2.15648029      -0.17060537      -0.11472947      -0.40919504
H        5.62429232       3.80290004       2.94137696      -0.03324305       0.21733278       0.26622298
H        4.29469529       4.27442917       2.44457997      -0.10192824      -0.23117549      -0.11022812
O        1.82994254       1.07392794       8.88766819       0.17893930      -0.29328827       0.11476822
H        2.81445002       1.07246611       8.89399513      -0.24695797      -0.03901230       0.28099050
H        1.57631040       1.45082827       9.73971373      -0.46244253      -0.44792815       0.00366495
O        4.58969187       6.17629738      10.33647192      -0.40140343      -1.40795871       0.89376899
H        3.97553647       6.88156291      10.04258140       0.23897930      -0.38603005      -0.27216597
H        5.40452320       6.62774535      10.56115854      -0.24916971      -0.03112797      -0.32734678
O        8.99933429      12.51399413       5.56279981      -0.18922114      -0.95603067      -0.41333815
H        8.52937506      11.69184644       5.56717734       0.11200676      -0.13500317      -0.15207946
H        9.89934862      12.44677723       5.88029109      -0.40110282       0.05351973       0.73655737
O        6.24027619       5.27962912       7.95925028      -1.29264116       0.54733483      -1.14112560
H        5.40656100       5.55822633       8.31903590       0.00330160       0.22402035       0.21497079
H        6.06855946       5.00183681       7.04823136      -0.11016459      -0.06333190      -0.11127180
O        9.84304688      10.54807743       3.21513203       0.81675473      -0.24735474       0.62935181
H       10.53745572      10.09945472       3.69848909       0.18768596      -0.03277445      -0.10944811
H       10.56874288      12.25528158       2.63303184       0.14902291      -0.13684891      -0.15242585
O        7.36402802      12.82662323      10.60702796      -0.68024587       0.16188944      -0.67943336
H        7.02228873      13.40861630      11.27283883      -0.12349784       0.12288878      -0.04010125
H        6.98078961      12.70886057       9.73431939       0.00141697       0.11223951       0.17826646
O        0.96191231       5.49557736      10.99504893       0.16425993       0.59678030      -0.79139193
H        0.35253275       5.62815236      10.28575461       0.04906862      -0.48189123      -0.29732775
H        1.75693252       5.30961536      10.47551739       0.00628141      -0.44162634      -0.03187423
O       10.75328980       5.90181108       5.62000749      -1.97675267       1.34264720       0.15179434
H       10.20511936       6.61759101       4.06332086       0.72026655      -0.91703575      -0.55769530
H        9.91552700       5.97546254       6.08043099      -0.21257261      -0.05318172      -0.15721779
O        1.30386895       4.99751949       5.61923099       0.99971590       0.97895138       0.40537980
H        1.14684276       4.20829737       5.06851713      -0.02130943       0.23630009       0.03501581
H        0.73906658       4.94862228       6.35438214      -0.04045804      -0.12742153       0.16478717
O        5.92057252       6.94581395       1.73719845       0.39876618       0.41378831      -0.14431861
H        6.52122115       7.45814397       1.22334479       0.12120812       0.09419823       0.08026712
H        6.17104031       6.03535660       1.79513246      -0.13255741       0.09617121       0.13952397
O        9.25466070       4.20652077       1.78624838       0.81331926       1.10449934       0.27855441
H        8.66561006       4.28339932       1.04902354       0.19345246      -0.21098278      -0.15585489
H        9.60309951       5.09609631       2.03678224       0.45499412       0.10814538      -0.08200620
O        0.95022284       2.57830482       1.17659180      -0.18504955      -0.71539359       0.00954861
H        0.96545189       1.73142991       0.62410259       0.21500817       0.19375327      -0.15312250
H        1.51630286       2.45393513       1.91485884       0.09136876       0.18659069       0.09855866
O       12.91956714       4.77228733       7.64798382       0.74207106       0.03409531      -0.72511300
H       13.03343488       5.38091092       8.38898965       0.11987353      -0.10236085      -0.06185073
H       12.13717498       4.99744838       7.18716531      -0.22698424      -0.13738554       0.19732226
O        7.55072249      10.02620967      12.79433990      -0.89074725      -0.65537817       0.39143171
H        6.62789812      10.24024492      12.81567003      -0.19140358       0.14642342       0.08215536
H        8.06355168      10.53278842      12.17207877       0.06705627      -0.11779139      -0.13098818
O       10.92186282      -0.02483529       2.78397816       0.02106020      -0.44616829       0.17712837
H       11.13284340       0.58067437       2.15186406      -0.12478825       0.40463564       0.03171586
H       10.04777498       0.10692510       3.07398539       0.23002978      -0.11582222      -0.19624567
O        1.61208185       2.36771539      11.22688953      -0.15946398      -0.54957559      -0.89767873
H        1.96520508       2.12421198      12.07404083       0.16049809      -0.15758134      -0.06366552
H        1.77099729       3.27703842      10.93289098       0.49709487       0.07906862      -0.22974763
O        4.72194009       1.85694911       8.17816231      -0.93470192       0.39092681      -1.04615647
H        4.44440320       2.30388736       8.95936068      -0.09530129      -0.18413659       0.12553142
H        5.57560844       2.16901210       7.98387597      -0.08513056       0.11153350      -0.25655862
O        9.47192106      11.52047032      11.40843764      -0.57545435       0.24975973      -0.99369895
H        8.89487779      12.17790256      11.05276464       0.07140273       0.17403850       0.16354568
H        9.88775290      11.05160359      10.65508696       0.00828818      -0.04385124       0.25480415
O        1.71479439      10.83489587      12.68916817       0.81463263       0.48526263       0.54187348
H        1.87243523      10.18882569      13.39024780       0.23883150       0.02990145       0.04814080
H        1.07553767      10.53507347      12.12868296       0.09296080       0.20372965       0.17872385
O        8.51084479       0.38705157       3.17378448      -1.28587823      -0.19191608       0.30221845
H        7.87812030       1.02951091       2.93273643      -0.06835396      -0.20256069      -0.35143040
H        8.46625256       0.28684253       4.09327889      -0.13030466      -0.02144051      -0.06214533
O        8.24964087       3.06469392       4.08714300       0.69086768      -0.65313308      -1.02244790
H        8.28077046       3.71591209       3.44853323      -0.52349023      -0.22414483       0.08378808
H        8.94998177       3.31378891       4.68512846      -0.37640287       0.60250245       0.21802942
O        2.43068979       4.94646656       1.90604392      -0.71076282      -0.04825529      -0.05277740
H        1.98437228       4.16545155       1.59462418      -0.25344921      -0.12310930       0.03122270
H        2.77805047       5.37644604       1.09763559      -0.01209418      -0.14362832       0.12418157
O        0.65099772       8.74595258       8.03989583      -1.41586396       0.38317096      -0.20332148
H        1.31242569       8.37048499       7.46470943       0.15682306      -0.03850694      -0.25109820
H        0.05248118       9.26739309       7.53520768      -0.10872633      -0.43992268       0.21795247
O       11.89139177       0.74745421       6.79725568       0.23123927       0.84694011      -0.08458585
H       11.29838906       0.96105567       7.50074884       0.05660074      -0.29978052       0.15804019
H       11.69521319       1.36364412       6.07401410      -0.34426569       0.19338153       0.16690157
O       12.55501696       7.10345631       2.33194196       0.69190354      -1.12755946      -0.10922237
H       13.14606990       7.11982118       3.04966467      -0.22315282       0.00850116       0.03828671
H       12.89623606       6.54907013       1.64103320      -0.30217196      -0.38106931      -0.04749237
O       10.55850023       9.36036134       9.33817644       0.12948947      -0.48164307      -0.33556814
H       10.16315607       8.55840131       9.02340687      -0.59717500       0.40490641       0.01690630
H       11.02623375       9.73924329       8.60512093      -0.13603215       0.22381628       0.15041386
O        3.98976019       4.46516663       5.55621915      -0.59176054       0.12589104       1.25491611
H        3.78493049       3.55910329       5.46832273       0.00656739      -0.13304760      -0.03243019
H        3.22107636       5.01180891       5.67575733      -0.16714600      -0.21377690      -0.02094781
O        4.62004936       3.46866568      10.42041085       0.99533836      -0.47505594       0.34885880
H        4.63631443       4.42159311      10.46874832       0.00200999       0.25747666      -0.46575103
H        5.35683962       3.04328479      10.86998996      -0.36239056      -0.04065885       0.62938406
192
Lattice="13.289090892077894 0.0 0.0 -5.292009032673117e-07 13.289090892077894 0.0 -5.292009032673117e-07 -5.292009032673117e-07 13.289090892077894" Properties=species:S:1:pos:R:3:momenta:R:3 step=120 time_fs=12.0 phase=production pbc="T T T"
O       10.28939196       0.36481271       9.49982414       2.35663366      -0.10976625       0.43783529
H       10.92057131       0.64585912      10.19323364      -0.13507023       0.77307202       0.04009688
H        9.47431852       0.58828835       9.89841155      -0.20596976       0.39283860      -0.04838834
O       11.34959904       2.59713962       2.52467232       0.74921695       0.35581452       0.53970840
H       10.67771350       3.15700722       2.11502579      -0.10279749      -0.00228982      -0.01618943
H       12.20311507       2.99370388       2.40814095       0.06057663      -0.09984178       0.20689078
O        3.07250178       8.22785449      10.80033869       0.89780382      -0.56377853      -1.34627235
H        2.13627252       8.38261594      10.62071697       0.02483753       0.31359057      -0.14113097
H        3.57393632       9.00069157      10.48066707       0.05614683      -0.04401379      -0.46633038
O        8.86877868       6.27305190       7.62667570      -0.62404476       1.05444638       0.75943335
H        9.26430857       5.88575407       8.42095570      -0.13794324       0.03475067      -0.00235445
H        7.95503899       5.92742575       7.54471473       0.32826327       0.00428571       0.06151672
O        6.70039627      13.52010611      -0.03467344       0.67367804       0.40735867      -0.86875604
H        6.54542436      12.59022365       0.15743979      -0.18814044       0.43737552       0.48873871
H        7.12974766      13.75404208       0.81188369      -0.08274855      -0.04379242       0.24108076
O       12.52753560       6.81003060       9.60988536       0.27325886      -1.02852179       0.12391120
H       11.73362129       7.15238954      10.00384377      -0.09010833      -0.13280066      -0.23185491
H       12.97655930       7.28796832       8.92560419      -0.09955925      -0.14626667       0.00166116
O        7.76104811       9.79438984       5.19536477       0.39654128       0.04170402      -0.30547549
H        7.37058285       8.97773815       5.55036312      -0.23881077       0.51610072       0.48956959
H        7.76804280       9.62499708       4.24469382      -0.42940496      -0.11059458      -0.31505262
O        0.57974498      12.81453470       3.26638874      -1.62320624       0.45831394      -0.12590849
H       -0.35239372      12.65593862       3.12220338       0.14291437      -0.11123387      -0.26027821
H        1.03124383      12.68258355       2.44767419       0.29785190      -0.48909072       0.28685621
O        8.97699122       8.52543667       1.43395086       0.53885196       0.28275490       0.43316852
H        8.93380594       8.55154502       0.47880296       0.02170941      -0.31458853       0.14425986
H        9.15691816       9.36643654       1.69494558      -0.08844877      -0.45266860      -0.33095065
O        3.63108400       7.80069970       3.70297852      -0.03113081       0.20553321      -0.65191794
H        3.79234129       7.42568527       4.54802106       0.31924789       0.71237521       0.08242004
H        3.19197268       7.11879022       3.24996454       0.33334349      -0.50811552       0.00810277
O        9.77943859       6.67024218      10.72568604      -0.62702427       0.70224513       0.29594532
H       10.13118543       5.81004752      10.88545702      -0.07579998      -0.09586671       0.48318606
H       10.13480932       7.32746969      11.30012834      -0.04517133      -0.01246718       0.12218380
O        2.82249748       1.83511682       6.16888033       0.37222369       1.01564155      -0.93622936
H        3.78547234       1.65582370       6.11825526       0.13748832       0.17064471      -0.19154786
H        2.19543061       1.13499468       6.43660510       0.04344588       0.01031094      -0.18651456
O       10.98789626       3.06743315       5.43966319       0.83372072       0.52243673       0.86894632
H       10.94423654       3.75620594       6.07849623       0.37687647       0.09680725       0.46136458
H       11.76820589       3.03348193       4.86259691       0.12435941       0.16960204       0.02261099
O       11.57929423       3.87012144      11.24651842       0.15512164       0.30337803       0.49330725
H       11.93419920       3.83877020      10.34490201       0.00383160       0.03169245      -0.02683981
H       11.60922481       3.04437746      11.70079270      -0.16044726      -0.13944259      -0.00935779
O       11.87258750      10.86867744       7.36857381      -0.52905905       0.56529153       0.29135981
H       11.74060660      10.20940222       6.68896469      -0.04798070       0.04188808      -0.05179093
H       11.84412154      11.78037418       7.09161405      -0.19138987       0.09661017       0.02152870
O        3.84324035       7.69327038       0.32083373       0.57093321      -0.09297843      -0.28591955
H        4.00263209       7.43707429      -0.56558809       0.06571203      -0.04973374      -0.11621671
H        4.58324629       7.52626305       0.88545289       0.10864722      -0.08741251       0.09353022
O       11.66764147      12.55724770      12.84790991       1.48619833       0.46983062      -0.23971990
H       11.19649429      11.95797176      12.26565085       0.54206590      -0.17484895      -0.07521130
H       11.37556634      12.39445440      13.77366047      -0.22344159       0.27089472       0.02696651
O        3.17531256       9.94557096       1.53399456      -0.61019291      -0.25685402      -0.75518648
H        3.02098185       9.73952532       2.46446521      -0.18316540       0.90728074       0.15412162
H        3.44525089       9.12735653       1.17621936       0.11347914      -0.25722133      -0.00838240
O        0.21218296       9.89082898      10.52277362       0.82489251       0.28313948      -0.66533339
H        0.65133093       9.77340695       9.70971874      -0.03590492       0.29176415      -0.27099948
H       -0.38610272      10.62976602      10.66919197       0.31878005       0.03868005       0.25841317
O        1.56123467       2.08686825       3.60501111       0.28776066       0.29482186      -0.50667388
H        1.52996826       1.11732996       3.53185180      -0.30813811       0.07086773       0.04470399
H        1.69768906       2.40199442       4.50665441      -0.09569888      -0.14788998       0.03100132
O        0.99737070       7.31881435      13.08699802      -1.00088701      -0.85807200      -0.29040791
H        0.83229273       6.63905460      12.42844184       0.10593504      -0.07121673      -0.27677195
H        1.92990970       7.27996899      13.18233901       0.08887993      -0.21417312      -0.18388033
O        0.66939704      12.42548438       6.00910958       0.77567446       0.12382343       0.59711580
H        0.92833255      12.14108640       5.14229407       0.10181153      -0.45486064       0.03988729
H       -0.17939541      12.84746800       6.05107997      -0.39537368      -0.59215316      -0.32582690
O        1.69822604      11.66966735       8.25226181       1.44303162       0.41840364       0.22612373
H        1.38962243      11.82489344       7.35369488      -0.02011684       0.02785563      -0.07873566
H        1.68298360      12.40944863       8.90024108       0.19981392       0.27496483       0.01322775
O        0.83951978      13.26484882       0.40843110      -0.47887370      -0.15952623      -0.42139684
H        1.56998964      12.69657582       0.19853312       0.05950807      -0.15813112       0.26686123
H       -0.02250893      13.00712940       0.10408661       0.05221921      -0.07300254      -0.10573651
O        6.69876265       0.94174883       5.96010284      -0.28648689       0.31569922       1.59629919
H        7.07807908       0.09728751       5.77740027      -0.06817686       0.10181388      -0.13413616
H        7.03370224       1.64013498       5.43417867      -0.20888449       0.03757468       0.15812712
O        0.81030243       7.67174589       4.69782653      -0.19163189      -0.60325535       0.44243819
H        2.80973653       8.55593889       4.33077687       0.37466731      -0.47068195      -0.22446766
H        0.87365254       6.86621658       5.21462563      -0.12024567      -0.03500114       0.23566943
O        5.67342653       2.92393041      13.01941090      -0.55385480       0.74730354       1.26001550
H        5.53891217       2.01753580      13.30209251      -0.30770585      -0.12372645      -0.35309974
H        5.31405316       3.52629654      13.70169865      -0.34869717      -0.16075326       0.21477152
O        5.68753210      12.44482306       8.53563581      -0.46146748       0.43337192      -0.95857727
H        6.07561756      12.28029279       7.69119344       0.23589113      -0.35676509       0.11319505
H        5.21616889      13.25526469       8.68165186      -0.08237259       0.06071542      -0.59552857
O       11.37068747       8.92939667       5.07494287      -0.17971474       0.45583126       0.28993743
H       10.82975276       8.15670513       5.19483468       0.06453429      -0.11441577       0.31588542
H       12.27355536       8.90301483       4.71449057       0.19861747       0.23372139      -0.21145338
O        9.90627269       6.57893659       2.95145227      -0.59760934      -0.60210366      -0.28339870
H        9.37947181       7.20743025       2.48113233      -0.11077175      -0.35434514       0.28429989
H       10.78791619       6.59487207       2.61478241      -0.02647013       0.37655405      -0.34866177
O        3.74226341      10.43425649       9.50077248       0.07865936      -1.47218932       0.96589117
H        4.57469887      10.89221527       9.39784142       0.18935866      -0.53327243       0.19961414
H        3.13860804      10.44892363       8.78450770       0.25164778      -0.12298920      -0.06611096
O        7.21883371       7.57778350      11.49326618       1.01309302       0.16949118       0.99468266
H        7.17527996       8.51247854      11.62698306       0.29167637      -0.17322632       0.01548772
H        8.04702295       7.34352559      11.08925400       0.14724571      -0.03034206       0.00587979
O        4.92362400      11.01810995      12.66737113       0.12016066       1.26558563      -0.51881228
H        4.28870802      11.24046211      13.35702561       0.12813344       0.34703872      -0.03044533
H        4.76819240      11.38095344      11.80285994       0.19601951      -0.20638784      -0.13902002
O        8.09633010       4.55263305      12.68156747      -0.21998976       0.34593103       0.88953946
H        7.16240658       4.36346322      12.65196895       0.21801682      -0.30981006      -0.23625079
H        8.32118362       5.23794413      12.06564592       0.19519468      -0.42202945      -0.17921832
O       11.32939808       8.34192981      11.77640919      -1.12766977      -1.37199972       0.26129581
H       11.99118140       8.55730639      12.40686498      -0.27976659      -0.05554653       0.48034283
H       11.15237091       9.15437492      11.26584965      -0.10608980       0.48398313       0.38771145
O        5.18661889       4.11928459       2.15400487      -0.12016591      -0.14048970      -0.37915307
H        5.62237576       3.82437625       2.96740404      -0.01709856       0.22960458       0.24859739
H        4.28001427       4.25267539       2.43367726      -0.18881922      -0.21756982      -0.11739978
O        1.83137906       1.07201995       8.88848406       0.25348824      -0.33242354       0.13021620
H        2.78509800       1.06926343       8.92207207      -0.32456951      -0.02750597       0.29497957
H        1.53054154       1.40713580       9.73937326      -0.47653479      -0.44743710      -0.00997298
O        4.58702911       6.16782187      10.34189628      -0.47993129      -1.40076907       0.85494910
H        4.00051427       6.84173768      10.01743826       0.24711646      -0.40861893      -0.25688886
H        5.38338192       6.62544483      10.53117571      -0.15516210      -0.00389234      -0.28057075
O        8.99821550      12.50848992       5.56017389      -0.20377836      -0.86808724      -0.45582774
H        8.53989560      11.67496894       5.55305414       0.10382185      -0.20876076      -0.13888450
H        9.86039019      12.45142269       5.95380509      -0.39087838       0.04116453       0.77359719
O        6.23239477       5.28283857       7.95181932      -1.29580797       0.49031066      -1.29124746
H        5.40706117       5.58107513       8.33962217       0.01613757       0.24001531       0.19909948
H        6.05705503       4.99786614       7.04304045      -0.12831387      -0.01768711       0.00601015
O        9.84826812      10.54673039       3.21901926       0.87028984      -0.21427414       0.63383024
H       10.55511378      10.09504521       3.68871700       0.16763650      -0.05667066      -0.09448135
H       10.57929963      12.21515087       2.61281009       0.07329233      -0.66796110      -0.26064638
O        7.36018450      12.82761202      10.60307609      -0.58536796       0.14600912      -0.60135401
H        7.00859060      13.42179967      11.26883882      -0.15213276       0.13666396      -0.05233838
H        6.97796636      12.72043725       9.74995288      -0.06800273       0.12072426       0.12181206
O        0.96339328       5.49917263      10.99016547       0.30836578       0.56207143      -0.84139951
H        0.35055092       5.58342114      10.25412143      -0.07751564      -0.43827020      -0.33789438
H        1.75714726       5.26665678      10.47753969      -0.00685684      -0.43775524       0.07587784
O       10.74104269       5.91015992       5.62081160      -2.03500757       1.36416965       0.09746038
H       10.27942968       6.52700558       4.03167276       0.80696762      -0.94628051      -0.08075347
H        9.89472032       5.97082002       6.06718824      -0.21540508      -0.04264482      -0.11511313
O        1.31042448       5.00359537       5.62113093       1.11524596       1.00000959       0.23654509
H        1.14487218       4.23384848       5.07402986      -0.02110301       0.27496368       0.06853396
H        0.72936972       4.93520262       6.37895355      -0.13826888      -0.14641624       0.31268025
O        5.92270664       6.94858114       1.73645794       0.29011395       0.48622360      -0.10746021
H        6.53682035       7.46930946       1.22967027       0.19008394       0.12631049       0.05591466
H        6.15965813       6.04112275       1.80881592      -0.09948122       0.01578771       0.14128350
O        9.26001072       4.21372229       1.78823964       0.91009423       1.23705308       0.36303291
H        8.68409101       4.26309082       1.03039053       0.19013166      -0.20501746      -0.22036981
H        9.64354302       5.09970775       2.02714851       0.36869893      -0.03970979      -0.11838831
O        0.94885616       2.57350677       1.17601808      -0.24847937      -0.84522631      -0.17586103
H        0.98697594       1.75943237       0.61553490       0.22671542       0.37078183      -0.02805468
H        1.52747145       2.46961956       1.92942954       0.12387548       0.13641488       0.18279246
O       12.92455559       4.77241378       7.64371293       0.83842335      -0.00251094      -0.69669315
H       13.04496968       5.36977085       8.38205261       0.11612195      -0.12248751      -0.07626147
H       12.10957212       4.98513346       7.20431041      -0.32443204      -0.12079431       0.16304468
O        7.54530797      10.02207027      12.79688054      -0.89923528      -0.70013454       0.39940877
H        6.60775723      10.25578091      12.82302242      -0.20239926       0.16657408       0.06605919
H        8.07061194      10.52241498      12.15878717       0.06741908      -0.10430779      -0.13212008
O       10.92282628      -0.02710450       2.78574250       0.29685071      -0.28610256       0.35174017
H       11.12363324       0.63160712       2.14458035      -0.07599539       0.61120962      -0.15024794
H       10.06091859       0.10217155       3.05896217       0.01195365       0.02166362      -0.10467592
O        1.61108450       2.36459505      11.22105895      -0.15920501      -0.45680233      -1.01951126
H        1.98169989       2.10993331      12.06801546       0.17249142      -0.13236098      -0.07341489
H        1.81914366       3.27895166      10.91485490       0.48565045      -0.05884092      -0.13494216
O        4.71578412       1.85897627       8.17172456      -1.06101574       0.28116596      -1.05924836
H        4.43490656       2.28883746       8.97680241      -0.09182335      -0.13270280       0.21484888
H        5.57616116       2.18428287       7.95554147       0.06848111       0.19336269      -0.31780623
O        9.46882507      11.52160496      11.40237965      -0.46708756       0.11076140      -0.98426481
H        8.89712262      12.19941225      11.06543313      -0.02223530       0.26114197       0.09627892
H        9.88662540      11.04917627      10.68274199      -0.02358595      -0.01720812       0.29189195
O        1.72059474      10.83831493      12.69337312       1.07311225       0.60533916       0.80261734
H        1.89530048      10.19285956      13.39405379       0.22865919       0.05253872       0.02589371
H        1.07315280      10.54847241      12.13599010      -0.14154505       0.06971106      -0.02828097
O        8.50316083       0.38573540       3.17515051      -1.23304869      -0.23597840       0.14048201
H        7.86752258       1.01395420       2.89522784      -0.14709250      -0.12169372      -0.41545349
H        8.45408731       0.28185929       4.09940546      -0.12160774      -0.07830907       0.17910036
O        8.25400942       3.06005692       4.08157735       0.72346345      -0.86638483      -0.78652271
H        8.22945444       3.70483490       3.44429707      -0.53296301       0.00188338      -0.17618041
H        8.91306339       3.37165428       4.70819415      -0.38867980       0.58178888       0.24761795
O        2.42658496       4.94639235       1.90553134      -0.64888929      -0.01314178      -0.10693090
H        1.95830490       4.15282533       1.59760151      -0.27186641      -0.11911297       0.03587736
H        2.77409665       5.36193833       1.11321934      -0.06224402      -0.14551255       0.17760558
O        0.64313653       8.74775621       8.03906645      -1.10241677       0.15874441      -0.08985498
H        1.32398547       8.36895968       7.44134921       0.05583205       0.01926431      -0.20794577
H        0.03288633       9.23273779       7.54909672      -0.31351612      -0.25785466       0.05081481
O       11.89289465       0.75279748       6.79647681       0.22967688       0.89443117      -0.17944126
H       11.30293106       0.93159187       7.51869807       0.03842490      -0.30640784       0.20488758
H       11.66180160       1.38145171       6.09216660      -0.34184393       0.17074950       0.20477461
O       12.55873433       7.09659609       2.33075308       0.49638296      -1.12986963      -0.29365941
H       13.13132388       7.12043882       3.06216881      -0.08099857       0.00232353       0.21442657
H       12.86843848       6.51181768       1.63501010      -0.27199956      -0.37402980      -0.06239770
O       10.55941234       9.35752908       9.33654471       0.14748243      -0.45542742      -0.20766428
H       10.10201358       8.59611556       9.02230749      -0.66149018       0.36227677      -0.04478792
H       11.01430036       9.76377511       8.61559026      -0.10870454       0.27907416       0.05917639
O        3.98650029       4.46644333       5.56389426      -0.48524604       0.25567005       1.23153207
H        3.78300051       3.54130472       5.46632805      -0.04030384      -0.20867837      -0.00704748
H        3.20230043       4.99000085       5.67385550      -0.21870353      -0.23295483      -0.01865054
O        4.62620617       3.46555243      10.42256053       0.99682646      -0.51705037       0.32794071
H        4.63761020       4.44644160      10.42356114       0.02425216       0.22119742      -0.46114356
H        5.32017441       3.04225210      10.93220274      -0.38727304       0.01922711       0.64597664
192
Lattice="13.289211952219294 0.0 0.0 -5.292057241490934e-07 13.289211952219294 0.0 -5.292057241490934e-07 -5.292057241490934e-07 13.289211952219294" Properties=species:S:1:pos:R:3:momenta:R:3 step=130 time_fs=13.0 phase=production pbc="T T T"
O       10.30453554       0.36439913       9.50334464       2.49140346      -0.00586830       0.70238796
H       10.90356374       0.71948591      10.18780027      -0.21214710       0.73555182      -0.15278336
H        9.44933486       0.62568400       9.89189918      -0.25839681       0.35663549      -0.10964418
O       11.35396826       2.59918699       2.52796251       0.63192993       0.30744083       0.52003610
H       10.66888944       3.15681124       2.11403599      -0.07063646      -0.00806735       0.00047281
H       12.21305223       2.98569867       2.42730506       0.13971253      -0.06468230       0.18510232
O        3.07813324       8.22476747      10.79198825       0.92303464      -0.45851637      -1.41157482
H        2.14200263       8.41285308      10.60862305       0.09697840       0.30232545      -0.10711186
H        3.57540059       8.99288193      10.43635992      -0.02753855      -0.12269530      -0.44127412
O        8.86501690       6.27950683       7.63147274      -0.60081584       1.04787922       0.77272690
H        9.24856604       5.89042155       8.41872972      -0.17732523       0.05400446      -0.03134218
H        7.98922437       5.92842787       7.55136639       0.33621012       0.00313356       0.06777609
O        6.70487187      13.52278592      -0.03956255       0.77245967       0.44906768      -0.71741193
H        6.52424946      12.63084238       0.20412409      -0.25365500       0.36858918       0.47161692
H        7.12018834      13.75060189       0.82933722      -0.11689209      -0.02791019       0.10846318
O       12.52949525       6.80341145       9.61086355       0.32667277      -1.15036094       0.16964832
H       11.72349741       7.14102954       9.98147262      -0.12096161      -0.10130739      -0.22878846
H       12.96843404       7.27829927       8.92346723      -0.06724018      -0.05117967      -0.05082590
O        7.76348796       9.79434901       5.19301250       0.38097637      -0.07071419      -0.50728929
H        7.34866847       9.03365159       5.59700545      -0.21821098       0.61353719       0.46795660
H        7.72616909       9.61557746       4.22288711      -0.43059273      -0.08286127      -0.10416673
O        0.56979342      12.81761075       3.26580399      -1.60011907       0.50783591      -0.07951711
H       -0.34029622      12.64489739       3.09666938       0.08837673      -0.12075889      -0.26727003
H        1.06260356      12.63248972       2.47389145       0.34180959      -0.53987898       0.25826346
O        8.97996622       8.52596147       1.43622297       0.40042619      -0.15426321       0.30570206
H        8.93501357       8.51788401       0.48778596      -0.00006601      -0.37998988       0.03116802
H        9.15411930       9.34779141       1.67450159       0.03337618       0.08820132      -0.08282714
O        3.62989947       7.80328929       3.69958663      -0.30308323       0.52235063      -0.53259829
H        3.82681301       7.49139476       4.56337770       0.40926959       0.61034137       0.23131678
H        3.22324712       7.06663601       3.24766188       0.32415757      -0.54655187      -0.04120954
O        9.77531808       6.67452222      10.72730430      -0.72905768       0.65118736       0.21159973
H       10.12506714       5.79930434      10.93387628      -0.06291531      -0.10002085       0.50157807
H       10.13304465       7.32678261      11.31666935       0.00342985      -0.00788505       0.20935403
O        2.82513002       1.84118449       6.16309764       0.48006761       0.96174950      -0.96836489
H        3.78826607       1.67129464       6.10145131      -0.07946117       0.14477442      -0.15385009
H        2.20531566       1.13943649       6.41704390       0.15486167       0.07548623      -0.21403761
O       10.99338208       3.07028166       5.44474735       0.92107327       0.42634579       0.79850334
H       10.98295776       3.76723400       6.12239481       0.41519147       0.09973492       0.41096183
H       11.77469188       3.05232987       4.86957372       0.00627987       0.21481167       0.11942921
O       11.58046965       3.87229910      11.24921517       0.19191101       0.37789825       0.36686172
H       11.93213191       3.83945533      10.35144438      -0.04625004      -0.01834437       0.15286483
H       11.59454797       3.02904702      11.69757663      -0.14325505      -0.15944718      -0.06735063
O       11.86938966      10.87209763       7.37052794      -0.54955328       0.51806579       0.31539843
H       11.73534917      10.21469283       6.68200384      -0.06136942       0.06943309      -0.08687236
H       11.82501203      11.78894290       7.09391610      -0.20318196       0.07064836       0.02693442
O        3.84649893       7.69285020       0.31938743       0.50266979      -0.07836443      -0.19826772
H        4.01038085       7.43063436      -0.58420668       0.08907134      -0.07558671      -0.23610179
H        4.59769982       7.51642182       0.89684712       0.16724373      -0.11205260       0.12177807
O       11.67683031      12.56028506      12.84706851       1.47288605       0.48536068      -0.06936286
H       11.24884422      11.94018151      12.25860072       0.52872056      -0.19416103      -0.07203406
H       11.35460512      12.42161962      13.76912466      -0.20766621       0.28274414      -0.12395975
O        3.17143245       9.94436009       1.52969627      -0.65549848      -0.18883509      -0.66177555
H        3.00270683       9.83078218       2.47601316      -0.18921059       0.95546674       0.07577096
H        3.45759473       9.09729757       1.17301905       0.12772665      -0.33322470      -0.03965161
O        0.21699606       9.89279029      10.51930632       0.76680150       0.30808196      -0.52298646
H        0.65051030       9.80288372       9.67633311       0.00603585       0.31441662      -0.39141724
H       -0.35319732      10.63204366      10.69319001       0.34506347       0.02041945       0.23450920
O        1.56302942       2.08850964       3.60195798       0.29188677       0.24242549      -0.50123590
H        1.49993132       1.12787369       3.53798707      -0.30877256       0.13353934       0.07822301
H        1.68795264       2.38553257       4.50776063      -0.10403867      -0.18740610      -0.00457105
O        0.99101515       7.31349874      13.08518425      -1.05515645      -0.90966033      -0.35077167
H        0.84144720       6.63194824      12.40275847       0.08233706      -0.06324944      -0.24031317
H        1.94299168       7.26075354      13.16633379       0.16105796      -0.17953686      -0.14741854
O        0.67428032      12.42631165       6.01271875       0.79550828       0.11165079       0.54064880
H        0.93826987      12.09652788       5.14630002       0.09672018      -0.45463543       0.06071555
H       -0.21946980      12.79200066       6.02048301      -0.40440821      -0.55788028      -0.30293733
O        1.70712419      11.67256674       8.25420179       1.44724991       0.49943520       0.37500881
H        1.38899839      11.82865120       7.34863732       0.01097387       0.04487230      -0.01648343
H        1.70204954      12.43187821       8.89306565       0.19086952       0.17766652      -0.16554943
O        0.83682825      13.26424689       0.40591671      -0.39134096      -0.08308028      -0.40264895
H        1.57571857      12.67880423       0.22343038       0.04709491      -0.20132073       0.24653975
H       -0.02039428      12.99843599       0.09188505      -0.00759817      -0.10784494      -0.14337169
O        6.69657164       0.94372320       5.97040612      -0.44531906       0.32204918       1.74212130
H        7.07436118       0.10261519       5.76223521      -0.01090531       0.00963681      -0.17806450
H        7.01681357       1.64962528       5.44573078      -0.13967698       0.15754480       0.07799534
O        0.80909386       7.66794553       4.70065743      -0.20358017      -0.67002160       0.47384436
H        2.86128817       8.49422689       4.29400001       0.58112659      -0.69178132      -0.47305750
H        0.86272997       6.86390994       5.23772856      -0.10416943      -0.00190679       0.22798889
O        5.66992238       2.92873461      13.02750334      -0.60776532       0.80236252       1.33995729
H        5.50966538       2.00784433      13.26731105      -0.29194602      -0.06934563      -0.36418043
H        5.28210837       3.50577594      13.71905956      -0.30635625      -0.26075027       0.13712725
O        5.68482211      12.44725214       8.53026851      -0.43701958       0.32470108      -0.82148130
H        6.09837707      12.24649162       7.69961093       0.22705825      -0.33817441       0.06385937
H        5.20684011      13.26558974       8.62065150      -0.10826821       0.14498643      -0.65797385
O       11.37011647       8.93269524       5.07647771      -0.02900906       0.58377003       0.18830515
H       10.83970752       8.14561105       5.22540119       0.14356454      -0.10470699       0.30787842
H       12.28327721       8.92148835       4.69827449      -0.01831459       0.14050408      -0.11367324
O        9.90252088       6.57478383       2.94886583      -0.60920076      -0.78228568      -0.54871624
H        9.36446913       7.17929549       2.50575955      -0.21447795      -0.20908055       0.20964657
H       10.79059552       6.63370702       2.57584162       0.05132405       0.41838912      -0.43319454
O        3.74312525      10.42520225       9.50726439       0.18282936      -1.51009868       1.11842172
H        4.59233783      10.84081538       9.41593124       0.17673990      -0.52117853       0.16926007
H        3.15849357      10.43922488       8.77169692       0.15872821      -0.07874583      -0.19554590
O        7.22499119       7.57848248      11.49953110       0.98468070       0.01948052       1.00365109
H        7.20380978       8.50285357      11.63002174       0.29107873      -0.01237032       0.04697884
H        8.06311645       7.34006446      11.08795260       0.16831916      -0.03981265      -0.02846893
O        4.92460190      11.02589517      12.66457182       0.18842684       1.23580967      -0.43115983
H        4.30179215      11.27499744      13.35012712       0.13591518       0.36022604      -0.11103561
H        4.78462924      11.36147826      11.78842384       0.13976231      -0.19408690      -0.16087183
O        8.09523243       4.55467475      12.68753948      -0.15220144       0.30339935       1.02409567
H        7.18081274       4.33232274      12.62788262       0.14591608      -0.33306264      -0.26077871
H        8.34066544       5.19824628      12.04508362       0.20615769      -0.38788281      -0.25107451
O       11.32247180       8.33432482      11.77774807      -1.14631456      -1.10297745       0.15215975
H       11.96529520       8.54940923      12.45578243      -0.27288238      -0.11547012       0.50086606
H       11.14348632       9.19235809      11.30960084      -0.07427238       0.27369424       0.51715902
O        5.18600016       4.11833873       2.15209847      -0.10759344      -0.18023756      -0.23327341
H        5.61936922       3.84865624       2.98684876      -0.05184903       0.27074874       0.13899982
H        4.26091766       4.23169738       2.42090619      -0.18709214      -0.21564002      -0.14952459
O        1.83264136       1.06984959       8.88938122       0.11703488      -0.37798267       0.13462821
H        2.75806788       1.06700616       8.95198037      -0.19714735      -0.01944869       0.31989041
H        1.48369238       1.36379075       9.73796388      -0.48316759      -0.44239944      -0.02244256
O        4.58394388       6.15882436      10.34722292      -0.52361160      -1.56661424       0.85960758
H        4.01868097       6.80670219       9.99013182       0.10418480      -0.29259204      -0.31690326
H        5.37825660       6.62859743      10.50770660       0.05474442       0.06795984      -0.20153319
O        8.99689956      12.50340732       5.55728699      -0.25237852      -0.83791607      -0.49811008
H        8.55039532      11.65294155       5.54012111       0.11521701      -0.23397672      -0.12793406
H        9.82379679      12.45526000       6.03116976      -0.36620339       0.03704267       0.81013170
O        6.22439774       5.28579049       7.94366109      -1.32905090       0.46200309      -1.37176342
H        5.41127620       5.60441655       8.35681106       0.07422921       0.23546505       0.14776056
H        6.04315251       4.99815598       7.04832474      -0.16182275       0.01845058       0.08717777
O        9.85395733      10.54560224       3.22299063       0.95867893      -0.18391780       0.65067175
H       10.56931084      10.08895318       3.67966048       0.11820984      -0.06906753      -0.09361935
H       10.58475291      12.12989871       2.58295369       0.04488246      -1.05409827      -0.34605117
O        7.35694497      12.82874472      10.60006875      -0.49467013       0.19313628      -0.39772124
H        6.99391377      13.43385072      11.26135467      -0.14532346       0.10164311      -0.10888797
H        6.96665236      12.73212634       9.75553543      -0.16730001       0.11533909      -0.01548943
O        0.96555125       5.50254895      10.98463395       0.37512584       0.51972862      -1.01227315
H        0.34047706       5.54265005      10.22372287      -0.11254760      -0.39943918      -0.26836555
H        1.75509813       5.22485826      10.49079473      -0.03598477      -0.41930985       0.19362393
O       10.72844145       5.91865119       5.62127374      -2.10541593       1.38469451       0.03367229
H       10.36309760       6.43246559       4.04703559       0.90824898      -0.99821719       0.37473501
H        9.87408520       5.96727848       6.05791454      -0.20669288      -0.03095081      -0.07820128
O        1.31732504       5.00999773       5.62271359       1.10889786       1.08073476       0.30172254
H        1.14229811       4.25926642       5.08003414      -0.03468084       0.23141543       0.04332276
H        0.71683227       4.92082144       6.40939828      -0.09549826      -0.14560735       0.28066498
O        5.92434743       6.95198967       1.73580830       0.23918352       0.60565487      -0.11682623
H        6.55647088       7.48105210       1.23581101       0.20175995       0.10337505       0.07825660
H        6.15189258       6.03868529       1.82263799      -0.06177369      -0.05981468       0.14116365
O        9.26592256       4.22174674       1.79064562       0.97973851       1.35492723       0.40536391
H        8.70401834       4.24373427       1.00763277       0.22377197      -0.19185088      -0.23801863
H        9.67477569       5.08880141       2.01368735       0.27236914      -0.17632224      -0.15671806
O        0.94735965       2.56815995       1.17482717      -0.23001599      -0.87798718      -0.17858148
H        1.00980781       1.80025285       0.61643353       0.24360226       0.43922473       0.02751730
H        1.53754960       2.48084794       1.94680871       0.06876644       0.09465282       0.15580513
O       12.92978638       4.77233865       7.63935630       0.80317150      -0.03558518      -0.75924922
H       13.05645462       5.35801698       8.37529220       0.11810144      -0.11514902      -0.05889084
H       12.07816555       4.97299517       7.22119404      -0.30074737      -0.13369295       0.19287832
O        7.53968872      10.01791410      12.79932592      -0.96035827      -0.67381779       0.35145766
H        6.59190349      10.27205210      12.82857883      -0.11104151       0.16182085       0.04497064
H        8.07522134      10.51132639      12.14845134       0.01915145      -0.13022940      -0.07432337
O       10.92580007      -0.02817191       2.78780726       0.62973462      -0.04808131       0.27132177
H       11.11575480       0.69211552       2.13040579      -0.09919249       0.58888598      -0.09950579
H       10.04896745       0.11149967       3.05388086      -0.24515945       0.16741422      -0.00534355
O        1.61024540       2.36221954      11.21462527      -0.11410343      -0.32576399      -1.10260301
H        1.99794099       2.09894672      12.05802649       0.15686405      -0.09204875      -0.14052071
H        1.86492729       3.26387946      10.90743165       0.45158885      -0.25084552      -0.01934560
O        4.70931847       1.86067410       8.16538832      -1.03029953       0.28676068      -1.02086166
H        4.42830679       2.27640967       8.99765184      -0.03617705      -0.13077829       0.19219392
H        5.58210372       2.20440225       7.92413543       0.01588080       0.20603628      -0.31696257
O        9.46607793      11.52227659      11.39673762      -0.48020929       0.10038085      -0.87394606
H        8.89249308      12.22685862      11.07247869      -0.06135357       0.28376555       0.05228927
H        9.88532462      11.04624585      10.70812875       0.00516226      -0.05581624       0.20800920
O        1.72790285      10.84246717      12.69911065       1.28413703       0.71004080       1.01021170
H        1.91671742      10.19905552      13.39529924       0.20886702       0.07083698      -0.00313034
H        1.04991925      10.54947519      12.12537338      -0.31494855      -0.04381062      -0.17279210
O        8.49576101       0.38422788       3.17574010      -1.21495705      -0.24824435       0.06567411
H        7.85123411       1.00372474       2.85308963      -0.17645457      -0.10283036      -0.44105769
H        8.44244353       0.27248834       4.12393523      -0.11988345      -0.10803133       0.29044315
O        8.25875837       3.05427119       4.07753074       0.80582386      -0.99749751      -0.55996803
H        8.17681931       3.71441512       3.41649502      -0.54741295       0.16885172      -0.36727516
H        8.87289456       3.42659013       4.73159778      -0.44525209       0.54142755       0.22082158
O        2.42254940       4.94606804       1.90494498      -0.68848716      -0.12966764      -0.07280722
H        1.93303535       4.14500665       1.60255756      -0.24054097      -0.03185976       0.06869486
H        2.76761596       5.35021020       1.12825001      -0.06249926      -0.08565842       0.10961388
O        0.63766444       8.74795778       8.03877528      -0.69457921      -0.10550897      -0.04717177
H        1.32058575       8.37574990       7.42670234      -0.13098494       0.12063285      -0.08951514
H       -0.00896889       9.21712967       7.54512336      -0.52744935      -0.08018079      -0.11900522
O       11.89432556       0.75846596       6.79524749       0.19462175       0.95013470      -0.23091258
H       11.30706483       0.90102423       7.53945037       0.05082516      -0.32287960       0.21099248
H       11.62891598       1.39689915       6.11377670      -0.33483546       0.14664380       0.23526038
O       12.56143089       7.08960159       2.32837831       0.36051287      -1.17527967      -0.47459171
H       13.12895058       7.12010344       3.08878400       0.01490755      -0.01237624       0.30777856
H       12.84317298       6.47825227       1.63142788      -0.24911319      -0.30724812      -0.00079796
O       10.56047698       9.35490209       9.33575784       0.16579803      -0.43424390      -0.08582740
H       10.03479512       8.62965659       9.01467496      -0.71242995       0.33504318      -0.11071210
H       11.00486044       9.79339535       8.61698802      -0.09207470       0.32216099      -0.02611806
O        3.98375030       4.46805780       5.57139804      -0.43312186       0.23406234       1.19424634
H        3.77843601       3.52349859       5.46752486      -0.04778808      -0.13389503       0.03296622
H        3.17892487       4.96651654       5.67222403      -0.25742393      -0.25083603      -0.01584524
O        4.63233157       3.46264503      10.42457197       0.98396231      -0.42563548       0.29454187
H        4.64111548       4.46009580      10.37957595       0.04664197       0.04178049      -0.44020085
H        5.28187970       3.04710732      10.99591745      -0.39875883       0.08022568       0.65804935
192
Lattice="13.289333084055682 0.0 0.0 -5.292105478859278e-07 13.289333084055682 0.0 -5.292105478859278e-07 -5.292105478859278e-07 13.289333084055682" Properties=species:S:1:pos:R:3:momenta:R:3 step=140 time_fs=14.0 phase=production pbc="T T T"
O       10.31960276       0.36492377       9.50872082       2.35024135       0.18154580       1.01386480
H       10.88113821       0.78935701      10.16491974      -0.23568111       0.70313832      -0.30547582
H        9.43133598       0.65483765       9.87436339      -0.09193834       0.23069595      -0.25831321
O       11.35755617       2.60101571       2.53106109       0.50929412       0.28434959       0.47984531
H       10.66556313       3.15474417       2.11583369       0.00484265      -0.03653848       0.03797217
H       12.22924747       2.98073899       2.44422209       0.17907797      -0.04163753       0.16196132
O        3.08384413       8.22240614      10.78316558       0.92480414      -0.33734761      -1.49489142
H        2.15528720       8.44116490      10.60029769       0.17143044       0.27479422      -0.06481835
H        3.56920042       8.97693445      10.39516095      -0.09370311      -0.20193227      -0.40681404
O        8.86185888       6.28625639       7.63620295      -0.43730065       1.14715143       0.73860393
H        9.23190518       5.89520206       8.41778085      -0.15705736       0.03777217       0.02316608
H        8.01409724       5.92581663       7.55692865       0.14616216      -0.06756857       0.04007432
O        6.71005428      13.52603510      -0.04345771       0.89533989       0.57071967      -0.55201461
H        6.49526050      12.65923811       0.24967585      -0.34451053       0.20806072       0.46271982
H        7.10713653      13.74923447       0.83234139      -0.14980674      -0.00009179      -0.04565783
O       12.53176710       6.79605094       9.61213941       0.37608014      -1.26164449       0.21326007
H       11.71052575       7.13264593       9.95926312      -0.14369430      -0.07376219      -0.23091953
H       12.96355849       7.27793213       8.91605805      -0.03885245       0.03795135      -0.09723955
O        7.76596509       9.79392475       5.18903549       0.41196048      -0.07706150      -0.80449264
H        7.32652706       9.09378535       5.64257590      -0.24677025       0.60117150       0.47196852
H        7.68447205       9.60888246       4.22655083      -0.42630965      -0.05933118       0.17345607
O        0.56032286      12.82100427       3.26535483      -1.47348832       0.55695595      -0.08930560
H       -0.33731585      12.63208278       3.06966182      -0.02990769      -0.14689425      -0.28934640
H        1.09646564      12.57818952       2.50026294       0.34284059      -0.57234554       0.29614907
O        8.98209604       8.52375707       1.43779821       0.27377533      -0.56336974       0.21008411
H        8.93386097       8.47783660       0.48493794      -0.02461444      -0.43893575      -0.07962278
H        9.16334275       9.38258605       1.67786036       0.14807493       0.59255964       0.13598076
O        3.62806638       7.80623881       3.69612078      -0.26382623       0.34906425      -0.60759049
H        3.87226916       7.54482939       4.58786442       0.51036887       0.49769659       0.22661286
H        3.25798894       7.01665119       3.24543970       0.39900195      -0.45870985       0.01144056
O        9.77084265       6.67818520      10.72865899      -0.74488597       0.51531448       0.21369450
H       10.11729665       5.79474081      10.98203616      -0.10537750       0.01982967       0.47811914
H       10.13466993       7.32470562      11.33950805       0.02191386      -0.04401663       0.24704800
O        2.82839376       1.84710387       6.15706782       0.56241997       0.97801129      -1.01687563
H        3.77241717       1.68341564       6.08829219      -0.22265611       0.09878696      -0.11908339
H        2.22413209       1.14796687       6.39567447       0.21945228       0.08664468      -0.22111393
O       10.99934713       3.07300810       5.44988314       0.97882085       0.46806650       0.88117958
H       11.02493939       3.77155701       6.15458369       0.44097418      -0.02428787       0.23483318
H       11.77085060       3.07496934       4.88493170      -0.07454920       0.24692838       0.18433542
O       11.58178685       3.87466931      11.25152400       0.19258554       0.37394233       0.38324064
H       11.92668060       3.83523472      10.37142192      -0.05733787      -0.06914895       0.22700085
H       11.58146963       3.01593352      11.68669033      -0.12762361      -0.10143646      -0.16123778
O       11.86603522      10.87524071       7.37249406      -0.57989091       0.47272063       0.29753262
H       11.72897973      10.22391881       6.67314729      -0.07106973       0.12108361      -0.09178215
H       11.80472797      11.79350783       7.09738007      -0.21533264       0.01882479       0.04417574
O        3.84977115       7.69228813       0.31821674       0.57214281      -0.14004103      -0.19969066
H        4.01923092       7.42424656      -0.60535828       0.08746769      -0.04847429      -0.16873073
H        4.61212391       7.50537894       0.90578308       0.11135678      -0.11201279       0.04718794
O       11.68595240      12.56346491      12.84724711       1.46588865       0.51468706       0.07908702
H       11.29968561      11.92033034      12.25207828       0.51332264      -0.21393278      -0.06132514
H       11.33518231      12.44918376      13.75055177      -0.19560222       0.27609821      -0.25072287
O        3.16741745       9.94316652       1.52575469      -0.65531058      -0.24709786      -0.63629399
H        2.98475662       9.92445405       2.47797526      -0.17689709       0.95805981      -0.04167260
H        3.46798841       9.06817141       1.17179308       0.07521155      -0.24132274       0.02838958
O        0.22190756       9.89458996      10.51614354       0.85423584       0.23614158      -0.57161751
H        0.64963770       9.83535140       9.63936090      -0.03834464       0.35151813      -0.33889856
H       -0.32090781      10.63648133      10.71560157       0.30918338       0.07891614       0.22581378
O        1.56484745       2.09001021       3.59887293       0.29612374       0.25067613      -0.51929146
H        1.46967499       1.14061446       3.54662980      -0.31375198       0.11286176       0.09547420
H        1.67755941       2.36625730       4.50706732      -0.10887760      -0.20421005      -0.00303286
O        0.98465615       7.30763732      13.08282319      -1.00180472      -1.02956024      -0.46288961
H        0.84837660       6.62870331      12.38370072       0.05929370       0.00159356      -0.14666718
H        1.95772871       7.24551684      13.15379071       0.12401717      -0.13243724      -0.11252665
O        0.67893968      12.42710127       6.01564878       0.70203765       0.10830709       0.38312200
H        0.94639000      12.05406798       5.15725066       0.06707467      -0.41290706       0.17380464
H       -0.25364963      12.73746007       5.99241505      -0.27608321      -0.56903116      -0.27190638
O        1.71600523      11.67602786       8.25691932       1.44026680       0.58768919       0.47655704
H        1.39226487      11.83361766       7.35177560       0.05663690       0.05467192       0.08107641
H        1.72010963      12.44433922       8.86851392       0.17884009       0.08172792      -0.33287120
O        0.83478549      13.26396348       0.40343653      -0.27683917      -0.05816260      -0.41183003
H        1.57721146      12.65906121       0.24696503      -0.02549024      -0.19912662       0.23777351
H       -0.02298396      12.98662525       0.07672304      -0.03717799      -0.13418094      -0.16334045
O        6.69352322       0.94569703       5.98150332      -0.55317798       0.31760569       1.83978186
H        7.07517326       0.10102144       5.74321809       0.01895413      -0.02709246      -0.20919666
H        7.00579653       1.66941112       5.45063866      -0.09486648       0.23351718       0.03277692
O        0.80782016       7.66355562       4.70379901      -0.21375307      -0.78634080       0.53784680
H        2.90993735       8.43370902       4.24729463       0.37734303      -0.51901531      -0.45637865
H        0.85344115       6.86753460       5.25784734      -0.08582318       0.07847087       0.18061493
O        5.66605921       2.93373813      13.03606938      -0.66530929       0.81000934       1.40403083
H        5.48239659       2.00474306      13.23130615      -0.26754493       0.00585052      -0.37688979
H        5.25427785       3.47638186      13.72915077      -0.26921152      -0.33502285       0.07418692
O        5.68226079      12.44914101       8.52559299      -0.41684017       0.26639298      -0.73837406
H        6.11915743      12.21494013       7.70537945       0.19334624      -0.30955156       0.06270601
H        5.19609493      13.28200737       8.55361262      -0.10580483       0.17583657      -0.71853302
O       11.37053205       8.93664736       5.07732950       0.11885053       0.67210594       0.07778739
H       10.85862199       8.13790066       5.25450768       0.24391257      -0.04989697       0.28742508
H       12.26952322       8.93003740       4.69298376      -0.25656599       0.03150233       0.00126360
O        9.89954223       6.56940926       2.94519033      -0.34638008      -0.98486871      -0.60695184
H        9.33607334       7.16793463       2.52093860      -0.37139792      -0.03006061       0.10211978
H       10.79299067       6.67575865       2.53472703      -0.02261815       0.43728778      -0.39338346
O        3.74440244      10.41589222       9.51454339       0.20401693      -1.55332759       1.20580583
H        4.60999838      10.79117863       9.43084846       0.18738206      -0.49877857       0.13446062
H        3.17150743      10.43360519       8.74886738       0.12283103      -0.03955752      -0.25520243
O        7.23121359       7.57810366      11.50571682       1.03192175      -0.15784982       0.97287623
H        7.23202417       8.51056130      11.63645502       0.28650506       0.15872691       0.08166353
H        8.07738184       7.33643831      11.08513636       0.11103219      -0.03316859      -0.02570575
O        4.92609001      11.03346803      12.66224566       0.28697500       1.19729122      -0.37320368
H        4.31430190      11.31111206      13.33647841       0.11405140       0.38062677      -0.16588121
H        4.79551736      11.34336500      11.77197931       0.08335710      -0.18061271      -0.17500046
O        8.09465391       4.55645636      12.69438793      -0.06256863       0.26762963       1.16478758
H        7.19001846       4.29834841      12.60131933       0.04498013      -0.36441978      -0.28672146
H        8.36173012       5.16258348      12.01665409       0.22338911      -0.34942043      -0.33091768
O       11.31571317       8.32869445      11.77871559      -1.07631266      -0.75790863       0.14925519
H       11.93534984       8.53373095      12.50135969      -0.35275901      -0.21269406       0.42032294
H       11.13823694       9.20664833      11.36679442      -0.03814684       0.02525819       0.64580691
O        5.18525987       4.11716051       2.15126571      -0.15843901      -0.21336843      -0.04584865
H        5.61187948       3.87727765       2.99371629      -0.10168776       0.31402994       0.00398539
H        4.24618046       4.21051865       2.40398283      -0.10806419      -0.22003809      -0.19977301
O        1.83257105       1.06740191       8.89030081      -0.15325184      -0.42208939       0.13966130
H        2.75067510       1.06545005       8.98510210       0.04956597      -0.01277685       0.36041710
H        1.43696281       1.32087847       9.73459186      -0.47253693      -0.43886141      -0.05229710
O        4.58091532       6.14872495      10.35273056      -0.45637301      -1.71865595       0.90601881
H        4.01944195       6.78607739       9.95493093      -0.08244270      -0.13942479      -0.40383591
H        5.39193989       6.63731324      10.49162682       0.19823705       0.09444420      -0.13582708
O        8.99533603      12.49827071       5.55423960      -0.27453524      -0.88384423      -0.50077102
H        8.56349824      11.63183268       5.52814648       0.15634798      -0.19108935      -0.11937731
H        9.78738284      12.45923912       6.11052874      -0.39593456       0.04426951       0.80723545
O        6.21622441       5.28868758       7.93536871      -1.34529219       0.47185778      -1.33321918
H        5.42188795       5.62684587       8.36813467       0.14054007       0.22408803       0.08280405
H        6.02479279       5.00043844       7.05664712      -0.22067486       0.02113078       0.06272638
O        9.86026383      10.54470471       3.22703966       1.06948826      -0.13240787       0.65271991
H       10.57813758      10.08167281       3.67048048       0.06243950      -0.08530245      -0.09450054
H       10.59025568      12.02519316       2.54963194       0.07875207      -0.98467340      -0.30432246
O        7.35418645      12.83026555      10.59837944      -0.43257843       0.26374765      -0.19729266
H        6.98096910      13.44123011      11.24739333      -0.12095212       0.04757541      -0.17844876
H        6.94593467      12.74308799       9.74765744      -0.25264445       0.10794092      -0.13596457
O        0.96782146       5.50563492      10.97778717       0.34636160       0.46829186      -1.25531905
H        0.33122017       5.50588632      10.20488263      -0.06792070      -0.35436741      -0.11067310
H        1.75061049       5.18513673      10.51489410      -0.05116816      -0.39786295       0.29370494
O       10.71534847       5.92726110       5.62131506      -2.19105225       1.39648220      -0.02351990
H       10.45452551       6.33325860       4.09575675       0.93804332      -1.02437554       0.54689659
H        9.85532599       5.96495203       6.05160109      -0.17642009      -0.01753566      -0.05514894
O        1.32390392       5.01704521       5.62527597       1.02255856       1.20246939       0.53159536
H        1.13770218       4.27689210       5.08100525      -0.06092561       0.12407316      -0.02859149
H        0.71402640       4.90760046       6.42964192       0.04801194      -0.12376580       0.12095694
O        5.92588935       6.95609471       1.73499662       0.25468693       0.70165599      -0.15456960
H        6.57469421       7.48807322       1.24618908       0.16552788       0.03414537       0.13849806
H        6.14739088       6.03174953       1.83609373      -0.03421869      -0.07002793       0.13289325
O        9.27207193       4.23023607       1.79311749       0.98197102       1.37476675       0.38337787
H        8.72892064       4.22603560       0.98557238       0.29001134      -0.17066167      -0.20797478
H        9.69786574       5.06830465       1.99716576       0.20862163      -0.22490567      -0.17965669
O        0.94612210       2.56314856       1.17427496      -0.17525451      -0.73279731       0.02440610
H        1.03504609       1.83898599       0.61650468       0.27787587       0.32580105      -0.04878564
H        1.53909892       2.48819407       1.95751268      -0.04205827       0.05557204       0.05718021
O       12.93442173       4.77206344       7.63441708       0.65569172      -0.06856652      -0.87668356
H       13.06837828       5.34815268       8.37153040       0.12481013      -0.08570859      -0.01702527
H       12.05436528       4.95864846       7.24346748      -0.17957928      -0.16281446       0.26671098
O        7.53360461      10.01404849      12.80137351      -1.04556883      -0.61354435       0.27626350
H        6.58768995      10.28701389      12.83195408       0.02551283       0.14187579       0.02178037
H        8.07377494      10.49675638      12.14539470      -0.05113003      -0.17056901       0.01019384
O       10.93028748      -0.02810182       2.78873579       0.73904754      -0.00518845       0.00185365
H       11.10339540       0.74137209       2.13053733      -0.15692961       0.41416659       0.11328644
H       10.02039855       0.13071090       3.05503665      -0.29162617       0.19500913       0.00704667
O        1.60971412       2.36052361      11.20779555      -0.06919038      -0.25107856      -1.15068120
H        2.01199496       2.09199067      12.04047115       0.13168385      -0.05332096      -0.21896729
H        1.90733389       3.23200149      10.91060947       0.42261484      -0.38423804       0.07508253
O        4.70346323       1.86270596       8.15941586      -0.88138183       0.37681877      -0.94462242
H        4.42905078       2.26233745       9.01162782       0.05369295      -0.16113273       0.08405961
H        5.57448799       2.22262799       7.89556784      -0.18535798       0.16250207      -0.26550662
O        9.46285251      11.52332656      11.39193752      -0.61212290       0.22308292      -0.72395764
H        8.88781929      12.25173143      11.07697147      -0.02521219       0.20977491       0.04261187
H        9.88907337      11.03719255      10.72112867       0.07170993      -0.13351803       0.05296625
O        1.73604410      10.84711878      12.70568278       1.32777479       0.76171950       1.06104441
H        1.93576698      10.20649371      13.39370648       0.18095451       0.07752472      -0.03074454
H        1.01774567      10.54233248      12.10773287      -0.30878894      -0.09086740      -0.16054003
O        8.48821922       0.38279087       3.17630824      -1.28260386      -0.21345640       0.13075664
H        7.83552990       0.99137832       2.81099788      -0.13762265      -0.16136654      -0.41551352
H        8.43072436       0.26194365       4.14973288      -0.12339010      -0.10300905       0.21064768
O        8.26407680       3.04833659       4.07445468       0.89899764      -0.90467766      -0.48392073
H        8.12388727       3.73124109       3.37990483      -0.53247031       0.14048674      -0.34604502
H        8.82526547       3.47654131       4.74936467      -0.53756023       0.47974810       0.13443978
O        2.41805284       4.94471824       1.90482119      -0.78672180      -0.32909538       0.03156450
H        1.91226223       4.14782440       1.61128222      -0.18444938       0.09063214       0.10972566
H        2.76309603       5.34668804       1.13184173      -0.02919498       0.01429168      -0.04093097
O        0.63417321       8.74696198       8.03834205      -0.49796021      -0.20860530      -0.14105395
H        1.29891302       8.39227105       7.42372485      -0.30407929       0.21093507       0.01895860
H       -0.06315568       9.21212420       7.53124651      -0.54085452      -0.05500195      -0.13446467
O       11.89543342       0.76446514       6.79389295       0.12692365       0.99954275      -0.22087865
H       11.31421447       0.86844493       7.55838590       0.09873977      -0.34646346       0.16943058
H       11.59678197       1.41029801       6.13752485      -0.32696704       0.12983031       0.24724353
O       12.56358841       7.08226622       2.32520268       0.31929640      -1.23380825      -0.54460775
H       13.13121167       7.11781165       3.11716334       0.01343815      -0.03745500       0.24933031
H       12.82035053       6.45309545       1.63605111      -0.21914703      -0.20890614       0.09654499
O       10.56157947       9.35226359       9.33547459       0.15452257      -0.46183097      -0.05354971
H        9.96566834       8.66439010       9.00198800      -0.69289508       0.39217584      -0.14365090
H       10.99528161       9.82542402       8.61244629      -0.11394088       0.32517215      -0.05716977
O        3.98113040       4.46922734       5.57864542      -0.44147279       0.12855481       1.14988790
H        3.77466461       3.51818004       5.47312511      -0.02709853       0.03010149       0.08121611
H        3.15323037       4.94100232       5.67087312      -0.26438798      -0.27445652      -0.01290919
O        4.63838017       3.46045578      10.42635917       0.97439732      -0.30110556       0.25747498
H        4.64673350       4.45328848      10.33855490       0.06748857      -0.18065288      -0.40102840
H        5.24248280       3.05810559      11.06016594      -0.41217321       0.14628712       0.65508878
192
Lattice="13.289413568584353 0.0 0.0 -5.292137529573369e-07 13.289413568584353 0.0 -5.292137529573369e-07 -5.292137529573369e-07 13.289413568584353" Properties=species:S:1:pos:R:3:momenta:R:3 step=150 time_fs=15.0 phase=production pbc="T T T"
O       10.33324475       0.36660261       9.51573784       2.05759102       0.35678629       1.23259152
H       10.86110318       0.85819873      10.13170580      -0.16005001       0.72023037      -0.36014852
H        9.43299623       0.66944090       9.84169133       0.12322827       0.06593457      -0.40950918
O       11.36052099       2.60275220       2.53389613       0.44725346       0.27805413       0.44146584
H       10.67014787       3.15005486       2.12153380       0.08503964      -0.05490475       0.07756789
H       12.24573762       2.97689288       2.45903171       0.14579259      -0.04025755       0.14268810
O        3.08950411       8.22067151      10.77382256       0.91102967      -0.25401545      -1.56539632
H        2.17404093       8.46620257      10.59625825       0.20312742       0.23702404      -0.01916359
H        3.55901393       8.95517327      10.35671020      -0.10430353      -0.23519382      -0.38831456
O        8.85984548       6.29377336       7.64062745      -0.24258486       1.28701131       0.69058332
H        9.21911709       5.89736104       8.42481853      -0.10594823       0.00618554       0.12135517
H        8.01549889       5.91447197       7.55883452      -0.11537006      -0.16473194      -0.00139170
O        6.71589458      13.52985779      -0.04636815       0.98214605       0.62478920      -0.39962170
H        6.45748216      12.67330963       0.29349919      -0.42658583       0.09884945       0.42847043
H        7.09200049      13.75143139       0.82168465      -0.15486009       0.04762656      -0.16146571
O       12.53430610       6.78812889       9.61354310       0.42658726      -1.32170036       0.21609082
H       11.69669001       7.12631473       9.93614320      -0.13547197      -0.05982509      -0.24732731
H       12.96003274       7.28454051       8.90635887      -0.04131002       0.08879068      -0.09203736
O        7.76874824       9.79372349       5.18343569       0.48375144       0.00078081      -0.99096542
H        7.29964161       9.14914009       5.68947129      -0.30645695       0.53340195       0.48676642
H        7.64287055       9.60311943       4.25280618      -0.43305644      -0.06831176       0.32902327
O        0.55177403      12.82458055       3.26459945      -1.31526919       0.57505052      -0.17541060
H       -0.34512404      12.61637550       3.04031422      -0.11872782      -0.17520335      -0.31140201
H        1.12745148      12.52215653       2.53396952       0.28358220      -0.57355909       0.40459514
O        8.98363392       8.51987412       1.43892669       0.22981228      -0.62752180       0.16494240
H        8.93069241       8.43385731       0.47607277      -0.03902830      -0.45624760      -0.07595165
H        9.18068465       9.45076900       1.69612667       0.18780217       0.70683609       0.20548750
O        3.62717562       7.80708619       3.69222571      -0.00174796      -0.11980220      -0.66577983
H        3.92397501       7.59057485       4.60062787       0.54090719       0.44692583       0.01148298
H        3.30212105       6.98046683       3.25191820       0.50715627      -0.27497238       0.12578794
O        9.76643631       6.68094319      10.73025933      -0.70345271       0.37383018       0.29761083
H       10.10390463       5.80450615      11.02619700      -0.17230998       0.17890194       0.42282185
H       10.13640728       7.31716481      11.36314702       0.00823629      -0.11448223       0.22872764
O        2.83184835       1.85344990       6.15068246       0.53476640       1.10393731      -1.07611317
H        3.75110577       1.68950416       6.07780936      -0.17951571       0.02046388      -0.10014760
H        2.24559943       1.15366333       6.37499157       0.20763870       0.01668133      -0.19957846
O       11.00538997       3.07616429       5.45586206       0.95131464       0.55436036       1.06712535
H       11.06829489       3.76183468       6.16713516       0.44307476      -0.17215614       0.02340263
H       11.76361670       3.10013640       4.90280117      -0.05624098       0.26769604       0.16469831
O       11.58287839       3.87691404      11.25445014       0.13111021       0.35232697       0.56958366
H       11.92331382       3.82608196      10.39002616      -0.00352560      -0.11826357       0.12730684
H       11.56975510       3.00985255      11.66648888      -0.11504776      -0.02713707      -0.25027495
O       11.86243835      10.87804801       7.37425761      -0.61542396       0.41818172       0.26242936
H       11.72173686      10.23866763       6.66474422      -0.07893960       0.17938881      -0.08060655
H       11.78322069      11.79296372       7.10272816      -0.22763504      -0.02761568       0.06438904
O        3.85373266       7.69114586       0.31680411       0.71477800      -0.25093733      -0.26726845
H        4.02689666       7.42236719      -0.61348125       0.06785396       0.01141894       0.01010484
H        4.61756568       7.49523477       0.90450092      -0.00321965      -0.09585244      -0.07566227
O       11.69504522      12.56679859      12.84804526       1.47772431       0.54552604       0.13549074
H       11.34930815      11.89923551      12.24753415       0.50529139      -0.21653931      -0.02945943
H       11.31582225      12.47472988      13.72297970      -0.20934283       0.24278450      -0.30005791
O        3.16347884       9.94136904       1.52182475      -0.63272662      -0.35882332      -0.65202611
H        2.96869968      10.01640293       2.46741157      -0.15148157       0.92183668      -0.17481987
H        3.47113552       9.05338366       1.18030116      -0.01381487      -0.05673830       0.15075101
O        0.22763531       9.89577782      10.51216089       1.01261659       0.13446631      -0.75829637
H        0.64123181       9.87151783       9.61466947      -0.13828050       0.38810487      -0.15713182
H       -0.29369323      10.64838131      10.73757575       0.25088017       0.16097460       0.22321200
O        1.56669611       2.09170183       3.59558574       0.30339340       0.29778059      -0.56115834
H        1.43854017       1.14781173       3.55611518      -0.32654538       0.02998641       0.09636702
H        1.66688035       2.34655396       4.50851335      -0.11001356      -0.19711915       0.03687547
O        0.97888809       7.30092511      13.07967666      -0.87026410      -1.17002873      -0.58551278
H        0.85281853       6.63272988      12.37479470       0.03008311       0.07767879      -0.03996536
H        1.96488321       7.23539057      13.14464966       0.01558140      -0.07493518      -0.07626459
O        0.68275518      12.42780759       6.01744146       0.53231224       0.09498821       0.19042633
H        0.95126497      12.01696497       5.18098989       0.03492866      -0.34932166       0.30926326
H       -0.27069664      12.68097227       5.96807952      -0.06847715      -0.59055271      -0.22577588
O        1.72484732      11.67980292       8.26006404       1.43900209       0.59877463       0.52204047
H        1.39985247      11.83962161       7.36385669       0.09591930       0.06837286       0.15697202
H        1.73684606      12.45036171       8.83069436       0.16436393       0.05924343      -0.42681256
O        0.83338754      13.26363350       0.40080600      -0.18795236      -0.08183958      -0.45005710
H        1.56973862      12.64117799       0.26988449      -0.12975951      -0.16672634       0.23244841
H       -0.02585031      12.97317514       0.06101051      -0.01257938      -0.13949849      -0.15419109
O        6.69007145       0.94765255       5.99286913      -0.56968530       0.32008330       1.83285450
H        7.07666669       0.10041626       5.72252501       0.00357456       0.02907796      -0.21090099
H        6.99689803       1.69181500       5.45466083      -0.09631312       0.20878932       0.06162676
O        0.80648066       7.65843297       4.70730962      -0.22426377      -0.88952081       0.59009079
H        2.92881547       8.39778014       4.20966354      -0.01370494      -0.20399190      -0.30026749
H        0.84624290       6.87889342       5.27315427      -0.06044912       0.14592230       0.13768461
O        5.66189623       2.93862846      13.04480333      -0.69529631       0.77086172       1.40172205
H        5.45774879       2.00850939      13.19420337      -0.23872525       0.06566432      -0.38531537
H        5.22867025       3.44255605      13.73563305      -0.26397086      -0.34778432       0.06913003
O        5.67974277      12.45088361       8.52118841      -0.41935208       0.29092132      -0.72462030
H        6.13533155      12.18669992       7.71356186       0.13483751      -0.27037867       0.11049540
H        5.18786178      13.29722007       8.48120126      -0.05603655       0.12055965      -0.76476211
O       11.37144761       8.94104948       5.07762728       0.11836282       0.74458646       0.02509345
H       10.88716453       8.13669885       5.28174089       0.33634373       0.02672302       0.27461551
H       12.23838338       8.92764020       4.69658670      -0.34111332      -0.08185388       0.05334174
O        9.89868752       6.56290347       2.94175562       0.04785317      -1.13353521      -0.52452470
H        9.29439574       7.17067039       2.52762778      -0.46070646       0.06120502       0.05388653
H       10.78403613       6.71766074       2.50167402      -0.17215664       0.41029915      -0.26308092
O        3.74549582      10.40630798       9.52196478       0.13392511      -1.58627755       1.17357200
H        4.62899679      10.74371254       9.44225365       0.20004686      -0.47807375       0.09892904
H        3.18535263      10.43144342       8.72610603       0.17327168      -0.00752247      -0.19400061
O        7.23786196       7.57687726      11.51163863       1.12339568      -0.23121067       0.93534687
H        7.25971123       8.53012202      11.64562057       0.28019942       0.21571557       0.10162154
H        8.08331734       7.33410286      11.08385057       0.00561605      -0.01463946      -0.00019394
O        4.92825149      11.04075680      12.66005553       0.41002613       1.15522697      -0.37547474
H        4.32302188      11.34968187      13.31906091       0.05997311       0.41086611      -0.18868447
H        4.80112324      11.32619665      11.75550952       0.03231076      -0.17465724      -0.15848100
O        8.09449601       4.55809897      12.70191289      -0.01642892       0.26462511       1.24618125
H        7.19175467       4.26194074      12.57235580       0.00631982      -0.37817432      -0.30738733
H        8.38365748       5.12863381      11.98244257       0.22027659      -0.35884358      -0.35986795
O       11.30953850       8.32492327      11.78000985      -0.95104430      -0.52120974       0.26860558
H       11.89632679       8.50751698      12.53696812      -0.44603703      -0.32798820       0.31052395
H       11.13509558       9.20165705      11.43262591      -0.03666810      -0.09228591       0.68268128
O        5.18405298       4.11582135       2.15144296      -0.24889100      -0.22696579       0.08055395
H        5.60061146       3.90919812       2.98954793      -0.12153615       0.33539969      -0.07314579
H        4.24022411       4.18897921       2.38205027      -0.01934752      -0.22147011      -0.24894283
O        1.83089545       1.06468487       8.89125630      -0.37123609      -0.46526742       0.15760679
H        2.76537351       1.06453017       9.02247450       0.22311902      -0.00615522       0.40375629
H        1.39236525       1.27829279       9.72728951      -0.43898430      -0.43492698      -0.10145347
O        4.57856421       6.13825368      10.35843022      -0.31601478      -1.66236304       0.91604235
H        4.00636137       6.77592450       9.91399940      -0.15916141      -0.09678489      -0.41754918
H        5.41089998       6.64382723      10.48028528       0.16079351       0.02313596      -0.10310870
O        8.99379753      12.49265767       5.55136833      -0.23299248      -0.97139569      -0.43295369
H        8.58138253      11.61709109       5.51680993       0.20901499      -0.11157848      -0.11490125
H        9.74438527      12.46441017       6.18629428      -0.49792542       0.06176820       0.73467478
O        6.20807477       5.29169959       7.92756422      -1.31266890       0.49786086      -1.22196415
H        5.43781323       5.64849669       8.37338060       0.17828372       0.22258494       0.02710527
H        5.99957726       5.00145850       7.05791635      -0.29917616      -0.00278386      -0.04366080
O        9.86725271      10.54423430       3.23095401       1.18562728      -0.03603868       0.60773990
H       10.58232487      10.07164772       3.66165325       0.02703927      -0.12477629      -0.08534436
H       10.60078974      11.94344542       2.52637307       0.12407348      -0.72598815      -0.17419908
O        7.35164731      12.83212553      10.59752794      -0.41755524       0.30931072      -0.13090640
H        6.97016243      13.44403642      11.22766475      -0.10512367       0.01517003      -0.21978427
H        6.91939977      12.75358325       9.73273077      -0.28080570       0.10711620      -0.14945946
O        0.96966434       5.50838807      10.96941510       0.24251666       0.41941269      -1.48546616
H        0.32824480       5.47400929      10.20304732       0.00795296      -0.29906975       0.07035608
H        1.74656101       5.14692754      10.54692399      -0.02387154      -0.39050313       0.35528532
O       10.70179711       5.93568402       5.62172899      -2.23055255       1.31033302       0.24133256
H       10.53960105       6.23781771       4.13519296       0.77486834      -0.90011811       0.13823824
H        9.84036559       5.96406196       6.04666838      -0.13124040      -0.00087298      -0.05007764
O        1.32984891       5.02478171       5.62936173       0.90936108       1.29612633       0.78002877
H        1.13061050       4.28394545       5.07473764      -0.08182528       0.02989430      -0.09458118
H        0.72701645       4.89717387       6.43215651       0.21752141      -0.08949386      -0.06791176
O        5.92762846       6.96057402       1.73394913       0.30112694       0.73186106      -0.18660403
H        6.58843245       7.48749525       1.26301473       0.11713995      -0.04512329       0.20472845
H        6.14484813       6.02748603       1.84823598      -0.02088250      -0.00870936       0.11463560
O        9.27795167       4.23839015       1.79526765       0.90282621       1.24994874       0.30708199
H        8.76124834       4.21082900       0.96815229       0.37424580      -0.14048753      -0.14575368
H        9.71754649       5.04925569       1.97906471       0.20459999      -0.14538171      -0.19122515
O        0.94518435       2.55942016       1.17533600      -0.13832409      -0.48082272       0.31993222
H        1.06459527       1.86029710       0.60404383       0.33065738       0.10587046      -0.21308883
H        1.52929785       2.49162164       1.95782892      -0.15534366       0.01348398      -0.04622810
O       12.93797596       4.77156896       7.62871466       0.47985310      -0.10138366      -0.99073752
H       13.08105942       5.34155011       8.37226299       0.13402881      -0.05157009       0.02961478
H       12.04407978       4.94134239       7.27335667      -0.03538614      -0.19212736       0.34325374
O        7.52697198      10.01049891      12.80294033      -1.12692844      -0.56972418       0.21483844
H        6.59636395      10.29983370      12.83303698       0.14305347       0.12129489      -0.00080990
H        8.06583310      10.47879399      12.15004610      -0.10729200      -0.19390727       0.07686668
O       10.93456229      -0.02848582       2.78784368       0.61840678      -0.08346474      -0.28782770
H       11.08567036       0.77243544       2.15310241      -0.20553024       0.21936212       0.34909332
H        9.99935762       0.14772595       3.05314856      -0.11828574       0.14888821      -0.05163505
O        1.60928931       2.35889952      11.20070876      -0.08724457      -0.30682254      -1.17810999
H        2.02409487       2.08775536      12.01700927       0.12030404      -0.04021365      -0.25253256
H        1.94877886       3.19427214      10.92019034       0.43778335      -0.35941437       0.10762069
O        4.69855012       1.86531845       8.15393337      -0.74069618       0.46146704      -0.85809696
H        4.43887728       2.24509438       9.01376481       0.14495111      -0.19001693      -0.03664496
H        5.54639117       2.23611293       7.87276927      -0.37679280       0.11930958      -0.20637095
O        9.45866383      11.52523948      11.38793181      -0.76472033       0.36985655      -0.61674255
H        8.88905528      12.26613243      11.08143032       0.05237786       0.08050081       0.04781147
H        9.89869636      11.02133027      10.71964618       0.11532216      -0.18258636      -0.07115025
O        1.74389526      10.85189443      12.71201028       1.20840799       0.76987547       0.95627800
H        1.95205805      10.21362245      13.39014969       0.15415640       0.06288573      -0.03910775
H        0.99530051      10.53404162      12.09882002      -0.13390427      -0.07359901      -0.00956075
O        8.48000254       0.38167717       3.17755319      -1.41550306      -0.14829323       0.27435051
H        7.82567871       0.97105191       2.77327560      -0.06346923      -0.25836850      -0.35528001
H        8.41825974       0.25321723       4.16168039      -0.13461329      -0.07340238       0.02538145
O        8.26984750       3.04354890       4.07137532       0.95619116      -0.64607135      -0.54347055
H        8.07468941       3.73720162       3.35424824      -0.47159415      -0.03143549      -0.16619302
H        8.76832771       3.51976824       4.75697955      -0.62756546       0.40710143       0.02145609
O        2.41298140       4.94218046       1.90530591      -0.85808641      -0.49068900       0.10990359
H        1.89690861       4.16223780       1.62358006      -0.13498980       0.19764152       0.13877531
H        2.76130081       5.35230480       1.12150346      -0.01595380       0.09106466      -0.15522854
O        0.63090067       8.74593033       8.03708338      -0.62191855      -0.11590776      -0.27140011
H        1.26521864       8.41482170       7.42720088      -0.35622063       0.23368880       0.02360156
H       -0.10777036       9.20226864       7.52387928      -0.35370470      -0.16052890      -0.00211418
O       11.89604478       0.77071483       6.79271897       0.04962042       1.03158814      -0.17188121
H       11.32700129       0.83355569       7.57182967       0.16253558      -0.36887825       0.10486087
H       11.56533297       1.42256053       6.16135345      -0.32003811       0.12316876       0.23781755
O       12.56565267       7.07462692       2.32196512       0.33179772      -1.25899882      -0.49728827
H       13.12977396       7.11276702       3.13392263      -0.04995492      -0.06717491       0.08278245
H       12.80137227       6.43695789       1.64949722      -0.16716708      -0.13176368       0.17020358
O       10.56243707       9.34930257       9.33501082       0.09622342      -0.52324938      -0.13309849
H        9.90277423       8.70866389       8.98830568      -0.58607774       0.52365300      -0.13127718
H       10.98158505       9.85539867       8.60816179      -0.17351183       0.28174132      -0.02151870
O        3.97830393       4.46974417       5.58561202      -0.49158856       0.04209684       1.11020249
H        3.77355278       3.52878897       5.48324889       0.00425245       0.17474473       0.12368854
H        3.12850020       4.91316731       5.66982312      -0.23926315      -0.29567969      -0.00902832
O        4.64439216       3.45885684      10.42792095       0.97688485      -0.24721705       0.23492578
H        4.65428650       4.42694098      10.30187485       0.08670563      -0.34127468      -0.35292503
H        5.20131459       3.07596215      11.12302531      -0.43490190       0.22128566       0.62959436
192
Lattice="13.289447028860423 0.0 0.0 -5.292150854193137e-07 13.289447028860423 0.0 -5.292150854193137e-07 -5.292150854193137e-07 13.289447028860423" Properties=species:S:1:pos:R:3:momenta:R:3 step=160 time_fs=16.0 phase=production pbc="T T T"
O       10.34494795       0.36921547       9.52373414       1.76595638       0.48837814       1.35275589
H       10.85200536       0.93105854      10.09681779      -0.02539808       0.77530019      -0.35488773
H        9.45351735       0.66778280       9.79598551       0.27560695      -0.09481776      -0.51828706
O       11.36330395       2.60444389       2.53656217       0.46227944       0.26575793       0.43091231
H       10.68105063       3.14547962       2.13041874       0.12916120      -0.03172870       0.09952313
H       12.25607572       2.97270611       2.47226376       0.06157971      -0.04688215       0.12932163
O        3.09504870       8.21922301      10.76410325       0.89323638      -0.23494829      -1.60406101
H        2.19284464       8.48740638      10.59664457       0.17242298       0.19830987       0.02627344
H        3.55100478       8.93322928      10.31852028      -0.05113944      -0.20647478      -0.40132246
O        8.85873993       6.30196745       7.64484146      -0.15226541       1.35587829       0.68602195
H        9.21062956       5.89715366       8.44031810      -0.07538184      -0.00415299       0.18287328
H        7.99523887       5.89527811       7.55726836      -0.26788092      -0.21514921      -0.02721599
O        6.72197996      13.53348551      -0.04843056       0.97614032       0.51730510      -0.27987382
H        6.41365346      12.68318436       0.33114435      -0.46403135       0.12693701       0.33254511
H        7.07861100      13.75955148       0.80391131      -0.11093922       0.12366096      -0.18436136
O       12.53711318       6.78000460       9.61476982       0.47730805      -1.32147265       0.16802929
H       11.68533175       7.12054432       9.91078720      -0.09357912      -0.06121076      -0.27465219
H       12.95458086       7.29385258       8.90015689      -0.07526473       0.09553723      -0.02730665
O        7.77199736       9.79405878       5.17750899       0.56772152       0.09783219      -0.89359451
H        7.26770163       9.19899494       5.73603864      -0.34024245       0.49995072       0.45692445
H        7.59877238       9.59381409       4.28272129      -0.48046268      -0.13280044       0.24614134
O        0.54406120      12.82807068       3.26311200      -1.21197628       0.54252491      -0.31850867
H       -0.35754594      12.59871900       3.00970720      -0.11949861      -0.18334624      -0.31202552
H        1.15043577      12.46748804       2.58011547       0.18418302      -0.54490371       0.54337429
O        8.98515503       8.51686188       1.43986649       0.26242550      -0.34225700       0.13698279
H        8.92668959       8.39032990       0.47436980      -0.04284612      -0.43268209       0.05339268
H        9.19772149       9.50763200       1.71374996       0.15844917       0.43799575       0.14873051
O        3.62832053       7.80475521       3.68803671       0.38056263      -0.62821572      -0.69255203
H        3.97686106       7.63228954       4.58828976       0.54468034       0.40609908      -0.26392930
H        3.35617694       6.96320133       3.26988176       0.59479987      -0.08977080       0.23731366
O        9.76232202       6.68291802      10.73248919      -0.64554410       0.27447149       0.42231642
H       10.08392962       5.82809487      11.06408380      -0.23528644       0.28923297       0.35385728
H       10.13595058       7.30275567      11.38321507      -0.01822195      -0.17564231       0.18039029
O        2.83477219       1.86082547       6.14391055       0.40573559       1.30167570      -1.13362752
H        3.74261790       1.68670200       6.06828960       0.01867983      -0.07951789      -0.09738234
H        2.26279879       1.14947947       6.35740368       0.14109012      -0.10581026      -0.16082007
O       11.01096937       3.07976122       5.46304750       0.85105315       0.60079250       1.25730403
H       11.11063303       3.73989904       6.16115501       0.42208712      -0.26063687      -0.12554363
H       11.76290712       3.12678892       4.91417372       0.04917581       0.27626343       0.05800791
O       11.58345048       3.87911893      11.25869124       0.04808246       0.37373153       0.79241759
H       11.92700157       3.81257375      10.39369743       0.07745852      -0.15621889      -0.05156150
H       11.55892511       3.00894361      11.63944337      -0.10934358      -0.00523602      -0.29590518
O       11.85858607      10.88044307       7.37581421      -0.64808265       0.35132173       0.24380449
H       11.71364219      10.25837877       6.65726564      -0.08847791       0.21951995      -0.07647867
H       11.76042494      11.78940673       7.10981123      -0.24114300      -0.03811403       0.07925353
O        3.85852410       7.68928974       0.31492801       0.82932199      -0.35341187      -0.33964964
H        4.03253869       7.42638023      -0.60400311       0.04970025       0.06651793       0.16978754
H        4.61237866       7.48665515       0.89182344      -0.09148081      -0.08307910      -0.17409523
O       11.70426415      12.57025146      12.84877782       1.52133782       0.56701274       0.07531132
H       11.39852536      11.87899425      12.24712748       0.50524018      -0.19592824       0.02333038
H       11.29314422      12.49607886      13.69551657      -0.26331150       0.19302973      -0.24890863
O        3.15966451       9.93892320       1.51770806      -0.61544722      -0.43238691      -0.69413079
H        2.95540324      10.10323342       2.44462541      -0.12157233       0.85570845      -0.28668299
H        3.46536982       9.05687449       1.20140737      -0.10149858       0.11802362       0.28041257
O        0.23424576       9.89644952      10.50693690       1.12491515       0.09117866      -0.93846240
H        0.62293670       9.91069181       9.60897951      -0.23103700       0.41333490       0.02985074
H       -0.27085467      10.66612695      10.75869858       0.22686560       0.18864869       0.20561012
O        1.56858312       2.09362791       3.59201841       0.30890594       0.31765058      -0.60008486
H        1.40601166       1.14701902       3.56509092      -0.34013441      -0.03648170       0.08627568
H        1.65618557       2.32826086       4.51453967      -0.10948695      -0.17756756       0.08413055
O        0.97403822       7.29340898      13.07583092      -0.70876950      -1.27344773      -0.66629565
H        0.85381903       6.64254441      12.37465054      -0.01227612       0.11205383       0.02450851
H        1.96028638       7.23113545      13.13912052      -0.10895787      -0.01245374      -0.03763622
O        0.68546873      12.42836344       6.01815092       0.35671450       0.07706192       0.05245874
H        0.95416484      11.98546064       5.21544292       0.03267082      -0.30558071       0.37927000
H       -0.26775007      12.62316187       5.94885227       0.11503131      -0.59111163      -0.16769348
O        1.73372723      11.68320029       8.26331341       1.45577012       0.47637022       0.52657369
H        1.41011323      11.84729972       7.37990498       0.10915441       0.08970400       0.15606801
H        1.75224015      12.46018087       8.78916955       0.15237475       0.16265923      -0.40733172
O        0.83237244      13.26303558       0.39788183      -0.15357451      -0.12305720      -0.50374326
H        1.55238542      12.62662718       0.29213751      -0.22015334      -0.13591679       0.22316020
H       -0.02417247      12.96021356       0.04744640       0.05041214      -0.12451500      -0.12137618
O        6.68671272       0.94966958       6.00389480      -0.52423751       0.33902815       1.74559714
H        7.07493615       0.10854802       5.70298609      -0.04224612       0.14213497      -0.18763707
H        6.98600465       1.70764176       5.46447337      -0.13085880       0.10846831       0.14481167
O        0.80507233       7.65285035       4.71096636      -0.23556521      -0.91963628       0.58542610
H        2.90487517       8.39502605       4.18984524      -0.48008951       0.14258941      -0.11148672
H        0.84199201       6.89368746       5.28629451      -0.02548412       0.14254023       0.14247241
O        5.65764963       2.94319016      13.05324598      -0.68763182       0.71315479       1.32900167
H        5.43589221       2.01616776      13.15647093      -0.21053580       0.08332419      -0.38927668
H        5.20163523       3.41062355      13.74480369      -0.29586600      -0.30018457       0.12606525
O        5.67710254      12.45296310       8.51665999      -0.45011629       0.38536938      -0.76335749
H        6.14531376      12.16235002       7.72750403       0.07119391      -0.23143541       0.17415500
H        5.18631025      13.30355751       8.40559511       0.02712227       0.00206956      -0.78169407
O       11.37160065       8.94593148       5.07788990      -0.10625415       0.84942038       0.07027946
H       10.92278297       8.14277272       5.30897145       0.38180075       0.08388181       0.28709212
H       12.21243163       8.91417961       4.69930174      -0.15150082      -0.19386138      -0.01554023
O        9.90012224       6.55568306       2.93869483       0.38970324      -1.20891933      -0.48533923
H        9.25149610       7.17524678       2.53499960      -0.39868754       0.01337865       0.10957192
H       10.75887607       6.75342260       2.48739318      -0.33910340       0.31876698      -0.02955314
O        3.74603710      10.39654840       9.52887052       0.04296802      -1.59747815       1.06129273
H        4.64826735      10.69772030       9.45039738       0.18961427      -0.46872974       0.06906638
H        3.20668899      10.43193208       8.71359416       0.26647328       0.01533411      -0.05746179
O        7.24506813       7.57562940      11.51734817       1.21348039      -0.16052638       0.92080602
H        7.28649234       8.54807285      11.65578523       0.26769538       0.13357369       0.10419131
H        8.07859164       7.33359895      11.08512151      -0.09804245       0.00222787       0.02287615
O        4.93116856      11.04775720      12.65765458       0.53355025       1.11797533      -0.42052457
H        4.32562344      11.39132073      13.30027707      -0.00623692       0.44185626      -0.19764399
H        4.80211260      11.30918994      11.74220441      -0.01084447      -0.17574762      -0.11128649
O        8.09437095       4.55980267      12.70958857      -0.04261508       0.28946798       1.22615605
H        7.19468805       4.22584004      12.54206530       0.06961050      -0.35688192      -0.31137429
H        8.40365221       5.09071669      11.94929402       0.18458530      -0.42797051      -0.30778174
O       11.30416558       8.32187586      11.78227821      -0.81054964      -0.51593559       0.46471216
H       11.84993721       8.46978463      12.56327915      -0.49633097      -0.44626284       0.24022809
H       11.12931803       9.19667369      11.49598696      -0.09094939       0.02638607       0.60117097
O        5.18223789       4.11445552       2.15199347      -0.34388879      -0.21826747       0.07300812
H        5.59023895       3.94164772       2.98336462      -0.08132856       0.32575369      -0.03350918
H        4.24064272       4.16763165       2.35599655       0.01477781      -0.21566205      -0.28258961
O        1.82843410       1.06169282       8.89237074      -0.39700112      -0.51097637       0.20314204
H        2.78713043       1.06429299       9.06305640       0.18587718       0.00141792       0.42268150
H        1.35208654       1.23623672       9.71458085      -0.38513690      -0.42752065      -0.16016937
O        4.57702301       6.12877450      10.36387309      -0.19673291      -1.40920698       0.83438324
H        3.99319566       6.76270370       9.87744758      -0.09353890      -0.19131630      -0.31716523
H        5.41947371       6.63994680      10.47106246       0.00432462      -0.10807417      -0.08785697
O        8.99266985      12.48649541       5.54909874      -0.13409585      -1.03686922      -0.30303613
H        8.60365894      11.60932042       5.50556340       0.24185246      -0.05866867      -0.11786327
H        9.68933116      12.47160499       6.25183754      -0.63355330       0.08621878       0.60329390
O        6.20025160       5.29478452       7.92033452      -1.23562839       0.49425013      -1.15705483
H        5.45508446       5.67100753       8.37430321       0.16761390       0.24332853      -0.00397733
H        5.96673039       5.00020691       7.04894138      -0.37164804      -0.01868507      -0.12803793
O        9.87485640      10.54437034       3.23445910       1.27806224       0.06874376       0.52869419
H       10.58432566      10.05734067       3.65401611       0.01653972      -0.16810196      -0.07187227
H       10.61267225      11.88490185       2.51665114       0.11947531      -0.43088846      -0.01500447
O        7.34904002      12.83406645      10.59650786      -0.44244561       0.30347804      -0.23548986
H        6.95966884      13.44594790      11.20655889      -0.11559610       0.03254359      -0.20345373
H        6.89346289      12.76421008       9.72243198      -0.24216156       0.11038317      -0.04691251
O        0.97077169       5.51085870      10.95978931       0.12324122       0.38298201      -1.64264781
H        0.33212132       5.44779627      10.21737418       0.06293370      -0.23937453       0.21010449
H        1.74719284       5.10846070      10.58313679       0.03960355      -0.40114244       0.38375573
O       10.68817500       5.94321703       5.62513879      -2.21173233       1.14234536       0.87282667
H       10.60085020       6.16340288       4.10311607       0.47721235      -0.62429371      -0.81220693
H        9.82906406       5.96481183       6.04213697      -0.10875461       0.01594375      -0.03967395
O        1.33509119       5.03281918       5.63469039       0.80270550       1.30234670       0.92487701
H        1.12261193       4.28545837       5.06435246      -0.07688017       0.01652624      -0.10856531
H        0.75519297       4.89028118       6.41828032       0.34791094      -0.05301567      -0.19909358
O        5.92959361       6.96501411       1.73278209       0.32602692       0.70024002      -0.18854100
H        6.59857137       7.48034002       1.28522407       0.09923544      -0.09370796       0.24412474
H        6.14308276       6.03105670       1.85828939      -0.01649013       0.08180616       0.09150325
O        9.28315049       4.24543350       1.79688313       0.78168188       1.03442812       0.22116859
H        8.80195153       4.19888380       0.95739756       0.45800272      -0.10499945      -0.07829848
H        9.73943829       5.04298703       1.96007034       0.24932000       0.02412185      -0.19695713
O        0.94432949       2.55719399       1.17802978      -0.15076314      -0.26398433       0.52495038
H        1.09954891       1.86100631       0.57577396       0.38434347      -0.07217815      -0.35249644
H        1.51045537       2.49055869       1.95053140      -0.21866514      -0.03731500      -0.08744204
O       12.94056333       4.77087311       7.62242653       0.37207349      -0.12749625      -1.05151627
H       13.09459165       5.33761509       8.37669231       0.14259883      -0.03356678       0.05544578
H       12.04585334       4.92156776       7.30945862       0.05443690      -0.21092945       0.38939816
O        7.51989699      10.00700704      12.80422730      -1.17599705      -0.58966831       0.20458881
H        6.61303204      10.31129327      12.83203636       0.18074241       0.11773782      -0.01929112
H        8.05450769      10.46045799      12.15858509      -0.11529334      -0.17444110       0.08577735
O       10.93787826      -0.02896405       2.78528980       0.44471091      -0.09756567      -0.54706733
H       11.06428847       0.78330453       2.19788345      -0.22682036       0.00310759       0.56126263
H        9.99999759       0.15651695       3.04414772       0.13247196       0.01299680      -0.13378117
O        1.60849043       2.35657215      11.19341715      -0.18359995      -0.45921207      -1.20934565
H        2.03624401       2.08279181      11.99375406       0.13220427      -0.06890691      -0.21386592
H        1.99435230       3.16671988      10.92961647       0.50269565      -0.19263193       0.07808647
O        4.69414822       1.86819126       8.14892027      -0.72494121       0.45074176      -0.78577124
H        4.45643998       2.22631001       9.00666191       0.20868195      -0.18879431      -0.09289764
H        5.50619045       2.24787412       7.85395304      -0.41384735       0.13623595      -0.19200844
O        9.45370181      11.52777474      11.38428116      -0.84184063       0.42470154      -0.59527319
H        8.89787814      12.26790398      11.08605335       0.12306313      -0.03711153       0.04281119
H        9.90938927      11.00429471      10.71065026       0.09158165      -0.15381146      -0.09644947
O        1.75078635      10.85666874      12.71739941       1.03187209       0.77788986       0.78363861
H        1.96605423      10.21801117      13.38709595       0.13412876       0.02338692      -0.02042703
H        0.99335204      10.52876770      12.10724071       0.09640694      -0.03380640       0.18318248
O        8.47093729       0.38095073       3.17970075      -1.53609194      -0.09356764       0.41686321
H        7.82284378       0.94128982       2.74202755      -0.00107603      -0.34769725      -0.28751129
H        8.40435362       0.24791417       4.15457890      -0.15253978      -0.03513762      -0.16434581
O        8.27577192       3.04047939       4.06765638       0.95558752      -0.36053802      -0.68371262
H        8.03291169       3.72413155       3.34873694      -0.38421870      -0.23797410       0.05358891
H        8.70450639       3.55640852       4.75470073      -0.67258076       0.35052722      -0.05682804
O        2.40773990       4.93901527       1.90599962      -0.83152602      -0.51724366       0.09976744
H        1.88461853       4.18424131       1.63736842      -0.12731845       0.23866087       0.13782140
H        2.75813338       5.36228481       1.10551623      -0.05899449       0.10184426      -0.15202205
O        0.62603852       8.74586821       8.03536374      -0.98599591       0.09882073      -0.27225093
H        1.23581592       8.43445854       7.42265101      -0.22216633       0.15524339      -0.14021706
H       -0.13043375       9.18019501       7.53229294      -0.11301220      -0.29038142       0.17496891
O       11.89618182       0.77710704       6.79182638      -0.00988747       1.04845456      -0.12976893
H       11.34555693       0.79677331       7.57942486       0.21320199      -0.38487612       0.05671598
H       11.53453310       1.43446096       6.18349526      -0.31222042       0.12081147       0.21514231
O       12.56773961       7.06701671       2.31929257       0.33013007      -1.21176651      -0.36418338
H       13.12128686       7.10477615       3.13252844      -0.12256840      -0.09669714      -0.10808907
H       12.78887742       6.42511353       1.66686120      -0.08392169      -0.12560813       0.17114085
O       10.56277913       9.34593958       9.33377205       0.00293394      -0.57501091      -0.28463556
H        9.85324193       8.76704049       8.97743915      -0.42702165       0.67129116      -0.08954171
H       10.96103525       9.87945289       8.60976542      -0.24913709       0.20883387       0.05815488
O        3.97511173       4.46999340       5.59235269      -0.55019901       0.05780295       1.08355357
H        3.77535896       3.54838266       5.49669251       0.03061075       0.20082178       0.14836989
H        3.10710995       4.88401286       5.66925722      -0.19893258      -0.29881491      -0.00222454
O        4.65043255       3.45712155      10.42940554       0.98791052      -0.35223673       0.24792473
H        4.66362631       4.39191495      10.26951459       0.10446829      -0.34621242      -0.31560559
H        5.15759067       3.10142649      11.18223458      -0.46309945       0.30130338       0.58158690
192
Lattice="13.289455762045613 0.0 0.0 -5.292154331940056e-07 13.289455762045613 0.0 -5.292154331940056e-07 -5.292154331940056e-07 13.289455762045613" Properties=species:S:1:pos:R:3:momenta:R:3 step=170 time_fs=17.0 phase=production pbc="T T T"
O       10.35546929       0.37255900       9.53229233       1.71814804       0.60007044       1.43011944
H       10.85506741       1.00783478      10.06143431       0.07621565       0.78580776      -0.38223405
H        9.47975718       0.65303539       9.74335864       0.21558011      -0.19290553      -0.54725105
O       11.36634307       2.60591500       2.53926550       0.52963382       0.20258955       0.45467594
H       10.69342682       3.14501911       2.13972875       0.11494989       0.02758172       0.08577887
H       12.25801273       2.96754090       2.48422650      -0.01631495      -0.05883721       0.11605121
O        3.10050458       8.21773601      10.75420133       0.88615388      -0.25228734      -1.62354589
H        2.20613626       8.50502870      10.60136190       0.09548893       0.16381118       0.07034770
H        3.55010062       8.91591983      10.27789412       0.03396850      -0.14885223      -0.43311161
O        8.85766618       6.31015382       7.64918835      -0.22260743       1.28770154       0.73663434
H        9.20308311       5.89803166       8.45730328      -0.08616572       0.02924527       0.14976259
H        7.97030061       5.87566076       7.55426275      -0.21255333      -0.17322315      -0.03105557
O        6.72769511      13.53598290      -0.04990951       0.87050771       0.27900559      -0.20934855
H        6.36868858      12.70147896       0.35646717      -0.45205660       0.25891500       0.18039999
H        7.07205963      13.77654112       0.78921288      -0.01686766       0.22884796      -0.10327358
O       12.54020282       6.77199558       9.61557372       0.52620804      -1.28633471       0.08916855
H       11.67897487       7.11413229       9.88263407      -0.03696838      -0.07105257      -0.30230209
H       12.94505655       7.30235714       8.90203061      -0.11981117       0.07686319       0.06701535
O        7.77568635       9.79485525       5.17291558       0.62305229       0.14723184      -0.58841439
H        7.23566675       9.24893430       5.77580393      -0.30480220       0.53620601       0.34433889
H        7.54810276       9.57607745       4.29657663      -0.56197621      -0.23213694       0.03751047
O        0.53671059      12.83119511       3.26066643      -1.19751839       0.46756265      -0.47725128
H       -0.36570074      12.58150780       2.98044880      -0.03740868      -0.16643257      -0.28415053
H        1.16328897      12.41649255       2.63933644       0.08315675      -0.50129151       0.66558677
O        8.98689148       8.51571304       1.44062722       0.30150194      -0.03551946       0.11878597
H        8.92234299       8.35009267       0.48667701      -0.04703305      -0.39207474       0.19098967
H        9.21162888       9.53567568       1.72486809       0.12710024       0.13895906       0.07920094
O        3.63177644       7.79989211       3.68387525       0.71885054      -0.89750113      -0.65527523
H        4.03091236       7.66899674       4.55140054       0.57000440       0.34547652      -0.46992627
H        3.41619707       6.95907733       3.29626745       0.62632178      -0.02364247       0.29035270
O        9.75849261       6.68450190      10.73544610      -0.61057955       0.25672594       0.53120766
H       10.05900216       5.85664916      11.09565141      -0.27026363       0.26981436       0.29906412
H       10.13317552       7.28468624      11.39838261      -0.03622138      -0.18453041       0.13276133
O        2.83683771       1.86937615       6.13680608       0.27665026       1.46784937      -1.17958189
H        3.75429585       1.67424045       6.05875676       0.20219654      -0.17202225      -0.09735199
H        2.27356065       1.13383434       6.34339605       0.08830833      -0.20380548      -0.13034121
O       11.01589564       3.08331640       5.47101312       0.76014365       0.53507973       1.30092750
H       11.15033954       3.71580255       6.14847886       0.39388159      -0.20651091      -0.09962571
H       11.77298719       3.15332642       4.91338271       0.14756442       0.26424708      -0.07219881
O       11.58360643       3.88163690      11.26391690       0.01361858       0.45167080       0.87181038
H       11.93709847       3.79645360      10.38303130       0.11759151      -0.16904867      -0.13922147
H       11.54815299       3.00617308      11.61059334      -0.11371219      -0.06304356      -0.28900856
O       11.85453562      10.88238736       7.37734668      -0.67239740       0.28030549       0.25935845
H       11.70438757      10.28034467       6.64902867      -0.10214231       0.22534084      -0.09716674
H       11.73620278      11.78707165       7.11793554      -0.25634914      -0.00332622       0.08631269
O        3.86367757       7.68696452       0.31274978       0.82310563      -0.39129460      -0.35595177
H        4.03722590       7.43406212      -0.58522252       0.05065259       0.08234966       0.18217970
H        4.60320219       7.47831026       0.87365298      -0.07523376      -0.09314117      -0.17882396
O       11.71380703      12.57378169      12.84889604       1.58547925       0.57942771      -0.03968645
H       11.44787048      11.86155193      12.25242418       0.50686218      -0.16123141       0.08542399
H       11.26381317      12.51230187      13.67616382      -0.33853139       0.14037055      -0.14840786
O        3.15586710       9.93634457       1.51327615      -0.62998890      -0.38147553      -0.75052449
H        2.94490391      10.18266334       2.41303730      -0.09500710       0.77265068      -0.35296657
H        3.45256392       9.07285223       1.23403244      -0.15200813       0.18222826       0.38167130
O        0.24121974       9.89710043      10.50095744       1.12686292       0.12941625      -0.98001667
H        0.59818343       9.95186673       9.61669078      -0.26332021       0.43146530       0.09955349
H       -0.24785193      10.68253705      10.77689637       0.25161422       0.13686582       0.16472326
O        1.57047139       2.09545316       3.58830923       0.30344721       0.26302850      -0.60006771
H        1.37265415       1.14329282       3.57271865      -0.34162201      -0.02530278       0.06908692
H        1.64554412       2.31195486       4.52386285      -0.10896457      -0.15760581       0.09936036
O        0.97016576       7.28547362      13.07170928      -0.55885026      -1.29891845      -0.66410695
H        0.84992173       6.65200518      12.37683892      -0.07001687       0.06818752       0.00504703
H        1.94450476       7.23294403      13.13737182      -0.20681415       0.04874738       0.00158839
O        0.68729952      12.42882622       6.01834673       0.26067326       0.07400379       0.02956557
H        0.95955352      11.95543613       5.25083462       0.08833523      -0.32187253       0.32661566
H       -0.25281359      12.56702297       5.93555242       0.15959736      -0.55475015      -0.10528364
O        1.74276310      11.68552775       8.26657953       1.48895595       0.27697628       0.54118762
H        1.42019231      11.85723249       7.39154075       0.09424001       0.11358383       0.07236104
H        1.76674465      12.48464461       8.75369031       0.14624894       0.34247207      -0.31607595
O        0.83139021      13.26222119       0.39463186      -0.17448549      -0.13697966      -0.55262196
H        1.52863927      12.61358068       0.31314222      -0.25554753      -0.14004023       0.20673361
H       -0.01611076      12.94924911       0.03757947       0.11076554      -0.10024640      -0.08167207
O        6.68365960       0.95184954       6.01430184      -0.47662165       0.37306399       1.64828855
H        7.06845175       0.12779251       5.68608072      -0.08817956       0.24505189      -0.16130271
H        6.97130482       1.71275631       5.48305380      -0.16896084       0.00196693       0.23272210
O        0.80357966       7.64732892       4.71439204      -0.25177519      -0.87257455       0.52342929
H        2.83759780       8.42250917       4.18540475      -0.87033589       0.39220131       0.00169101
H        0.84133533       6.90429189       5.30276216       0.01154718       0.06784700       0.20082552
O        5.65348913       2.94743812      13.06112834      -0.67161971       0.67580864       1.23932047
H        5.41667057       2.02344601      13.11842044      -0.18406728       0.06152400      -0.39179832
H        5.17080050       3.38466325      13.76067963      -0.33417414      -0.23409223       0.19594001
O        5.67417986      12.45572583       8.51182326      -0.50730000       0.51469772      -0.81129018
H        6.14998982      12.14104897       7.74657854       0.03109715      -0.21064897       0.20875138
H        5.19324319      13.29723280       8.32993546       0.11281799      -0.12993278      -0.76631612
O       11.37012082       8.95165274       5.07856930      -0.36065821       1.01950932       0.14587246
H       10.95884547       8.14859930       5.33779333       0.34535090       0.01377404       0.30358737
H       12.21233168       8.89049920       4.69215506       0.14335902      -0.28653498      -0.12849358
O        9.90297735       6.54831910       2.93556921       0.48487593      -1.17987741      -0.54250121
H        9.21908273       7.17130595       2.54992405      -0.26148508      -0.09811720       0.19628825
H       10.72133100       6.78135319       2.49151603      -0.40036035       0.27038788       0.07840489
O        3.74614790      10.38676739       9.53503855       0.00643748      -1.58837564       0.95519723
H        4.66483734      10.65199449       9.45603199       0.14507679      -0.47151226       0.04809012
H        3.23668345      10.43415615       8.71450318       0.34064094       0.02879749       0.06530722
O        7.25267287       7.57510793      11.52306785       1.24868478      -0.00168237       0.94844360
H        7.31161966       8.55407892      11.66572662       0.24635221      -0.01453932       0.09927313
H        8.06610076       7.33395049      11.08731735      -0.14441798       0.00025852       0.01432691
O        4.93475593      11.05455581      12.65494610       0.62658115       1.09848957      -0.45894101
H        4.32243863      11.43526605      13.28010356      -0.05366090       0.45530451      -0.22095101
H        4.79927862      11.29193424      11.73417850      -0.04616259      -0.17832320      -0.05437911
O        8.09389571       4.56167639      12.71683460      -0.11886972       0.31889961       1.12127647
H        7.20746924       4.19330114      12.51239445       0.19793380      -0.30821741      -0.29447232
H        8.41903426       5.04431557      11.92440785       0.12997455      -0.52560786      -0.19722990
O       11.29952893       8.31837196      11.78565995      -0.71460217      -0.62554526       0.61719643
H       11.80179434       8.42085543      12.58654858      -0.48133823      -0.55605015       0.25211656
H       11.11661879       9.21031925      11.54848480      -0.16871461       0.24941906       0.47789485
O        5.17992502       4.11317117       2.15213187      -0.40112597      -0.20132078      -0.03707867
H        5.58604847       3.97219869       2.98571049      -0.00333091       0.30083253       0.08658535
H        4.24060286       4.14712426       2.32763259      -0.02677956      -0.20489666      -0.29631602
O        1.82634918       1.05840286       8.89381175      -0.26497320      -0.56203718       0.26393301
H        2.79633706       1.06481553       9.10377465      -0.01352165       0.00913790       0.40806817
H        1.31749720       1.19515860       9.69644193      -0.32572607      -0.41445925      -0.20822982
O        4.57606813       6.12106006      10.36859491      -0.12595985      -1.11010125       0.69631208
H        3.98986938       6.73717951       9.85404858       0.02697323      -0.33343572      -0.15942907
H        5.41151878       6.62280267      10.46325418      -0.15921096      -0.23838135      -0.07089919
O        8.99223226      12.48011527       5.54771401      -0.01005254      -1.03112576      -0.14942941
H        8.62720349      11.60314179       5.49345877       0.23423539      -0.08244650      -0.13307529
H        9.62156940      12.48142206       6.30338412      -0.75006939       0.11595635       0.45649808
O        6.19294176       5.29767139       7.91312577      -1.14888348       0.43616793      -1.21415164
H        5.46928380       5.69662334       8.37336353       0.12003169       0.28484935      -0.01289709
H        5.92819883       4.99899644       7.03633450      -0.41288496       0.00032375      -0.11203364
O        9.88292332      10.54504475       3.23745887       1.34530627       0.14366003       0.44935064
H       10.58583919      10.03931708       3.64748936       0.01414133      -0.19916043      -0.06342616
H       10.62503721      11.86720862       2.52473146       0.13678621       0.08033942       0.18086486
O        7.34620479      12.83581817      10.59447539      -0.48437214       0.26246757      -0.43420307
H        6.94695331      13.45173854      11.18958444      -0.14678511       0.08919386      -0.14100528
H        6.87345722      12.77503077       9.72528852      -0.16560292       0.11047538       0.10719007
O        0.97137259       5.51312378      10.94952169       0.09712906       0.35399285      -1.68174781
H        0.33786085       5.42709436      10.24039841       0.03695262      -0.18842123       0.23878924
H        1.75388941       5.06887471      10.62149869       0.09085944      -0.40803871       0.40392296
O       10.67469091       5.94995357       5.63160309      -2.18020552       1.07111294       1.11341768
H       10.63680787       6.11110555       3.99682147       0.28752290      -0.48135737      -1.21527303
H        9.81737579       5.96722210       6.04018259      -0.14203402       0.03333708       0.00974730
O        1.33985453       5.04065795       5.64033547       0.76683866       1.24501980       0.87408267
H        1.11660329       4.28963343       5.05521582      -0.04261452       0.07829490      -0.07320695
H        0.79109579       4.88636387       6.39855453       0.36406209      -0.03202832      -0.17122605
O        5.93151976       6.96913220       1.73171805       0.28832960       0.63890513      -0.15279809
H        6.60979568       7.47119303       1.30908555       0.14179068      -0.08358889       0.23776648
H        6.14164282       6.04253073       1.86622099      -0.01252768       0.14417544       0.07286287
O        9.28764270       4.25114504       1.79809320       0.69209534       0.83850636       0.18594553
H        8.84948757       4.19009874       0.95132099       0.51059177      -0.07751494      -0.05788064
H        9.76622808       5.05361446       1.94112501       0.29528782       0.18248763      -0.19079099
O        0.94323987       2.55587038       1.18126973      -0.20927838      -0.19796118       0.48292958
H        1.13845300       1.85157886       0.53981995       0.40600314      -0.08973172      -0.35715990
H        1.48942815       2.48400464       1.94434065      -0.19908557      -0.09889515      -0.02138825
O       12.94288457       4.77004359       7.61599358       0.40775600      -0.14142701      -1.03161313
H       13.10875509       5.33415229       8.38190140       0.14694819      -0.04224050       0.04483482
H       12.05037620       4.90102926       7.34736290       0.01327393      -0.20682961       0.37846856
O        7.51267114      10.00312860      12.80561239      -1.16922058      -0.68700170       0.25128265
H        6.62794540      10.32378500      12.82958017       0.10744068       0.14354273      -0.02983837
H        8.04530931      10.44631181      12.16465949      -0.06534431      -0.11023651       0.03013128
O       10.94004103      -0.03016451       2.78118979       0.26889498      -0.33498861      -0.77183553
H       11.04324922       0.77536314       2.25928847      -0.19487209      -0.13443362       0.67168262
H       10.02287715       0.14844103       3.02805201       0.31094021      -0.17848907      -0.18723286
O        1.60703564       2.35334953      11.18585515      -0.28032689      -0.57246563      -1.25847395
H        2.05000574       2.07332898      11.97668141       0.14763707      -0.12798110      -0.13593941
H        2.04658053       3.15648638      10.93504368       0.56113303      -0.03358321       0.03607578
O        4.68937270       1.87059838       8.14423225      -0.84620548       0.31615822      -0.75208250
H        4.47818666       2.20966949       8.99938091       0.23088009      -0.14631954      -0.03763448
H        5.47178665       2.26527996       7.83302728      -0.27096913       0.23073255      -0.24726547
O        9.44857954      11.53020552      11.38056194      -0.81070795       0.34071819      -0.62076386
H        8.91141000      12.26134200      11.08879796       0.14299937      -0.08118706       0.00683227
H        9.91476165      10.99345949      10.70352006       0.01221049      -0.06150221      -0.04079870
O        1.75659264      10.86149369      12.72167730       0.86679325       0.79251446       0.61390160
H        1.97837504      10.21795868      13.38663930       0.11940517      -0.02380217       0.01152456
H        1.01366066      10.52745129      12.13409456       0.31239895       0.00455163       0.36083435
O        8.46132852       0.38045050       3.18254674      -1.57847683      -0.07656677       0.49251680
H        7.82374731       0.90471238       2.71646908       0.00783662      -0.39356823      -0.24394668
H        8.38826671       0.24617336       4.13252456      -0.17949815      -0.00318519      -0.26497986
O        8.28147787       3.03900924       4.06287383       0.89433981      -0.13432376      -0.87872053
H        7.99967957       3.69121478       3.36392712      -0.30165917      -0.43092810       0.24734173
H        8.63928532       3.58959949       4.74884275      -0.65689761       0.33816341      -0.04741843
O        2.40300578       4.93615407       1.90641748      -0.69546917      -0.39478427       0.03125611
H        1.86993796       4.20563257       1.64920593      -0.18499337       0.18516365       0.09933444
H        2.74839737       5.37043579       1.09500599      -0.14532450       0.05954272      -0.05311794
O        0.61884897       8.74711526       8.03394035      -1.32026961       0.28467404      -0.18626079
H        1.22358076       8.44416473       7.39863968      -0.03698784       0.04765731      -0.34206738
H       -0.13227559       9.14738632       7.55663361       0.04751716      -0.36675675       0.30762820
O       11.89602507       0.78358948       6.79104946      -0.03872198       1.06417149      -0.13446047
H       11.36749139       0.75873812       7.58444029       0.23066386      -0.39506703       0.05484380
H       11.50468840       1.44586908       6.20331283      -0.29916724       0.11102398       0.19273721
O       12.56961217       7.05991048       2.31753335       0.26268246      -1.09853039      -0.21879728
H       13.10726147       7.09417184       3.11507710      -0.15384719      -0.11952252      -0.23042825
H       12.78611060       6.41035031       1.68035920       0.03003190      -0.18396570       0.09811989
O       10.56250864       9.34235516       9.33155255      -0.08842457      -0.58627059      -0.43211510
H        9.81908867       8.83800901       8.97083731      -0.28442512       0.77202912      -0.04946474
H       10.93351958       9.89624866       8.61952909      -0.31040184       0.14011237       0.13775980
O        3.97159321       4.47072869       5.59896069      -0.59385987       0.19784970       1.06925604
H        3.77909093       3.56297462       5.51157186       0.04414208       0.07725712       0.15452840
H        3.08973514       4.85575851       5.66954026      -0.15834299      -0.27704878       0.00863400
O        4.65654398       3.45421100      10.43109823       1.00204630      -0.61587500       0.30868096
H        4.67460097       4.36494001      10.23948467       0.12035189      -0.18669377      -0.30536879
H        5.11109220       3.13459881      11.23583457      -0.49074677       0.37856333       0.51581284
192
Lattice="13.28947441528386 0.0 0.0 -5.292161760070852e-07 13.28947441528386 0.0 -5.292161760070852e-07 -5.292161760070852e-07 13.28947441528386" Properties=species:S:1:pos:R:3:momenta:R:3 step=180 time_fs=18.0 phase=production pbc="T T T"
O       10.36673000       0.37664594       9.54134324       1.98375460       0.74185898       1.52018733
H       10.86393083       1.08060577      10.02012244       0.08848399       0.68750131      -0.47559592
H        9.48795721       0.63273008       9.69130403      -0.06907463      -0.21518691      -0.51722428
O       11.36980535       2.60683142       2.54219940       0.58455473       0.08822645       0.50189326
H       10.70215789       3.15156675       2.14644119       0.06094935       0.10762422       0.05059024
H       12.25460846       2.96169297       2.49486208      -0.04261638      -0.05760420       0.10179465
O        3.10596963       8.21619852      10.74414794       0.89488514      -0.24267288      -1.66324809
H        2.21128886       8.51931773      10.61044595       0.01327602       0.12817306       0.11655717
H        3.55717205       8.90331763      10.23468296       0.10544291      -0.11876144      -0.44800215
O        8.85584326       6.31761670       7.65396600      -0.38402490       1.13326169       0.81719178
H        9.19305863       5.90374635       8.46754190      -0.12101315       0.08939789       0.05621549
H        7.95768544       5.86334206       7.55174240      -0.03613037      -0.07451382      -0.01942490
O        6.73259531      13.53688139      -0.05102688       0.72258321       0.01228498      -0.15016852
H        6.32638658      12.73432204       0.36568634      -0.41481020       0.41166601       0.00918355
H        7.07590328      13.80446596       0.78479307       0.09421507       0.34214059       0.00774378
O       12.54359836       6.76421381       9.61588786       0.57395677      -1.25563012       0.01186287
H       11.67765679       7.10674815       9.85227480       0.00443045      -0.07999535      -0.31809347
H       12.93185004       7.30892350       8.91275734      -0.14597709       0.06045523       0.14662979
O        7.77950589       9.79571859       5.17015769       0.60101261       0.11455344      -0.34688508
H        7.21010348       9.30487046       5.80101319      -0.21469570       0.61423717       0.16657723
H        7.49007978       9.54974338       4.29438885      -0.61741405      -0.29652939      -0.04138711
O        0.52919890      12.83381973       3.25732662      -1.26099717       0.38354374      -0.60312296
H       -0.36376606      12.56677382       2.95494116       0.07775961      -0.13495963      -0.23760512
H        1.16808139      12.36944793       2.70807930       0.02633383      -0.46904838       0.73399273
O        8.98888763       8.51644111       1.44150297       0.34628640       0.27023436       0.18489379
H        8.91742114       8.31386287       0.50887055      -0.05499310      -0.35350770       0.24593958
H        9.22240112       9.53481341       1.72903764       0.09208841      -0.15775973       0.00483677
O        3.63659670       7.79455534       3.68001151       0.76931518      -0.76723037      -0.59891116
H        4.08819448       7.70061908       4.50274078       0.60364300       0.31425272      -0.49372173
H        3.47663662       6.95310884       3.32378387       0.60875770      -0.12225672       0.26198804
O        9.75476260       6.68626524      10.73892071      -0.61426261       0.32464022       0.58690213
H       10.03233068       5.87593871      11.12359863      -0.27402264       0.10741526       0.27971113
H       10.12950103       7.26873659      11.40965865      -0.03630093      -0.13442229       0.10148895
O        2.83840865       1.87856905       6.12946616       0.25828635       1.49753475      -1.21224563
H        3.77606283       1.65458029       6.04977229       0.20734827      -0.22199883      -0.08411684
H        2.28229614       1.11289838       6.33110117       0.10375680      -0.20713923      -0.12732491
O       11.02049773       3.08615527       5.47862254       0.75245098       0.38289268       1.14930296
H       11.18789078       3.70355176       6.14696527       0.37876332      -0.03591401       0.08273332
H       11.78856578       3.17751701       4.90156141       0.15137845       0.22849750      -0.15824866
O       11.58381236       3.88465597      11.26899730       0.06026780       0.52049227       0.75066871
H       11.94745915       3.78085136      10.37247506       0.08350527      -0.14481628      -0.05138471
H       11.53648836       2.99575638      11.58394010      -0.12713991      -0.14749620      -0.25738595
O       11.85036616      10.88393325       7.37905161      -0.69111596       0.22197031       0.29244280
H       11.69372699      10.30148526       6.63772652      -0.11687951       0.20595221      -0.13626172
H       11.71049073      11.78946143       7.12658605      -0.27140334       0.05177080       0.09166123
O        3.86836957       7.68466202       0.31073484       0.68895691      -0.35263294      -0.28835844
H        4.04316328       7.44092044      -0.57452220       0.07388728       0.05264348       0.01511336
H        4.60124980       7.46772096       0.86036716       0.04630656      -0.12696984      -0.08215821
O       11.72371856      12.57739591      12.84842458       1.63112123       0.59371007      -0.10372056
H       11.49709537      11.84746733      12.26356837       0.50125572      -0.13041302       0.14033913
H       11.22814013      12.52370369      13.66503246      -0.38491627       0.09505433      -0.09502094
O        3.15183292       9.93462325       1.50850771      -0.69306395      -0.15716959      -0.80221598
H        2.93661899      10.25373476       2.37742256      -0.07679424       0.68602955      -0.37065227
H        3.43780017       9.08645216       1.27416934      -0.14105680       0.06787906       0.43434102
O        0.24788645       9.89811485      10.49529805       1.03438499       0.19529660      -0.84422736
H        0.57423640       9.99497686       9.62260760      -0.21691377       0.45453017      -0.00425234
H       -0.22126699      10.69167238      10.79068898       0.29348508       0.04963613       0.11991616
O        1.57228387       2.09673168       3.58476899       0.28423172       0.14522275      -0.54619634
H        1.34000055       1.14439572       3.57831994      -0.32596207       0.05606770       0.04430536
H        1.63497004       2.29747719       4.53236798      -0.10782863      -0.13957231       0.06774387
O        0.96704980       7.27760978      13.06784359      -0.47212390      -1.25947321      -0.59478612
H        0.83992282       6.65384066      12.37340439      -0.13525386      -0.03625132      -0.08237540
H        1.92226593       7.24044409      13.13947378      -0.23410946       0.10368400       0.04135683
O        0.68895034      12.42930586       6.01866968       0.29670247       0.07339188       0.07420481
H        0.97279356      11.92144881       5.27677332       0.18591577      -0.37605185       0.20443964
H       -0.24257713      12.51596004       5.92827749       0.02745139      -0.49167208      -0.04473114
O        1.75200924      11.68675177       8.27005011       1.51984935       0.13964936       0.59101735
H        1.42830566      11.86915620       7.39341950       0.07391407       0.12793143      -0.02980053
H        1.78086639      12.52533323       8.72708083       0.14375448       0.47225656      -0.23950582
O        0.83017942      13.26149195       0.39113791      -0.22007481      -0.09808210      -0.58174630
H        1.50475525      12.59784038       0.33227097      -0.22527883      -0.18975582       0.18555479
H       -0.00400728      12.94058650       0.03111816       0.12771649      -0.07940496      -0.05449299
O        6.68076314       0.95426355       6.02428312      -0.48255303       0.41183704       1.61721902
H        7.05873803       0.15383353       5.67074844      -0.10453915       0.27246769      -0.15971507
H        6.95389861       1.71029209       5.50832497      -0.18229827      -0.03482996       0.27412599
O        0.80198252       7.64215063       4.71740722      -0.26776699      -0.82509694       0.46321640
H        2.74535911       8.46318098       4.18633489      -0.93643679       0.37527066      -0.01465787
H        0.84412424       6.90723610       5.32517648       0.04487040       0.00243629       0.25124368
O        5.64933155       2.95156598      13.06859485      -0.69550742       0.67241963       1.19919953
H        5.40013296       2.02797733      13.08016401      -0.15434910       0.03398890      -0.39333708
H        5.13776726       3.36403948      13.78136031      -0.33464202      -0.19677409       0.21583889
O        5.67085108      12.45929989       8.50678669      -0.58021634       0.63914502      -0.82580796
H        6.15285571      12.12019985       7.76629092       0.03546024      -0.22400765       0.18583292
H        5.20739957      13.27948139       8.25693848       0.17041106      -0.22416549      -0.73030020
O       11.36762813       8.95840421       5.07954739      -0.40678757       1.15699588       0.15341423
H       10.98883041       8.14389468       5.36771226       0.26932576      -0.10409602       0.30551558
H       12.23468940       8.85986369       4.67676783       0.26563838      -0.33285410      -0.16532273
O        9.90563473       6.54108875       2.93231200       0.35227610      -1.19999358      -0.48646210
H        9.20072573       7.15617722       2.57286800      -0.11815475      -0.20924099       0.27140703
H       10.68819258       6.80881571       2.49768360      -0.24406088       0.30374445       0.03273394
O        3.74632310      10.37708021       9.54082101       0.06598535      -1.57230903       0.94643790
H        4.67590874      10.60567216       9.46011820       0.08116040      -0.47970530       0.03731863
H        3.27063484      10.43741812       8.72284137       0.34019938       0.03780026       0.08157732
O        7.26023722       7.57567169      11.52911905       1.19832051       0.17988114       1.02448987
H        7.33424499       8.54559215      11.67521727       0.21662509      -0.15249282       0.09621899
H        8.05336002       7.33265851      11.08631277      -0.10345325      -0.03217375      -0.04324112
O        4.93877196      11.06132632      12.65214716       0.67085606       1.10716463      -0.44842896
H        4.31642981      11.47900848      13.25631359      -0.06298933       0.43599959      -0.27212458
H        4.79332881      11.27456032      11.73101570      -0.07515118      -0.17791351      -0.01628456
O        8.09291262       4.56370367      12.72332819      -0.20314747       0.33688040       0.98982002
H        7.23308150       4.16580015      12.48519899       0.32024297      -0.25919480      -0.26214592
H        8.42934494       4.98874985      11.91104076       0.08635875      -0.60909710      -0.08201023
O       11.29525356       8.31448701      11.78965602      -0.69548452      -0.60557322       0.66409868
H       11.75737555       8.36183882      12.61439114      -0.42954540      -0.65294943       0.32174546
H       11.09767600       9.24048604      11.59069989      -0.20974263       0.32869965       0.40011477
O        5.17744265       4.11197370       2.15156910      -0.40119276      -0.19277417      -0.13520679
H        5.58873015       4.00055375       2.99919905       0.04836541       0.28348410       0.17536769
H        4.23434641       4.12769878       2.29877741      -0.10097740      -0.19422008      -0.29378352
O        1.82529910       1.05478171       8.89558612      -0.07534460      -0.61887511       0.30359401
H        2.78322598       1.06602652       9.14197709      -0.25367281       0.01540887       0.37407609
H        1.28806003       1.15567349       9.67513109      -0.28304217      -0.39498762      -0.22230294
O        4.57529482       6.11494772      10.37243200      -0.14868212      -0.91415864       0.55304657
H        3.99753975       6.69869066       9.84600907       0.11799637      -0.44519435      -0.01465846
H        5.39228438       6.59578488      10.45784544      -0.20342840      -0.29776175      -0.03593617
O        8.99250758      12.47396919       5.54721306       0.08577869      -0.97369752      -0.02665089
H        8.64838761      11.59131333       5.47919326       0.19836883      -0.16482365      -0.16180363
H        9.54510223      12.49438814       6.34212065      -0.80735446       0.15058645       0.34986441
O        6.18609810       5.30008024       7.90525636      -1.09061750       0.34396743      -1.36075394
H        5.47841762       5.72669353       8.37193007       0.07024958       0.33106148      -0.01810503
H        5.88738114       5.00128401       7.02996231      -0.42037302       0.04984329      -0.00961178
O        9.89140722      10.54613779       3.23999730       1.41700796       0.20895592       0.37728898
H       10.58680311      10.01907467       3.64145418       0.00272534      -0.21380422      -0.06114302
H       10.63877269      11.89557680       2.55058110       0.13886010       0.44360625       0.33668069
O        7.34309489      12.83735637      10.59127616      -0.53218823       0.24106030      -0.59499391
H        6.93143687      13.46300355      11.17895140      -0.16694615       0.13523664      -0.08250769
H        6.86102374      12.78550175       9.74231962      -0.09470580       0.10232199       0.22946923
O        0.97229428       5.51520511      10.93940534       0.22756463       0.31918488      -1.60399136
H        0.33612099       5.41038823      10.25973992      -0.08473753      -0.15843809       0.14141176
H        1.76291326       5.03001093      10.66210646       0.08169465      -0.38270024       0.43033794
O       10.66145020       5.95649126       5.63803041      -2.14116149       1.05704978       0.96932259
H       10.65764938       6.06847783       3.87896008       0.13235547      -0.38325104      -1.20889375
H        9.80054856       5.97134715       6.04493784      -0.19918427       0.05144866       0.08465643
O        1.34472943       5.04811025       5.64501691       0.83404665       1.18244897       0.62432298
H        1.11478078       4.30171760       5.05066983       0.00640407       0.17118213      -0.01973993
H        0.82179248       4.88305679       6.39116011       0.24997527      -0.04022059       0.04311390
O        5.93303524       6.97292782       1.73094737       0.19776841       0.60396540      -0.09895079
H        6.62768051       7.46560990       1.33050708       0.22797929      -0.02694629       0.19950818
H        6.14085355       6.05680848       1.87290829      -0.00255778       0.13494676       0.06674711
O        9.29187163       4.25599029       1.79934430       0.70013361       0.76367024       0.23440675
H        8.90029472       4.18337366       0.94394913       0.52685383      -0.06285401      -0.10357874
H        9.79505824       5.07490537       1.92271276       0.28240975       0.23034007      -0.18931442
O        0.94174754       2.55448166       1.18351450      -0.27421115      -0.27076641       0.22593950
H        1.17715950       1.84826903       0.51071065       0.38177820       0.03757658      -0.22369083
H        1.47351886       2.47103655       1.94884485      -0.12349900      -0.16813104       0.11892041
O       12.94583461       4.76917825       7.60991102       0.55613796      -0.13950915      -0.94644526
H       13.12306179       5.32861838       8.38435530       0.14536457      -0.07457666       0.00086405
H       12.04492198       4.88169055       7.38198169      -0.13355771      -0.18964134       0.32940914
O        7.50565821       9.99852384      12.80737065      -1.11297024      -0.81668310       0.31276838
H        6.63175422      10.33994289      12.82646947      -0.03316656       0.18878805      -0.03363982
H        8.04256560      10.43942376      12.16383113       0.00786225      -0.03313713      -0.04496600
O       10.94155147      -0.03347165       2.77614509       0.26230116      -0.75954768      -0.84594556
H       11.02821554       0.76648431       2.32242294      -0.10505907       0.00589869       0.59293617
H       10.05272196       0.12380027       3.01026054       0.24606480      -0.30671678      -0.15978248
O        1.60529145       2.34985358      11.17799737      -0.26228949      -0.54041658      -1.30201958
H        2.06390044       2.05789646      11.96622628       0.12895765      -0.18625398      -0.08939181
H        2.10100877       3.15522444      10.93785809       0.53808809      -0.02222482       0.02884149
O        4.68376150       1.87199696       8.13959205      -0.97027149       0.14359571      -0.77112765
H        4.50063546       2.19856275       9.00177675       0.22849267      -0.08074822       0.09038786
H        5.45430965       2.29330333       7.80515770      -0.10018548       0.33839942      -0.32055374
O        9.44394275      11.53174045      11.37671966      -0.69468486       0.14034939      -0.62888668
H        8.92352350      12.25533544      11.08618277       0.09543395      -0.02774114      -0.06616682
H        9.91127462      10.99293007      10.70352091      -0.08312343       0.04943689       0.03975620
O        1.76163587      10.86645700      12.72514817       0.80386045       0.82599796       0.53629867
H        1.98946049      10.21390450      13.38927300       0.10896750      -0.05558751       0.04104380
H        1.05093536      10.52859080      12.17487769       0.42318627       0.00777174       0.45224632
O        8.45179504       0.37994163       3.18550144      -1.51337996      -0.09321806       0.44586420
H        7.82211879       0.86640829       2.69285526      -0.05177388      -0.38449746      -0.24968076
H        8.36903825       0.24651650       4.10847153      -0.21709177       0.00512712      -0.19815827
O        8.28679293       3.03857685       4.05702070       0.84597960      -0.03748045      -0.99669159
H        7.97245535       3.64334548       3.39260236      -0.27351340      -0.52196585       0.30310556
H        8.57763324       3.62307863       4.74771367      -0.60612657       0.34795343       0.02981482
O        2.39931032       4.93431732       1.90638988      -0.50896894      -0.20519786      -0.03636233
H        1.84717725       4.21854610       1.65606147      -0.28437305       0.07769526       0.04055653
H        2.72959370       5.37352064       1.09587470      -0.23868275       0.00552982       0.06766513
O        0.61057206       8.74898556       8.03310100      -1.30197427       0.28304488      -0.09654049
H        1.22458115       8.44575397       7.36065208       0.02846554      -0.00104136      -0.40533904
H       -0.12891295       9.11294080       7.58754465      -0.02347504      -0.31749318       0.29963557
O       11.89577043       0.79019706       6.79008772      -0.04860481       1.08980386      -0.18749722
H       11.38958868       0.71986457       7.59143142       0.21956904      -0.40236549       0.09191631
H       11.47652581       1.45557816       6.22148074      -0.27786505       0.08560983       0.18264061
O       12.57080084       7.05352566       2.31633841       0.10396226      -0.99302611      -0.20328059
H       13.09422809       7.08183439       3.09254722      -0.09743167      -0.13183764      -0.20365211
H       12.79472236       6.38930091       1.68584976       0.14310899      -0.24159865       0.02031331
O       10.56183144       9.33885544       9.32866823      -0.12418860      -0.55232531      -0.49131726
H        9.79435335       8.91430200       8.96663977      -0.24776244       0.77470350      -0.04479432
H       10.90215833       9.90841659       8.63499661      -0.32230273       0.12206977       0.16716290
O        3.96785030       4.47252307       5.60549747      -0.62692139       0.38131626       1.05674379
H        3.78392794       3.56130899       5.52657794       0.05666453      -0.11103734       0.15313546
H        3.07606929       4.83072115       5.67106298      -0.12355129      -0.23371678       0.02289528
O        4.66274022       3.44948699      10.43326692       1.01316317      -0.91809461       0.39292780
H        4.68700196       4.35711352      10.20955837       0.13332456       0.02108504      -0.30874467
H        5.06218847       3.17498721      11.28249432      -0.51117463       0.44883049       0.44114460
192
Lattice="13.289522118467614 0.0 0.0 -5.292180756530532e-07 13.289522118467614 0.0 -5.292180756530532e-07 -5.292180756530532e-07 13.289522118467614" Properties=species:S:1:pos:R:3:momenta:R:3 step=190 time_fs=19.0 phase=production pbc="T T T"
O       10.37998116       0.38181769       9.55107251       2.29734096       0.95439326       1.64081592
H       10.86969078       1.13888512       9.96800140       0.01879713       0.49943966      -0.59358927
H        9.46742832       0.61148858       9.64239669      -0.31920744      -0.22507637      -0.49154672
O       11.37342536       2.60697896       2.54543393       0.56650105      -0.04103348       0.54559903
H       10.70567192       3.16552504       2.14982964       0.01642377       0.17280814       0.02248956
H       12.25192027       2.95704328       2.50398116      -0.00392695      -0.03484498       0.08474110
O        3.11151779       8.21493874      10.73372810       0.90788812      -0.16536575      -1.75253993
H        2.20993386       8.52972019      10.62428902      -0.03249220       0.08255186       0.16728686
H        3.56927444       8.89090060      10.19211778       0.13456132      -0.14658232      -0.41793500
O        8.85293549       6.32409192       7.65921000      -0.57558274       0.97375352       0.87270402
H        9.17994708       5.91515156       8.46888412      -0.14353241       0.13939947      -0.01947615
H        7.96392554       5.86158172       7.55053594       0.16079894       0.03748320      -0.00706355
O        6.73669319      13.53637959      -0.05164633       0.61968515      -0.16654857      -0.04161137
H        6.28745506      12.77990746       0.35914807      -0.39144235       0.50601992      -0.13384351
H        7.08945786      13.84227652       0.78816704       0.17525652       0.42427373       0.04222288
O       12.54730611       6.75653960       9.61583116       0.61800562      -1.25925324      -0.03477286
H       11.67859113       7.09872572       9.82138104       0.00618549      -0.08461607      -0.31266849
H       12.91812407       7.31507314       8.92893777      -0.12762042       0.07141535       0.17405326
O        7.78291919       9.79616588       5.16819900       0.49225906       0.01377947      -0.33359418
H        7.19404737       9.36847763       5.80829350      -0.11978261       0.68541110      -0.00997620
H        7.43066734       9.52092029       4.29627641      -0.58819990      -0.28381737       0.10905093
O        0.52114133      12.83602277       3.25340023      -1.36572865       0.32468860      -0.66992662
H       -0.35145722      12.55532435       2.93416210       0.16470415      -0.10171903      -0.19112396
H        1.17078611      12.32405023       2.78037161       0.04035238      -0.46902999       0.74131358
O        8.99121013       8.51910188       1.44313376       0.40147067       0.58876946       0.36076668
H        8.91151444       8.28077589       0.53106631      -0.06755348      -0.32840837       0.19393226
H        9.22916064       9.50471872       1.72541836       0.04291466      -0.46222161      -0.08202770
O        3.64007465       7.79139440       3.67677280       0.28401179      -0.22477043      -0.43780784
H        4.15057006       7.73143038       4.46100019       0.68865313       0.32119645      -0.34788844
H        3.53447330       6.93242925       3.34530028       0.57994328      -0.31191688       0.17038348
O        9.75097768       6.68853595      10.74265482      -0.62792333       0.39918611       0.61880612
H       10.00564454       5.87626145      11.15056610      -0.27773352      -0.09609690       0.27004400
H       10.12665583       7.25967567      11.41867911      -0.02109438      -0.04896350       0.08385023
O        2.84027059       1.88746108       6.12197329       0.35868629       1.37634763      -1.23405647
H        3.78892532       1.63270528       6.04290095       0.03671396      -0.21975109      -0.05567434
H        2.29573296       1.09663135       6.31780325       0.17812072      -0.11431354      -0.14895789
O       11.02541484       3.08810499       5.48502958       0.85378615       0.26525329       0.93806179
H       11.22420198       3.70793780       6.16425074       0.36226404       0.10839576       0.25401502
H       11.79897396       3.19736845       4.88511095       0.04679983       0.17709923      -0.16765615
O       11.58448888       3.88785406      11.27303009       0.14824846       0.49668755       0.54996178
H       11.95219000       3.76930112      10.37589060       0.01123102      -0.08818101       0.12319101
H       11.52333523       2.97952887      11.56024306      -0.14365940      -0.16962021      -0.23207147
O       11.84609462      10.88522547       7.38092526      -0.71675422       0.19206155       0.30161155
H       11.68174492      10.32059744       6.62277712      -0.12908380       0.18827370      -0.16685238
H       11.68349575      11.79642186       7.13614137      -0.28240350       0.08274935       0.10633827
O        3.87212454       7.68271050       0.30928021       0.53931741      -0.29590564      -0.18763116
H        4.05181220       7.44406867      -0.58343443       0.10209016       0.01405141      -0.18711661
H        4.61240476       7.45360615       0.85809700       0.17277156      -0.16046856       0.02834583
O       11.73378922      12.58116446      12.84790743       1.62626712       0.62227551      -0.06183403
H       11.54523495      11.83555548      12.27915555       0.48397939      -0.11904878       0.17445342
H       11.19090582      12.53125235      13.65467824      -0.36900302       0.06095112      -0.13314086
O        3.14732260       9.93465843       1.50342262      -0.78069122       0.16274865      -0.85999754
H        2.92965672      10.31653930       2.34194667      -0.06764303       0.60304094      -0.35287422
H        3.42632269       9.08266023       1.31777952      -0.09224166      -0.15328440       0.45877085
O        0.25389647       9.89948083      10.49075759       0.92884692       0.22971252      -0.65384412
H        0.55703429      10.04065565       9.61334759      -0.13605378       0.48147768      -0.18561484
H       -0.19130636      10.69307992      10.80111443       0.31569906      -0.01309202       0.09918398
O        1.57395414       2.09721077       3.58169906       0.25771329       0.00963715      -0.45390923
H        1.30945086       1.15482517       3.58106885      -0.30071745       0.15595179       0.01019115
H        1.62463163       2.28488859       4.53611918      -0.10376150      -0.11767665       0.00648560
O        0.96415563       7.27004995      13.06446393      -0.49051495      -1.21752370      -0.52889268
H        0.82387734       6.64512029      12.36095577      -0.19060881      -0.13617582      -0.16633524
H        1.90204815       7.25295814      13.14553219      -0.16567963       0.15155891       0.08194546
O        0.69106424      12.42968868       6.01916545       0.38906281       0.02337908       0.06089960
H        0.99510689      11.88380505       5.29270033       0.26294393      -0.38176994       0.14141847
H       -0.24880526      12.47112030       5.92679221      -0.14513152      -0.43208568       0.01379553
O        1.76138997      11.68767070       8.27390872       1.52940707       0.17886995       0.65456564
H        1.43529650      11.88149258       7.38765314       0.07437979       0.11979904      -0.07533395
H        1.79474272      12.57164158       8.70474413       0.14052663       0.44873837      -0.23151324
O        0.82875304      13.26114175       0.38753606      -0.23649467      -0.03161753      -0.58887490
H        1.48572064      12.57617734       0.34936924      -0.16523263      -0.25365448       0.16617615
H        0.00679170      12.93349074       0.02617326       0.08439141      -0.06884453      -0.05100374
O        6.67761429       0.95687049       6.03440992      -0.56151500       0.43110085       1.69083515
H        7.04940422       0.17767586       5.65374428      -0.08221686       0.20311263      -0.19521479
H        6.93708783       1.70981847       5.53406305      -0.15732173       0.04389291       0.24217010
O        0.80031446       7.63711027       4.72022409      -0.27457501      -0.83603240       0.45967167
H        2.67171681       8.48254575       4.17451766      -0.51645918      -0.02576407      -0.25844413
H        0.84993383       6.90752501       5.34961503       0.07360410       0.01786137       0.23767362
O        5.64484591       2.95573993      13.07606373      -0.78236703       0.68383223       1.22842300
H        5.38691430       2.03105266      13.04198787      -0.11559864       0.03553779      -0.38985947
H        5.10744285       3.34490023      13.80044633      -0.27958155      -0.20257327       0.16420247
O        5.66712071      12.46352887       8.50179668      -0.63459019       0.71131832      -0.80708548
H        6.15806182      12.09642380       7.78165003       0.07375132      -0.26830355       0.12767536
H        5.22479638      13.25621873       8.18759799       0.17653366      -0.23884802      -0.69550821
O       11.36570526       8.96558069       5.08033009      -0.20592460       1.14000716       0.09255249
H       11.01214603       8.13169347       5.39603128       0.21488800      -0.12350297       0.26633947
H       12.25515513       8.82737970       4.66401747       0.12051382      -0.32754099      -0.08212213
O        9.90712225       6.53350265       2.92965070       0.10357513      -1.26769370      -0.42031923
H        9.19509236       7.13166299       2.60211306      -0.00581627      -0.28639542       0.32444638
H       10.67718689       6.84232395       2.49566588       0.01147742       0.39066170      -0.08335460
O        3.74712665      10.36749624       9.54695653       0.19620069      -1.56370946       1.05502582
H        4.68108912      10.55864844       9.46368012       0.03002391      -0.48505171       0.03653171
H        3.30024801      10.44166402       8.72618108       0.25732483       0.04907903      -0.02910542
O        7.26731260       7.57724089      11.53574506       1.09451903       0.30486810       1.11922597
H        7.35377589       8.52689607      11.68487914       0.18404443      -0.21312256       0.10376563
H        8.04762104       7.32700500      11.07794743      -0.01289541      -0.08602960      -0.13086803
O        4.94292946      11.06826452      12.64961682       0.67197623       1.14432560      -0.38325349
H        4.31124860      11.51922989      13.22663618      -0.03993829       0.38409537      -0.33812702
H        4.78482788      11.25740859      11.72980439      -0.09863635      -0.17485995      -0.01640923
O        8.09149184       4.56580816      12.72914498      -0.26347641       0.34175268       0.90310801
H        7.26753351       4.14170898      12.46156312       0.36984807      -0.24367203      -0.22379548
H        8.43742959       4.92726732      11.90663225       0.08933923      -0.64275805      -0.02329516
O       11.29095293       8.31142952      11.79380902      -0.72076355      -0.37208254       0.68054795
H       11.71737994       8.29426575      12.64816058      -0.40003895      -0.73028253       0.35632121
H       11.07797874       9.26664402      11.62863340      -0.18531915       0.17535127       0.38575768
O        5.17508720       4.11080172       2.15068854      -0.37113269      -0.19514692      -0.13581445
H        5.59317437       4.02790419       3.01621006       0.03008455       0.27905540       0.15344834
H        4.22221858       4.10925044       2.27068792      -0.13715556      -0.18465307      -0.28178005
O        1.82536258       1.05080365       8.89748413       0.07691099      -0.67818478       0.29426901
H        2.74906345       1.06779732       9.17686140      -0.42521852       0.02096157       0.34519127
H        1.26132588       1.11832148       9.65447691      -0.27103477      -0.37124438      -0.19676331
O        4.57406805       6.10939335      10.37557602      -0.26043451      -0.94446454       0.47810560
H        4.00887030       6.65405493       9.84803332       0.08556210      -0.44602507       0.03151856
H        5.37894265       6.56868053      10.45726795      -0.03829148      -0.24214436       0.02789946
O        8.99317565      12.46816842       5.54724846       0.10744214      -0.94173911       0.01655910
H        8.66618453      11.57171905       5.46176428       0.17065632      -0.22779355      -0.19603649
H        9.46655842      12.51095181       6.37428194      -0.79519820       0.18875421       0.32402826
O        6.17948010       5.30194477       7.89646648      -1.08090267       0.26285345      -1.50295302
H        5.48408560       5.76061230       8.36930534       0.05330595       0.36016372      -0.04053731
H        5.84683976       5.00892713       7.03499810      -0.41130051       0.10532217       0.10845563
O        9.90040726      10.54768078       3.24213454       1.50471786       0.28166146       0.31860388
H       10.58589049       9.99838084       3.63549407      -0.02456847      -0.20712376      -0.06196530
H       10.65165111      11.94582280       2.58842359       0.12649214       0.58887866       0.43679630
O        7.33972813      12.83897603      10.58753408      -0.56905184       0.28383005      -0.60536208
H        6.91571310      13.47648252      11.17225821      -0.14902580       0.13079233      -0.06275278
H        6.85338968      12.79464593       9.76646750      -0.07410952       0.08208983       0.24181553
O        0.97436198       5.51703409      10.92995750       0.44932771       0.26702719      -1.48830753
H        0.32066592       5.39568222      10.26666975      -0.22682202      -0.14538311       0.00284362
H        1.76755550       4.99557959      10.70545034       0.00378305      -0.31915813       0.45723568
O       10.64835066       5.96295667       5.64368709      -2.14938061       1.04168829       0.88092481
H       10.66431947       6.03571818       3.76198438       0.03642831      -0.31747666      -1.15178207
H        9.78051253       5.97732809       6.05535186      -0.20110874       0.07112818       0.12115422
O        1.35015944       5.05524389       5.64794651       0.92905036       1.13976913       0.33457753
H        1.11780836       4.32265579       5.05101872       0.05378370       0.25281082       0.02207934
H        0.83881171       4.87824808       6.40864493       0.10477351      -0.05736319       0.30791969
O        5.93399465       6.97672803       1.73047530       0.11592958       0.63795950      -0.06243288
H        6.65366547       7.46584733       1.34822441       0.29586422       0.02589115       0.16857727
H        6.14138674       6.06666320       1.87960911       0.01362682       0.05961401       0.07175238
O        9.29648019       4.26083141       1.80109898       0.80149251       0.82724724       0.33950811
H        8.95158140       4.17745982       0.92979615       0.52390672      -0.06069836      -0.18960773
H        9.81878544       5.09431691       1.90381988       0.19313305       0.15087683      -0.19995907
O        0.93997333       2.55246127       1.18399041      -0.29210788      -0.39374576      -0.06253135
H        1.21196899       1.86046231       0.49803232       0.32943666       0.21516549      -0.03270858
H        1.46483126       2.45128932       1.96667210      -0.06398579      -0.23580350       0.23310357
O       12.94971673       4.76839176       7.60442389       0.67501249      -0.11970840      -0.85383580
H       13.13705092       5.31935688       8.38167104       0.14084043      -0.11565080      -0.05654603
H       12.02546548       4.86396126       7.41186180      -0.24826168      -0.17617118       0.28755669
O        7.49906304       9.99324261      12.80942212      -1.04681903      -0.90182397       0.32881603
H        6.62250265      10.36023164      12.82314059      -0.14395794       0.22165472      -0.03568640
H        8.04577891      10.43890591      12.15747371       0.04794548       0.01383229      -0.07431717
O       10.94374013      -0.03960005       2.77096489       0.45001527      -1.25109710      -0.84559394
H       11.02385814       0.78282190       2.37180972       0.01574702       0.33818852       0.41926302
H       10.06243028       0.09170028       2.99964636      -0.06562675      -0.35013762      -0.05377303
O        1.60412493       2.34697204      11.17000943      -0.09908741      -0.38887948      -1.30452778
H        2.07339950       2.03769909      11.95711333       0.05727685      -0.22509343      -0.10888768
H        2.14841631       3.14759218      10.94179157       0.42281542      -0.14993881       0.05390803
O        4.67777519       1.87256308       8.13474171      -0.95511482       0.06248744      -0.81974462
H        4.52300606       2.19352115       9.01589926       0.23345716      -0.02783991       0.18423134
H        5.44736283       2.32864508       7.77277627      -0.07612732       0.36806969      -0.32855184
O        9.44011423      11.53194396      11.37301527      -0.57065421      -0.07995918      -0.57898909
H        8.92902904      12.25767839      11.07540312       0.01672774       0.07682269      -0.15595215
H        9.89948558      11.00220515      10.71021628      -0.15138936       0.13109159       0.08597658
O        1.76690440      10.87180535      12.72870127       0.94562473       0.91196358       0.63731096
H        1.99984887      10.20812663      13.39445624       0.10519088      -0.05745444       0.06214662
H        1.08908847      10.52623039      12.21669633       0.32385375      -0.07200081       0.37678428
O        8.44293525       0.37929176       3.18782053      -1.37690064      -0.11798434       0.29481344
H        7.81254444       0.83062962       2.66662226      -0.14644208      -0.34954379      -0.29120872
H        8.34574726       0.24632652       4.09837796      -0.26227051      -0.01196309       0.00298832
O        8.29215112       3.03820630       4.05122725       0.91197668      -0.10595856      -0.84492115
H        7.94233725       3.59625569       3.41445501      -0.36642752      -0.41423233       0.10550308
H        8.52116883       3.65621832       4.75434253      -0.55561904       0.32012490       0.09618474
O        2.39666941       4.93353102       1.90608574      -0.37015105      -0.07749607      -0.05277337
H        1.81523894       4.22186300       1.65750650      -0.36199402       0.00224299      -0.00655995
H        2.70278377       5.37262622       1.10631418      -0.30494618      -0.01525769       0.13066800
O        0.60359757       8.75028309       8.03266379      -0.93323285       0.11280965      -0.06883566
H        1.22396042       8.44648986       7.32537964      -0.06161515       0.02500127      -0.29687000
H       -0.14321554       9.08860187       7.61140807      -0.28646778      -0.17580159       0.18107386
O       11.89547226       0.79698688       6.78877048      -0.06567211       1.12056436      -0.24548525
H       11.41029036       0.68047751       7.60217850       0.20676659      -0.40460625       0.12244752
H       11.45073769       1.46226573       6.23939080      -0.25213343       0.05122953       0.18613610
O       12.57085188       7.04758685       2.31467772      -0.10195777      -0.96697046      -0.36592481
H       13.09079564       7.06892023       3.07967792       0.03339115      -0.13160035      -0.04747505
H       12.81298808       6.36556965       1.68639647       0.22359821      -0.23022376       0.00488886
O       10.56115767       9.33562937       9.32580072      -0.10442122      -0.51375421      -0.43989694
H        9.76658550       8.98603928       8.96096970      -0.33722729       0.68717701      -0.07456548
H       10.87308473       9.92284701       8.64961937      -0.26408113       0.18679161       0.12072773
O        3.96389944       4.47526699       5.61194417      -0.66719002       0.48480868       1.03448735
H        3.79076122       3.54363437       5.54159346       0.08745243      -0.23046096       0.15613652
H        3.06536937       4.81074567       5.67407454      -0.09792998      -0.17464265       0.03856638
O        4.66899427       3.44317633      10.43592463       1.01798710      -1.11337677       0.45330963
H        4.70040206       4.36583667      10.18006191       0.13984091       0.13082534      -0.29072428
H        5.01191701       3.22178412      11.32194301      -0.51877164       0.50962470       0.36824196
192
Lattice="13.28958906656204 0.0 0.0 -5.292207416738014e-07 13.28958906656204 0.0 -5.292207416738014e-07 -5.292207416738014e-07 13.28958906656204" Properties=species:S:1:pos:R:3:momenta:R:3 step=200 time_fs=20.0 phase=production pbc="T T T"
O       10.39448368       0.38846728       9.56155161       2.35653319       1.21110631       1.74932897
H       10.86667300       1.17752805       9.90550473      -0.08166351       0.29900671      -0.68152777
H        9.43553341       0.58745917       9.59487082      -0.28307829      -0.27498575      -0.48610487
O       11.37669882       2.60644036       2.54885795       0.47136091      -0.12668156       0.55908518
H       10.70715645       3.18372846       2.15187697       0.02335962       0.19092902       0.02565563
H       12.25498616       2.95526053       2.51137185       0.06625310      -0.00215905       0.06687092
O        3.11711434       8.21435137      10.72263638       0.90651498      -0.03375981      -1.88264418
H        2.20680651       8.53511446      10.64309535      -0.02246013       0.02595162       0.21653448
H        3.58197751       8.87337369      10.15469268       0.11925672      -0.21879204      -0.34598525
O        8.84887649       6.32975180       7.66459202      -0.75271974       0.87497686       0.85352757
H        9.16656350       5.92961999       8.46663202      -0.12378241       0.14872259      -0.01020220
H        7.98737806       5.87003119       7.54997879       0.30341620       0.12788722      -0.00875125
O        6.74050993      13.53533447      -0.05146608       0.63609251      -0.16179524       0.10158423
H        6.24801034      12.82883437       0.34220777      -0.43301696       0.47285869      -0.19788567
H        7.10838117      13.88529786       0.78932628       0.20326417       0.44600348      -0.03557171
O       12.55127180       6.74873698       9.61562078       0.65050940      -1.29722580      -0.04484816
H       11.67769649       7.09030415       9.79212589      -0.03021196      -0.08989977      -0.28582958
H       12.90876305       7.32406010       8.94485948      -0.05850501       0.11684547       0.14432549
O        7.78564488       9.79600482       5.16573790       0.39716646      -0.07250003      -0.50457944
H        7.18440660       9.43663084       5.80258762      -0.10021002       0.69849670      -0.07824253
H        7.37748956       9.49607928       4.31814317      -0.49712921      -0.22198253       0.33827801
O        0.51252453      12.83796397       3.24921578      -1.42510258       0.28725973      -0.69404528
H       -0.33445720      12.54675662       2.91693368       0.16610264      -0.07766765      -0.16873681
H        1.17716607      12.27769265       2.85190102       0.09041613      -0.48160166       0.72760629
O        8.99389942       8.52369975       1.44604237       0.45537004       0.87129922       0.57941021
H        8.90433651       8.24984800       0.54511043      -0.07970852      -0.30496023       0.09497898
H        9.23031543       9.44510829       1.71256684      -0.01914711      -0.74420710      -0.18066517
O        3.63982560       7.79185420       3.67485946      -0.34876881       0.31538309      -0.18428906
H        4.22062850       7.76460389       4.43293632       0.72426922       0.36360367      -0.25962987
H        3.59069324       6.89373869       3.35705783       0.57887371      -0.45034652       0.08372822
O        9.74719786       6.69104366      10.74670672      -0.61280184       0.38751485       0.69563772
H        9.97729530       5.86017293      11.17494856      -0.31085275      -0.21250750       0.21912122
H       10.12557317       7.25924651      11.42594567      -0.00281947       0.03652311       0.06167561
O        2.84291485       1.89534158       6.11438255       0.49814799       1.18492816      -1.24778078
H        3.78187057       1.61268730       6.03904204      -0.17725198      -0.18883052      -0.02512600
H        2.31726426       1.09183035       6.30191079       0.25934270       0.01521305      -0.17716217
O       11.03124885       3.08970485       5.49040352       1.03902923       0.27327712       0.82602066
H       11.25744068       3.72022872       6.19154422       0.31183347       0.11954872       0.27768604
H       11.79602230       3.21193189       4.87061992      -0.11312085       0.12156235      -0.12466239
O       11.58569079       3.89057202      11.27598333       0.21580703       0.36957872       0.41497146
H       11.95043047       3.76422510      10.39475010      -0.04003335      -0.01540849       0.24159444
H       11.50862496       2.96569667      11.53855566      -0.15927712      -0.10259140      -0.21404004
O       11.84162462      10.88645857       7.38270332      -0.76292401       0.19760925       0.25523169
H       11.66890345      10.33903569       6.60642388      -0.13416906       0.19346845      -0.16243947
H       11.65581533      11.80402136       7.14788523      -0.28541989       0.06334604       0.13654816
O        3.87525723       7.68097736       0.30832281       0.50005823      -0.29497983      -0.13960267
H        4.06250132       7.44485305      -0.60634117       0.11243554       0.00919928      -0.25007734
H        4.63169777       7.43748093       0.86316175       0.20127068      -0.16474151       0.05699693
O       11.74368745      12.58517916      12.84794332       1.57192034       0.66683242       0.06127782
H       11.59125445      11.82360382      12.29687514       0.45865660      -0.13077170       0.18416815
H       11.15812193      12.53614559      13.63718349      -0.29780811       0.04101534      -0.23336836
O        3.14230247       9.93665764       1.49788049      -0.85413955       0.45763648      -0.95606844
H        2.92330981      10.37143002       2.30941723      -0.06289989       0.52187787      -0.31195556
H        3.41957330       9.05740027       1.36384900      -0.05215302      -0.35103659       0.49126399
O        0.25942984       9.90092806      10.48710195       0.88792120       0.22059993      -0.58719732
H        0.54679057      10.08828051       9.58937351      -0.08292240       0.48898135      -0.28057750
H       -0.16096952      10.69114650      10.81133067       0.30090093      -0.01768912       0.11542619
O        1.57547286       2.09693187       3.57924522       0.23668586      -0.09485785      -0.35205307
H        1.28118484       1.17351063       3.58004161      -0.28234207       0.21629793      -0.03299306
H        1.61492146       2.27489465       4.53374364      -0.09481812      -0.08562487      -0.05275749
O        0.96084681       7.26259441      13.06131360      -0.59989412      -1.23660085      -0.53367534
H        0.80380984       6.62960232      12.34360081      -0.21423873      -0.16831951      -0.17462797
H        1.89196006       7.26984288      13.15539499      -0.03768351       0.19293228       0.11712108
O        0.69357410      12.42951779       6.01921572       0.40596280      -0.11389933      -0.07253769
H        1.02193217      11.85051803       5.30828179       0.27675587      -0.28648146       0.19474782
H       -0.26635577      12.43134662       5.93112288      -0.18326625      -0.38739955       0.07548223
O        1.77075063      11.68937003       8.27808507       1.51308160       0.37410857       0.68330794
H        1.44376490      11.89169861       7.38149964       0.10359215       0.08380362      -0.03932636
H        1.80820066      12.60853217       8.68049266       0.13531868       0.29158096      -0.27072962
O        0.82740753      13.26114996       0.38393248      -0.19325518       0.00195738      -0.58530089
H        1.47176399      12.54975785       0.36483441      -0.12894330      -0.27996527       0.15187459
H        0.01123561      12.92714955       0.02064663       0.00458605      -0.06197257      -0.06356680
O        6.67386873       0.95950282       6.04519878      -0.66749886       0.42053848       1.81228772
H        7.04315598       0.19224250       5.63226893      -0.04867713       0.09857093      -0.24473452
H        6.92390547       1.72103674       5.55434549      -0.11409464       0.18763212       0.17348023
O        0.79864106       7.63186673       4.72318784      -0.27140681      -0.88826130       0.50219757
H        2.64964712       8.45494147       4.13511207       0.05897653      -0.53131532      -0.53889928
H        0.85833720       6.91272132       5.36969737       0.09779969       0.09168524       0.16840512
O        5.63968850       2.95996785      13.08385959      -0.91035657       0.68605710       1.29079463
H        5.37793146       2.03607024      13.00459066      -0.06835773       0.07165156      -0.37737119
H        5.08441015       3.32384233      13.81218042      -0.19124811      -0.23134737       0.07265478
O        5.66322309      12.46798132       8.49691892      -0.63371167       0.70675261      -0.80392043
H        6.16705157      12.06794565       7.79212216       0.10504249      -0.31447003       0.09611683
H        5.24025584      13.23558971       8.12095022       0.13465663      -0.17717770      -0.67527353
O       11.36532296       8.97217468       5.08078342       0.06236657       0.97659234       0.05531117
H       11.03200280       8.12378103       5.41789506       0.19633504      -0.02595154       0.17396850
H       12.25519567       8.79691342       4.66199062      -0.12504235      -0.29685589       0.03991725
O        9.90705267       6.52581866       2.92661466      -0.10796964      -1.22811466      -0.61129879
H        9.19774087       7.10230635       2.63524306       0.04527090      -0.30426789       0.34923767
H       10.68530292       6.88470457       2.48206324       0.11267365       0.46614364      -0.17913727
O        3.74870728      10.35795274       9.55388123       0.29929388      -1.56239855       1.17425311
H        4.68320614      10.51153212       9.46748572       0.02136625      -0.48123329       0.04085867
H        3.32028520      10.44703759       8.71667703       0.15810029       0.05892174      -0.15658523
O        7.27377220       7.57920422      11.54289090       1.00646889       0.29727393       1.17976355
H        7.37041912       8.50818229      11.69608935       0.15867532      -0.15144824       0.12780802
H        8.04998295       7.31615034      11.06139321       0.04938208      -0.13377934      -0.20336623
O        4.94702398      11.07551188      12.64759008       0.65245198       1.20040972      -0.29927035
H        4.30889822      11.55343741      13.19104218      -0.01039191       0.31604219      -0.38821488
H        4.77442182      11.24046449      11.72683111      -0.11338957      -0.17542293      -0.04943257
O        8.08981556       4.56793687      12.73469918      -0.29099419       0.34537621       0.89750170
H        7.30207401       4.11672378      12.44152698       0.32428167      -0.27702827      -0.19009989
H        8.44878213       4.86533690      11.90386317       0.15110998      -0.62166597      -0.04648025
O       11.28653090       8.31014412      11.79827381      -0.73306207      -0.06172607       0.77135604
H       11.67783279       8.22055484      12.68054079      -0.42064932      -0.77750174       0.28890520
H       11.06293237       9.27137517      11.66683489      -0.12126372      -0.08323849       0.39853816
O        5.17289616       4.10960644       2.15008894      -0.35658841      -0.20079538      -0.05508718
H        5.59281065       4.05504897       3.02617055      -0.04423958       0.27706423       0.04133207
H        4.20997098       4.09182865       2.24405947      -0.10341149      -0.17262790      -0.26395373
O        1.82590783       1.04646852       8.89914362       0.05981560      -0.73512960       0.22075718
H        2.70673174       1.07021572       9.21085914      -0.40401097       0.02949863       0.36285829
H        1.23449522       1.08335825       9.63737840      -0.28177478      -0.34664246      -0.15584822
O        4.57226593       6.10303232      10.37863580      -0.31299735      -1.15019632       0.51705553
H        4.00918128       6.61630680       9.84788420      -0.09595917      -0.31411486      -0.05037412
H        5.38783955       6.55005306      10.46381054       0.21533112      -0.14380673       0.10452259
O        8.99376900      12.46233461       5.54732054       0.06401039      -0.99469088      -0.00845802
H        8.68285292      11.54978403       5.44134747       0.17684743      -0.20767284      -0.22076973
H        9.39137326      12.53121777       6.40723671      -0.74725171       0.22462634       0.35507186
O        6.17280069       5.30345074       7.88704853      -1.10877191       0.22862232      -1.55872697
H        5.49035899       5.79596932       8.36329361       0.08211215       0.35993314      -0.08742011
H        5.80700301       5.02120785       7.04927791      -0.41051725       0.14109684       0.16905560
O        9.90995337      10.54966865       3.24399450       1.58432262       0.34529169       0.28759672
H       10.58190480       9.97972290       3.62938034      -0.05777853      -0.17228690      -0.06335196
H       10.66418401      12.01357627       2.63526246       0.13164799       0.77204626       0.51289267
O        7.33623366      12.84108244      10.58427967      -0.57643416       0.38948564      -0.45017967
H        6.90365684      13.48705973      11.16578968      -0.09439310       0.07914446      -0.07432110
H        6.84438396      12.80117908       9.78513269      -0.12125109       0.04871261       0.12157484
O        0.97772346       5.51850283      10.92111836       0.62479556       0.20118120      -1.42310290
H        0.29463219       5.38213028      10.26255799      -0.28642142      -0.13148630      -0.07032741
H        1.76255468       4.96834559      10.75082438      -0.10818478      -0.24060700       0.46928971
O       10.63503259       5.96933133       5.64899535      -2.21384743       1.02485363       0.84392566
H       10.67115961       6.00070740       3.66288021       0.12325442      -0.42276397      -0.85788309
H        9.76339295       5.98530250       6.06749461      -0.14330902       0.09198715       0.12315670
O        1.35600647       5.06220178       5.64951086       0.95635071       1.12306411       0.20700857
H        1.12464720       4.34941000       5.05378764       0.08193535       0.28477053       0.02623340
H        0.84506058       4.87278319       6.44694888       0.04507987      -0.04840269       0.44318320
O        5.93467087       6.98092347       1.73012096       0.11143781       0.72041891      -0.06131547
H        6.68295956       7.46914661       1.36458110       0.29010234       0.03160164       0.17383562
H        6.14347175       6.06831492       1.88691193       0.02684403      -0.02072841       0.07687844
O        9.30184792       4.26631732       1.80349141       0.93018764       0.95624866       0.42632495
H        9.00271049       4.17134042       0.90765425       0.52766357      -0.06598887      -0.25549679
H        9.83163558       5.10261376       1.88386963       0.06826622       0.01682994      -0.20731603
O        0.93834605       2.54966966       1.18299897      -0.22587870      -0.51549751      -0.23468725
H        1.24109100       1.88989114       0.50412396       0.26879112       0.38188181       0.15076130
H        1.45863736       2.42567267       1.99054782      -0.07710891      -0.28592343       0.23462579
O       12.95392230       4.76776176       7.59941208       0.64525800      -0.09438159      -0.79899343
H       13.15077855       5.30650223       8.37385344       0.14108363      -0.14507999      -0.10022406
H       12.00148021       4.84706625       7.43904679      -0.21850837      -0.17254153       0.27388161
O        7.49279370       9.98773286      12.81136855      -1.01642009      -0.89256641       0.27270328
H        6.60713798      10.38183804      12.81959853      -0.15277260       0.21232937      -0.03839883
H        8.04997435      10.44059353      12.15192980       0.02752457       0.01185895      -0.02870762
O       10.94706345      -0.04880285       2.76571491       0.59540364      -1.68263777      -0.87480470
H       11.03062679       0.82940358       2.40616352       0.11346847       0.57513092       0.30705331
H       10.04177473       0.05483192       2.99906305      -0.33134001      -0.39910950       0.03441419
O        1.60424396       2.34515151      11.16216499       0.14028958      -0.20984692      -1.26384319
H        2.07388525       2.01440392      11.94390728      -0.05103051      -0.25326265      -0.16482300
H        2.18218488       3.12488354      10.94843887       0.26879963      -0.31419126       0.07869497
O        4.67238090       1.87306778       8.12964618      -0.79273615       0.11882104      -0.84449806
H        4.54682538       2.19194136       9.03413387       0.25778899      -0.01152898       0.16890950
H        5.43401261       2.36174255       7.74404600      -0.21812720       0.29788727      -0.25064112
O        9.43684066      11.53107006      11.36986072      -0.53173824      -0.19781868      -0.45583706
H        8.92777748      12.26941344      11.05644880      -0.03414152       0.15085900      -0.22828290
H        9.88388450      11.01630903      10.71760115      -0.15793177       0.14392560       0.04813813
O        1.77355570      10.87778363      12.73335967       1.23064658       1.01601416       0.87264039
H        2.01008911      10.20419249      13.40085890       0.10497002      -0.01731070       0.06436659
H        1.10943234      10.51262585      12.24475996       0.08155667      -0.21398606       0.18835884
O        8.43495701       0.37852085       3.18911416      -1.24164298      -0.13142450       0.12714909
H        7.79433165       0.79767734       2.63660674      -0.22047317      -0.33269469      -0.31801750
H        8.31806820       0.24401999       4.10891068      -0.30488148      -0.03420047       0.19843977
O        8.29824108       3.03730401       4.04711253       1.06150896      -0.17590582      -0.48761200
H        7.89862268       3.56536142       3.40934876      -0.53351872      -0.22365059      -0.20859700
H        8.46889033       3.68276895       4.76368122      -0.52025052       0.21125433       0.07933084
O        2.39454236       4.93309039       1.90591831      -0.34836953      -0.10266851       0.00791513
H        1.77906730       4.22196836       1.65589949      -0.36611207       0.01586463      -0.02032056
H        2.67161151       5.37261613       1.11776961      -0.32799422       0.02531546       0.08507203
O        0.59920542       8.75042131       8.03214785      -0.52064036      -0.07113121      -0.13036100
H        1.21048569       8.45162707       7.30519968      -0.21874834       0.08082332      -0.11330651
H       -0.18383158       9.07816922       7.62356161      -0.52006533      -0.05187717       0.08251082
O       11.89501868       0.80393407       6.78722715      -0.10538600       1.13687459      -0.25797003
H       11.43071908       0.64143926       7.61371591       0.21576441      -0.39370845       0.10342219
H       11.42737512       1.46573135       6.25793155      -0.22981038       0.02154634       0.19336366
O       12.56975240       7.04152762       2.31170209      -0.26187307      -1.02959004      -0.60547231
H       13.10084070       7.05656229       3.08369484       0.16291375      -0.12179493       0.11950189
H       12.83711101       6.34731032       1.68923403       0.26461806      -0.13386027       0.06216447
O       10.56055316       9.33255430       9.32336670      -0.12755960      -0.50780207      -0.38071182
H        9.72878313       9.04791503       8.95285308      -0.42360189       0.58631155      -0.08363127
H       10.85208311       9.94630974       8.65759351      -0.16653232       0.29281144       0.04494263
O        3.95966308       4.47820836       5.61822164      -0.72086066       0.44140435       0.99935782
H        3.80173680       3.52126755       5.55737852       0.14016553      -0.20381676       0.16881665
H        3.05675139       4.79692383       5.67863111      -0.08022962      -0.10940270       0.05438849
O        4.67528065       3.43621894      10.43882681       1.02264214      -1.12954955       0.46763308
H        4.71396246       4.37707942      10.15448139       0.13617623       0.07284441      -0.22773597
H        4.96147218       3.27395789      11.35441684      -0.51561316       0.55854144       0.29712531
