192
Lattice="13.066373825073242 0.0 0.0 -5.291772140481044e-07 13.066373825073242 0.0 -5.291772140481044e-07 -5.291772140481044e-07 13.066373825073242" Properties=species:S:1:pos:R:3:momenta:R:3 step=0 time_fs=0.0 phase=equilibration pbc="T T T"
O       12.64542961      -2.82263112     -15.46091652       1.11768299       0.20408896       0.69008038
H       11.89812565      -2.74155045     -16.09106064       0.36097603       0.29840838      -0.15413935
H       13.26149845      -3.37739921     -16.00020218       0.15239367      -0.02783003      -0.01289933
O       25.27027321      24.43639755       0.35318395       0.24636511       0.03920975       0.99621760
H       25.31266212      25.21264648       0.74189055       0.12184479       0.01628950       0.07550418
H       25.35134506      24.55180931      -0.71252650       0.05278673       0.23805757      -0.02937182
O        5.36733866       1.52952313       8.14218521       0.18357736      -0.60336600      -1.58355279
H        5.85688019       1.94819224       8.86520004       0.10448683       0.13631298      -0.11614725
H        4.66960764       0.81533509       8.43852425       0.36563978      -0.23838440       0.01117406
O       -2.93321347      -5.70437145      -2.06760645      -0.13847139       0.93324112       1.00592910
H       -2.11669278      -6.19126701      -2.36016202       0.02390609       0.05773556      -0.13967824
H       -2.98088694      -4.75015354      -1.60816944      -0.32121079      -0.05959153       0.02904448
O        3.38407755      16.26336098      10.69519997       0.77406131       0.72053872      -0.18935610
H        3.89453769      17.07395363      10.80886745      -0.04998140      -0.17280874      -0.22568214
H        3.42589307      16.37501717       9.74289322      -0.27684983       0.31185556      -0.07857528
O       -1.96962392       4.40010309       2.94610405      -0.29998804      -0.86003830       0.56052247
H       -2.32842731       4.61702871       3.87909627      -0.26192329      -0.03774898      -0.14091939
H       -2.77761412       4.31724453       2.25013542       0.06138793      -0.08591356      -0.18699957
O       23.88134384      13.33156109       7.30634975      -0.03611034       0.22222706       0.10281672
H       24.78475380      13.75828934       7.41726494       0.04774470      -0.10587278      -0.05483579
H       23.53219223      13.41421795       6.46532822      -0.10979553      -0.06147261      -0.12761717
O       -0.64325720     -14.98470974       3.92837858      -1.12930256       0.06070057      -0.19866128
H       -0.55697489     -15.69682407       3.17299390      -0.26455731       0.07140934      -0.14283130
H       -1.35569894     -14.46638107       3.50380921       0.00726189       0.11444236       0.02462237
O       18.42494392     -18.37583733       9.85613728       0.71554873      -0.84846998       0.31901162
H       19.30014992     -18.54400826       9.94424534      -0.11179112      -0.14408501      -0.08975696
H       17.81485558     -18.88326454      10.41489506      -0.05147608       0.00570373      -0.18449776
O        4.83259964     -14.17898464     -13.56820869       0.56196096       0.24625949      -0.92899846
H        5.77131224     -14.48098755     -13.72235775       0.23935606       0.30298645       0.19426001
H        4.58696604     -14.93793106     -12.92383003      -0.03020624      -0.17639601       0.17416975
O       -4.81121540       2.19039130       4.33023071      -0.27752205       0.73345619       0.19407663
H       -4.90639305       2.05848861       3.34761715       0.15668401       0.05421351       0.11795573
H       -5.49905062       1.76712906       4.75293684       0.00056469       0.28520842       0.02428775
O       -5.85185289      15.23765755      27.76232910       0.24082278       1.15880104      -0.80765703
H       -6.93275023      14.99428844      28.00818443      -0.20643089       0.15327365      -0.18578622
H       -5.56249857      14.84871197      26.85283089       0.31293957      -0.07020916      -0.11700203
O        7.43372250     -15.57654190      -6.91692829       1.21997197       0.89959466       1.26227987
H        7.83621454     -16.40586853      -7.23538685       0.14527660      -0.14253835       0.31242910
H        7.21215582     -15.85541916      -6.10686350      -0.04443893       0.12629761       0.15684724
O       15.41884708       7.48679876      20.53091049      -0.11775878       0.34180640       0.65368701
H       14.76631927       6.98550940      20.06814575       0.05969494      -0.18102529       0.05197249
H       16.21483612       6.83829212      20.46291161       0.21319994      -0.11560795      -0.02039969
O       -0.25643131       0.99778473       0.95212734      -0.29810774       1.13698550       0.49280032
H        0.08169544       1.33199728       1.79520726       0.06471013      -0.12778354       0.09091769
H        0.45881301       1.49934947       0.51064277      -0.11009807       0.00177145      -0.09896707
O      -16.15043449      12.55615711      17.73955345       0.41750254       0.31767226      -0.07410255
H      -16.71914291      13.30330372      17.32319641       0.06285908      -0.18000092      -0.23719382
H      -16.87297249      11.96564865      18.22290421       0.06986971       0.02356085       0.10639523
O      -17.86353874       6.26270628      13.02225685       1.51623836       0.55450928      -0.52765617
H      -18.60412407       5.90937471      12.25008106       0.17936770      -0.21601080      -0.07080799
H      -17.16492081       6.29779053      12.38174057      -0.01215924       0.27348859      -0.11656573
O       -9.97795391      34.26676178     -11.48647881      -0.55000669      -0.11690284      -0.36713513
H       -9.67293549      33.90147018     -10.61100864       0.18092215      -0.17787923      -0.18164064
H      -10.06812477      33.42055511     -11.81774426      -0.07187977      -0.08384961       0.31557481
O       36.51899719      10.89078426      21.81437874       0.59324470       0.00284148      -0.72890836
H       36.75870895      11.81425190      21.45014572       0.13530940      -0.16499782      -0.24584112
H       35.51689148      10.80193520      21.88041878       0.19084284       0.04784298       0.15258235
O       30.55273438     -11.00169945       2.39843750       0.18722109       0.49808324      -0.35911841
H       30.61803246     -11.65290451       3.16384459      -0.16825629       0.10676742      -0.12604383
H       29.84707642     -11.55505943       1.84262669      -0.11255702      -0.07698201       0.00660438
O       16.38184357       9.80401230      -6.87454081      -0.24585931      -0.93867906      -0.35434986
H       17.00061035       9.64822292      -7.57427216      -0.36041383       0.09765966      -0.25509811
H       16.22467804       8.90726948      -6.52904129      -0.17959036       0.00505733      -0.11572678
O       -9.31997395       3.54060292      33.44907761       0.97538472      -0.88582886       0.23191499
H       -9.03792381       4.44114637      33.49209976      -0.00747976      -0.19212541       0.08833667
H       -8.60569096       2.89968991      33.75277328      -0.02885235       0.12134229       0.13685072
O        3.17334318       1.13243389       0.08931823       1.37466686       0.80689973      -0.17767484
H        3.07582641       1.93705845      -0.51232713      -0.03981352       0.17432296       0.10966459
H        3.85647416       0.47270024      -0.21488616       0.10230744      -0.26465753      -0.00015098
O       23.50477982       1.94969523      12.99003029      -0.49309219       0.12668637      -0.00319194
H       23.17785645       2.61787677      13.56529903       0.14594465       0.04788751       0.13084338
H       24.29891777       1.68835568      13.39368629      -0.07650112      -0.15598604      -0.06248042
O        0.10551053      32.49132156      15.57887077      -0.02892466       0.19056619       1.51447818
H       -0.72191942      32.10576248      15.49414921      -0.00796039      -0.15784413      -0.05212762
H       -0.22901094      33.45452881      15.64427662      -0.07604493       0.07443097      -0.24519894
O        6.05241108      20.26791000       5.02742147       0.02275903       0.04723308       0.20946672
H        5.26115894      19.97469330       4.49127483      -0.09765288      -0.04181807      -0.22633545
H        6.43347168      20.98118782       4.71206331      -0.08084804      -0.09109358       0.07100982
O       -9.59615231      10.90766430      10.36414719      -0.76228711       0.44939303       1.02210441
H       -9.97731876      10.04939270      10.40134811      -0.33562285       0.06550747       0.11316211
H       -9.12888908      11.05313587      11.35254383      -0.10413607      -0.06756761      -0.01769240
O       17.21640968      17.99869156      28.20270920      -0.20967728      -0.25245609      -1.01897234
H       17.22360611      16.93732262      28.21525192       0.18507433       0.17108451      -0.12765240
H       16.44344139      18.16321373      27.63500786      -0.23809291       0.08082729      -0.08926222
O        6.71023130      18.44732857      10.88819122       0.07341833      -0.25909691       0.50518909
H        7.21765900      18.88315773      10.27365780       0.11113316      -0.12062204      -0.21975919
H        6.94809675      17.49592018      10.87961864      -0.25692053       0.09525970      -0.18832899
O        1.05389345     -13.58985233      10.43368149      -0.34424236      -0.43741294       0.02615325
H        0.52050924     -14.43383694      10.50644207      -0.31401730       0.02713283       0.08843595
H        2.04940796     -13.87724781      10.19994354       0.01315619      -0.05360847       0.01951889
O       -0.00847742       9.26964951       1.83980632       0.23892814      -1.83844376       1.31915943
H        0.94434845       9.16873646       1.66105020       0.06190353      -0.10879540      -0.05939462
H       -0.16747771       9.87793827       1.19759142       0.07865219      -0.02213342      -0.32436032
O        0.42741007       0.65217912       7.74403191       1.31109867      -0.12468486       0.71675497
H        1.03889656       0.21235140       7.08086729      -0.11296100       0.24489254       0.05005045
H        0.49172574       0.19270886       8.65278816       0.09725164      -0.17227556       0.19949001
O      -18.85241318      28.84873009     -15.91055965       0.42611937       0.78457256      -0.34435151
H      -17.97228622      28.59213066     -16.52736855      -0.07886164       0.36892000      -0.16750906
H      -18.95480919      28.34384155     -15.10911942      -0.02310026       0.18033927       0.01957137
O        4.60828638      26.42588997      -8.29379463       0.35732283      -0.31067644       0.29822691
H        5.44475698      26.54718018      -7.69905186      -0.21225492       0.26456683      -0.01531434
H        3.94140697      26.49876022      -7.68359995      -0.11104265       0.10430939      -0.07066824
O      -18.19099426      21.58392143       1.45866632      -0.87692777      -0.92050290       0.50662754
H      -17.93074608      20.76591873       1.05815327      -0.02691764      -0.02497704       0.17793354
H      -19.07234001      22.02440643       1.52598298      -0.18321686      -0.12144299      -0.05841319
O       11.43895912      20.28431320       6.91496992       0.04277370      -0.08067057      -0.12469572
H       11.58135986      21.30393219       6.79146004      -0.01109028      -0.02071164      -0.11250165
H       10.39494514      20.07539558       6.90041733      -0.13250432       0.04098728      -0.14018391
O       -9.44247913      -6.80389595       4.30549145      -0.76304215      -0.25456721      -0.04150717
H       -9.28129196      -7.34836626       3.38757014       0.36353407      -0.11724526       0.15620229
H      -10.39155769      -6.93391466       4.59196186       0.11960685      -0.19549482       0.12873058
O      -25.43453217       2.10612512      11.25163078      -0.78011849      -1.76542662       0.45032720
H      -25.34340668       1.21531880      11.27904129      -0.28486803       0.06949485      -0.10675007
H      -24.80063057       2.49930382      10.86040878       0.26703637       0.16928937      -0.06948314
O      -12.44503021      -7.40535831      19.41635895      -0.46077907      -0.83511270      -0.22385967
H      -12.23388863      -8.29755116      19.07535553      -0.04643492      -0.06230325       0.02910183
H      -13.07951355      -6.77124548      19.03661919       0.09235182       0.05312892      -0.11969884
O        8.15028095       8.56557941      17.42204857      -0.94357958       0.82492790      -0.38385450
H        8.93446827       8.11022282      17.65599823      -0.10653675      -0.08759155      -0.29404345
H        8.36242867       8.60436726      16.48773384      -0.07836829      -0.08088011       0.10402419
O      -11.18669987      -0.72987819      18.47828484       0.43168092      -0.05109410       0.65989409
H      -10.66821194      -1.52712595      18.67910767       0.05380325      -0.00590616       0.02978444
H      -11.84674263      -0.98341757      17.78823853      -0.03193989      -0.06717618      -0.03948341
O       22.69503403       4.00474977      19.09154892      -0.74415130       0.12701927      -0.57935209
H       22.22258377       3.31821632      18.40965080       0.13486798      -0.04368233       0.01177784
H       22.59380150       3.45698237      19.86409569       0.07866754       0.10058171      -0.25001862
O       -4.97554636     -18.87792015      -3.72662473      -0.15116650       0.51311426      -1.03320103
H       -4.09095764     -18.86754799      -3.25351381       0.06144900      -0.36785083      -0.16144795
H       -4.82189941     -19.09774017      -4.64425468       0.00511033      -0.27108224      -0.15546971
O       27.64061737     -10.03663921      -7.21003914      -0.96549591       1.00750409       0.16572019
H       28.56313324     -10.00975704      -6.65519667       0.09053696      -0.03935436      -0.05333147
H       27.19330597     -10.59502697      -6.57275105      -0.26233961      -0.05053035      -0.11927034
O        6.96926355       0.34402019       5.89455748       0.53434142       0.68108958       1.00413937
H        6.91010141       0.59992290       6.86930227       0.13663266      -0.10010913      -0.17653895
H        7.22453880      -0.59115446       5.89334059       0.12275381       0.05420162      -0.28199990
O      -18.62021065      -2.03114080      24.54964256       0.21088243       0.47084467       0.09792943
H      -18.82579613      -2.33972526      23.63458824      -0.03103501      -0.13388076      -0.22996701
H      -17.82464600      -2.65755963      24.87730789       0.12818889      -0.05332217      -0.03394620
O        4.88410425      -6.75822783      -5.54921627       1.09751282       0.38714205       0.29872204
H        5.20116615      -6.31826973      -4.74055433       0.02182389       0.24224533       0.28164996
H        5.23333502      -6.39134932      -6.44125080       0.14906759       0.09071014      -0.33468899
O       12.15218353       9.78707886       6.31858730       0.06168154      -0.13728112       0.12047930
H       11.77461529      10.31519890       7.24411821       0.15125569      -0.44607910      -0.08821577
H       11.89278126      10.46336746       5.63018036       0.04248208      -0.07881009      -0.22517930
O        4.43175840      11.87341309      -5.10165977       0.54144840       0.12472113      -0.56517681
H        4.06190586      11.41646862      -4.34855556       0.04973959       0.12938873       0.00463515
H        4.22329950      11.23866558      -5.89688635       0.12823201       0.00927406      -0.06008552
O       13.21900558      29.02663994      15.90510750      -0.76437171      -0.10884166       0.18507536
H       13.70399570      28.93953705      16.78042030       0.14039463      -0.02197240       0.07769412
H       12.32982826      29.43564034      15.92611694      -0.15700458      -0.12983786      -0.01405801
O       -4.10051441       3.99022365       1.21240842      -0.69690935       0.47453222       0.35814578
H       -4.29834223       5.03262329       0.97218847       0.04396733       0.05139176       0.33036224
H       -4.83862686       3.50298357       1.45779312      -0.07689622      -0.35910506       0.03598501
O        6.56999922     -15.80699825       8.89901447      -0.05054459      -0.38668680      -0.57015015
H        5.89122391     -15.11356449       8.71544266      -0.07210106       0.02593057      -0.07747072
H        6.22238302     -16.68866158       9.04945946       0.38869865      -0.15858089      -0.12438068
O        1.65242445       8.72078705      22.82431030      -1.49132057       0.10837733      -1.23811470
H        1.54069412       7.95395660      23.38116455      -0.08830300      -0.04791794      -0.11090571
H        1.67888343       8.32781982      21.88629150       0.27985406       0.15731305       0.21694048
O       22.91511726      22.85293961      -0.32201543      -0.58604532       0.67303738       0.37930701
H       23.36100388      23.68247795      -0.18107967       0.12352020       0.16297592      -0.14306801
H       22.27412605      22.64110947       0.38846105      -0.06969790       0.13601563      -0.42534410
O       11.96183872       5.99319601     -16.66627693       0.95627332       0.30257013       0.03057169
H       11.79472446       5.02690840     -16.57737541       0.03450003      -0.16980029      -0.05276778
H       11.97030544       6.24497890     -17.68504906       0.17666397       0.20637652       0.43946529
O       -7.75614977      22.88384438       1.76380587      -0.06555812      -0.47748072      -0.27105557
H       -8.57563400      22.37996101       1.68921304      -0.16563836      -0.01595270       0.06562600
H       -7.66772413      23.08884621       2.90891337      -0.00666526       0.17378764      -0.03406725
O        5.20647383     -15.66830158      17.50819778      -0.24164693      -0.42772701      -0.99105234
H        5.93699789     -15.58569717      18.22263908      -0.25446908      -0.19391332       0.21407889
H        4.89739227     -14.70895672      17.51629448       0.14353394       0.21880966      -0.21149344
O        1.76133454      18.69641304       0.57801497      -1.28531600      -0.47844854       0.17318229
H        1.16449153      18.82553101       1.37979782       0.07945182       0.16597073       0.04971692
H        1.09147549      18.51066971      -0.24702151       0.28046748      -0.03934314      -0.14376543
O       -4.67106819      -6.54047155       6.54221773      -1.10029130      -0.62581800       0.21586385
H       -4.37135315      -7.46203327       6.20793676      -0.14474116       0.14799702       0.23199927
H       -5.51963568      -6.39695835       6.07648849      -0.38403580       0.13625095      -0.35811983
O       -3.53516293       2.26197839       8.47741890       0.24050713       0.73501765       0.10174734
H       -2.87086558       2.68327761       9.00834179      -0.20791820      -0.09797246      -0.03849963
H       -3.33475828       1.33587074       8.41809750      -0.03058112      -0.03615837      -0.01397616
O       14.28291607      -6.86967230      -2.45764709       0.11946546      -0.83156953      -0.09581129
H       13.47967815      -7.04504156      -2.98524737       0.24420524      -0.06552730      -0.06793999
H       15.12213802      -7.39218187      -2.73928571       0.17309491      -0.41691315       0.19467999
O       11.49124146       3.48392272      23.58780861      -0.42477033       0.05201119       0.12200384
H       10.81320667       3.22980642      24.25626564       0.15116230      -0.04661297      -0.10578292
H       12.27569389       3.14015865      23.87795639       0.20858811      -0.38540116       0.00706572
O        8.06788826      13.77363586      25.39875984      -0.88572619      -0.54380255       1.35478868
H        8.94939137      14.15316105      25.66064835      -0.00833823       0.02814942      -0.28410452
H        8.13662910      12.72311306      25.25376320      -0.11893903       0.02838982       0.06110553
O       -9.14656353       5.80697918      11.48769569       0.37916792      -0.04796728       0.39926609
H       -8.31755447       5.74644089      11.64142132       0.07219503      -0.29904156       0.00975969
H       -9.53222752       6.10908604      12.43381214       0.12295406       0.09194716      -0.05501639
192
Lattice="13.066307070923308 0.0 0.0 -5.291745105608506e-07 13.066307070923308 0.0 -5.291745105608506e-07 -5.291745105608506e-07 13.066307070923308" Properties=species:S:1:pos:R:3:momenta:R:3 step=10 time_fs=1.0 phase=equilibration pbc="T T T"
O       12.65218215      -2.82173393     -15.45747264       1.11387782       0.08172798       0.41199809
H       11.93551573      -2.71206908     -16.10091343       0.39634422       0.30782032      -0.05729027
H       13.27331448      -3.37745797     -15.99521535       0.08937967       0.02724131       0.11516331
O       25.27152443      24.43493264       0.35752258       0.20452239      -0.43730408       0.43765188
H       25.32622152      25.24139817       0.76139067       0.15749087       0.53862948       0.30652719
H       25.35609720      24.57229446      -0.69934119       0.04714895       0.18386175       0.29757746
O        5.36790204       1.52525985       8.13284866       0.01766670      -0.77508531      -1.44221670
H        5.86518078       1.95779626       8.85120084       0.06250396       0.05746703      -0.17419132
H        4.71735595       0.80229195       8.43613162       0.60813926      -0.03206330      -0.05755133
O       -2.93404562      -5.69822965      -2.06075455      -0.13971597       1.05037583       1.21671164
H       -2.11842081      -6.17443083      -2.37304212      -0.05779397       0.28455437      -0.12466755
H       -3.00519384      -4.77095446      -1.61633401      -0.17791589      -0.35788914      -0.19291766
O        3.38887754      16.26795941      10.69363598       0.77825339       0.78032563      -0.31599870
H        3.88962124      17.05943415      10.79315151      -0.03631241      -0.10276213      -0.09549091
H        3.39672005      16.40097378       9.73495869      -0.32024952       0.22203838      -0.07064203
O       -1.97261904       4.39516907       2.95003202      -0.67149169      -0.74495812       0.70584329
H       -2.34764228       4.60806689       3.84895612      -0.13783469      -0.14164990      -0.46096980
H       -2.76079411       4.31074918       2.24304743       0.28278875      -0.04839139       0.04259943
O       23.88179531      13.33302790       7.30809298       0.20302545       0.28008645       0.43688439
H       24.78248854      13.74243089       7.40870208      -0.08737605      -0.21524570      -0.11829256
H       23.51895836      13.40895594       6.43763320      -0.14413225      -0.05009356      -0.39973368
O       -0.65059626     -14.98470568       3.92621285      -1.25662847      -0.08808546      -0.49696072
H       -0.58079209     -15.68314395       3.17001898      -0.22255165       0.20552204       0.08271318
H       -1.35107404     -14.45646987       3.51257124       0.07985848       0.09313544       0.15204931
O       18.42785620     -18.38059575       9.85767821       0.27757483      -0.72442901       0.19547228
H       19.30901659     -18.56121366       9.93879552       0.28885075      -0.20903000      -0.02137188
H       17.81024700     -18.88133224      10.39811068      -0.04656108       0.02820324      -0.15174966
O        4.83654329     -14.17865739     -13.57324127       0.72700172      -0.16130450      -0.73048949
H        5.78425219     -14.44525736     -13.70234856       0.02701861       0.42517045       0.21421415
H        4.58697637     -14.94136504     -12.91591080       0.03318857       0.10496488      -0.01652057
O       -4.81196235       2.19534811       4.33040268       0.02101324       0.88192653      -0.10515888
H       -4.89090849       2.06480150       3.36524705       0.15720283       0.07264481       0.22427284
H       -5.51464624       1.78589985       4.76452855      -0.31243218       0.10625616       0.20752323
O       -5.85075235      15.24400661      27.75641508       0.10387518       0.92908668      -1.07045741
H       -6.94244801      15.01229215      27.98711079       0.01013394       0.21790388      -0.24380188
H       -5.53797012      14.84624874      26.85621540       0.18820044       0.02066745       0.18761259
O        7.44166730     -15.57090855      -6.91049317       1.37259185       0.89245442       0.85361470
H        7.84968867     -16.41372324      -7.20610534       0.12995248      -0.01783882       0.28584200
H        7.19944204     -15.84627051      -6.06680543      -0.20876728       0.07114947       0.62974587
O       15.41890558       7.48840970      20.53474528       0.15573286       0.18677210       0.62313495
H       14.76637845       6.96801512      20.07069037      -0.04610851      -0.17058486       0.00964661
H       16.23080471       6.83631146      20.46358537       0.11327986       0.07781322       0.03565448
O       -0.25775897       1.00529410       0.95524258      -0.14389918       1.30220440       0.52800910
H        0.08341315       1.31839503       1.80368958      -0.02940831      -0.15054896       0.08822610
H        0.44362154       1.49470448       0.50019567      -0.19160590      -0.08998598      -0.12324893
O      -16.14926548      12.55816933      17.73928820      -0.05160079       0.35143162       0.02049549
H      -16.70241475      13.27235370      17.30732814       0.27107281      -0.44172051      -0.09188646
H      -16.85270723      11.97901477      18.22130231       0.34007934       0.24765746      -0.13507628
O      -17.85463426       6.26589354      13.01838135       1.35785315       0.49169319      -0.71305281
H      -18.58289707       5.89081345      12.25395707       0.25280205      -0.16488053       0.15128139
H      -17.16079098       6.32867153      12.37078488       0.09364544       0.35975020      -0.10251490
O       -9.98070947      34.26677273     -11.48748219      -0.36996875       0.14914352      -0.00104387
H       -9.65833111      33.89046444     -10.63532275       0.11811996      -0.04880996      -0.31630493
H      -10.07801535      33.39675279     -11.79811186      -0.12730453      -0.36933208       0.10586823
O       36.52185733      10.89142492      21.80950159       0.42501800       0.21520668      -0.82053899
H       36.76723307      11.78543269      21.43120106       0.04521860      -0.41195276      -0.14375330
H       35.55057374      10.80808671      21.89461733       0.47808925       0.07814692       0.14142850
O       30.55315800     -10.99965694       2.39630726      -0.00048669       0.15934740      -0.34337680
H       30.60205085     -11.63404098       3.14520028      -0.15287682       0.26814400      -0.24040529
H       29.84516329     -11.55316502       1.84582900       0.07421359       0.11447287       0.05518188
O       16.38025562       9.79786507      -6.87641724      -0.24321735      -1.03942984      -0.27222298
H       16.96958352       9.65971021      -7.60482877      -0.27552042       0.13750527      -0.36969104
H       16.20458436       8.91116091      -6.53801109      -0.22971802       0.06796359      -0.06709056
O       -9.31355927       3.53425774      33.45061911       1.07756430      -1.16949026       0.31738427
H       -9.03410729       4.42992830      33.50058072       0.08594387      -0.02625965       0.08889334
H       -8.61618233       2.91973973      33.76177243      -0.16923134       0.27072389       0.05906590
O        3.18231927       1.13755112       0.08775243       1.55656781       0.85441484      -0.32725287
H        3.07475735       1.94220781      -0.49435915       0.01780693      -0.06415203       0.25395991
H        3.85780159       0.45538575      -0.21169607      -0.07588864      -0.08692006       0.06605770
O       23.50121568       1.95041313      12.98939561      -0.62115192       0.11664863      -0.16397853
H       23.18879743       2.62802098      13.58133897       0.08357299       0.15313052       0.19216539
H       24.30371399       1.66635327      13.39176469       0.15986097      -0.28960349       0.01746767
O        0.10560226      32.49373083      15.58840651       0.02197052       0.62658731       1.60874332
H       -0.73553682      32.08004194      15.48741793      -0.23238829      -0.34812546      -0.07955742
H       -0.22894694      33.44934868      15.61957010       0.07558938      -0.17399040      -0.25803945
O        6.05100276      20.26636754       5.02912355      -0.46556884      -0.50241386       0.34377181
H        5.25876503      19.97220804       4.47536358       0.05542904      -0.00293912      -0.09483479
H        6.44093921      20.99628016       4.70749927       0.22245263       0.38515234      -0.15525794
O       -9.60035939      10.91086707      10.37093998      -0.62900924       0.59149008       1.21356404
H      -10.01070879      10.05092110      10.41252087      -0.34156999      -0.01441612       0.11506450
H       -9.14408480      11.04371250      11.33789896      -0.20748165      -0.12296200      -0.28379380
O       17.21465570      17.99587155      28.19580745      -0.34082998      -0.63097762      -1.18742302
H       17.24330535      16.96930827      28.20370886       0.21980099       0.48582700      -0.10585738
H       16.42482796      18.16834699      27.62958113      -0.13369616       0.02529595      -0.01228364
O        6.71030895      18.44474593      10.89180699      -0.01798167      -0.51382909       0.66531010
H        7.23727623      18.87892137      10.24068141       0.27060467       0.01601432      -0.42876288
H        6.92049407      17.50665060      10.86015822      -0.30321227       0.10874171      -0.20910761
O        1.05192730     -13.59337800      10.43339185      -0.26787585      -0.72793262      -0.11091254
H        0.49651154     -14.41906706      10.51296914      -0.18055948       0.27025518       0.04574325
H        2.03961670     -13.87989554      10.20327143      -0.23923984       0.00499723       0.05534053
O       -0.00623397       9.25770631       1.84857928       0.47878679      -1.98064821       1.48100241
H        0.94570598       9.15696916       1.65864317      -0.03455225      -0.13257282       0.01204734
H       -0.16608600       9.88864726       1.15172946      -0.03721244       0.18762515      -0.55831546
O        0.43584638       0.65050814       7.74883017       1.41742077      -0.40479748       0.88099256
H        1.02018133       0.24052937       7.09538290      -0.25154792       0.31922199       0.22986720
H        0.50383517       0.18110672       8.66170573       0.15191855      -0.06631120      -0.01103360
O      -18.84919098      28.85341939     -15.91306931       0.59221861       0.79483565      -0.50495707
H      -17.98921933      28.62967999     -16.53668232      -0.26903679       0.40270427      -0.02434960
H      -18.95522665      28.35945306     -15.10721171       0.01288217       0.14121212       0.02093349
O        4.61187202      26.42375545      -8.29205590       0.78424097      -0.33791386       0.27316047
H        5.41330236      26.57306091      -7.70973596      -0.41880580       0.26787969      -0.19679055
H        3.91420481      26.51092131      -7.68137824      -0.41910811       0.14495169       0.09170387
O      -18.19637728      21.57887531       1.46189844      -0.91038540      -0.68525193       0.54387468
H      -17.93663222      20.75803631       1.07282974      -0.09471211      -0.13491644       0.12184549
H      -19.08669318      22.00793122       1.51708576      -0.10914221      -0.21436191      -0.12432997
O       11.43823786      20.28449018       6.91412962      -0.25995813       0.16845603      -0.13947444
H       11.57882075      21.28587222       6.78222719      -0.03978550      -0.34247268      -0.07659201
H       10.40040741      20.08226076       6.88622826       0.24656901       0.10298138      -0.14990257
O       -9.44776337      -6.80591967       4.30473853      -0.94585876      -0.41478263      -0.20439314
H       -9.24857048      -7.35128153       3.41915794       0.30337331       0.05729597       0.49194414
H      -10.36699479      -6.95147225       4.60085191       0.35916553      -0.16919844       0.05946243
O      -25.44136360       2.09620002      11.25550539      -1.39145123      -1.44475430       0.77909948
H      -25.36871287       1.19273343      11.26737003      -0.23794640      -0.49451207      -0.14055198
H      -24.74419248       2.53476812      10.83490353       0.79502366       0.49513789      -0.39592253
O      -12.44791432      -7.41056012      19.41536801      -0.49898382      -0.86742072      -0.06930433
H      -12.23966452      -8.29929656      19.07310330      -0.07250636       0.02259182      -0.07245571
H      -13.06762279      -6.77066222      19.02135092       0.14981237      -0.04261468      -0.18976735
O        8.14394652       8.57113786      17.41966664      -1.09187556       0.98752803      -0.35519506
H        8.93383873       8.09293394      17.63287155       0.07940151      -0.25437549      -0.18163370
H        8.35352057       8.59632048      16.48979856      -0.10248449      -0.07910081      -0.06060949
O      -11.18422114      -0.73056027      18.48187298       0.35579804      -0.17019600       0.53826812
H      -10.66706360      -1.52520918      18.68090365      -0.02907520       0.04218174       0.01020465
H      -11.84309343      -0.98740354      17.79210441       0.10506549      -0.01421329       0.12026503
O       22.68988556       4.00519471      19.08709383      -0.89366231       0.03448093      -0.86281793
H       22.24020704       3.32294615      18.41530553       0.22943292       0.14393060       0.10704835
H       22.60213504       3.46619874      19.84636028       0.09337381       0.07438694      -0.08846981
O       -4.97587389     -18.87465997      -3.73277375       0.03636242       0.51042865      -0.99577790
H       -4.09395641     -18.90206201      -3.27456274      -0.11944562      -0.34062665      -0.26627557
H       -4.82187393     -19.12485744      -4.65955490      -0.00930889      -0.28276292      -0.14337495
O       27.63521996     -10.03036791      -7.20822682      -0.74942553       1.01312040       0.41746670
H       28.56160689     -10.01284080      -6.67051764      -0.12296627      -0.02530582      -0.25998223
H       27.16488731     -10.59910501      -6.58785654      -0.30971057      -0.02735726      -0.19647087
O        6.97278622       0.34804497       5.90169420       0.61803871       0.63260796       1.28917144
H        6.92256784       0.58946831       6.84008908       0.11954739      -0.10966652      -0.38945768
H        7.23641522      -0.58235943       5.86548306       0.12249546       0.11923728      -0.28492139
O      -18.61830025      -2.02893709      24.54955740       0.37754738       0.23922257      -0.09623738
H      -18.82704971      -2.34790018      23.62310679       0.00513033      -0.02869177       0.01161558
H      -17.82127601      -2.65469234      24.87091372      -0.06143551       0.11188469      -0.09425416
O        4.89107846      -6.75512850      -5.54775714       1.18771103       0.62077376       0.17460150
H        5.19964729      -6.29958432      -4.72256984      -0.05769715       0.12862739       0.06724374
H        5.24409380      -6.38680853      -6.46184717       0.07171999       0.00333861      -0.08473055
O       12.15189742       9.78720582       6.31957836      -0.13698838       0.19221845       0.22543329
H       11.79393635      10.26444416       7.22276077       0.25123288      -0.59739367      -0.35790142
H       11.90250331      10.44604027       5.61628163       0.15613478      -0.27167856      -0.06346081
O        4.43496659      11.87343111      -5.10578443       0.51419561      -0.09585806      -0.78534116
H        4.06397610      11.43009953      -4.34648701      -0.00600246       0.14935303       0.03877598
H        4.23687708      11.24768467      -5.89052996       0.15059581       0.17452261       0.18767414
O       13.21435510      29.02576092      15.90666788      -0.72512997      -0.13167545       0.34825584
H       13.70940131      28.93918480      16.77612160      -0.02844941       0.01776865      -0.16314745
H       12.32257742      29.41916590      15.92833717       0.00593145      -0.20242628       0.06154683
O       -4.10392157       3.99471444       1.21397639      -0.46675982       0.96241661       0.17437341
H       -4.29411995       5.01925362       1.00995776       0.04093693      -0.32191389       0.43712659
H       -4.86040202       3.46252601       1.46641025      -0.31620210      -0.43617446       0.12331958
O        6.56954707     -15.80911974       8.89550413      -0.08057676      -0.32894400      -0.56265374
H        5.88713501     -15.11850932       8.70920149      -0.01603152      -0.12462499      -0.05116672
H        6.25914747     -16.70023941       9.03659364       0.36239534      -0.08757883      -0.13802312
O        1.64321269       8.72092793      22.81598217      -1.50483721      -0.03862765      -1.41108421
H        1.53195141       7.95005035      23.37049872      -0.09195278      -0.03152679      -0.10149496
H        1.70671509       8.34953569      21.91726393       0.29110359       0.27907016       0.38993536
O       22.91108440      22.85698474      -0.31964358      -0.66112485       0.70008919       0.36953561
H       23.37242809      23.69520155      -0.19422197       0.10683024       0.08961497      -0.12698436
H       22.26910165      22.65283879       0.34692181      -0.05431503       0.09894479      -0.39891306
O       11.96738115       5.99465930     -16.66685171       0.87253009       0.18172694      -0.22898303
H       11.79868614       5.02010113     -16.58328091       0.05018953       0.03316926      -0.07046225
H       11.98581198       6.26241349     -17.62833503       0.14325655       0.15033180       0.71049622
O       -7.75664384      22.88060918       1.76283862      -0.11677276      -0.54218010      -0.04536101
H       -8.58857222      22.37953630       1.69655150      -0.09269841       0.01448817       0.08467961
H       -7.67008511      23.10341469       2.88837195      -0.04199651       0.12821425      -0.38075930
O        5.20512213     -15.66986096      17.50301911      -0.19253334      -0.10450169      -0.66898093
H        5.90612160     -15.60681645      18.23404272      -0.37458403      -0.24013980       0.02302591
H        4.91509021     -14.69957072      17.49330870       0.22052182      -0.03080455      -0.25684227
O        1.75234484      18.69318396       0.57894778      -1.63145034      -0.54486912       0.11488162
H        1.17796640      18.83907998       1.37178073       0.18684507       0.11530278      -0.20253555
H        1.12886612      18.51063032      -0.24717053       0.48719155       0.04199446       0.14731041
O       -4.67804872      -6.54504378       6.54294544      -1.20632738      -0.84970220       0.03077920
H       -4.38884518      -7.43577608       6.23595955      -0.20866768       0.37002568       0.33569650
H       -5.55014085      -6.38592596       6.04558569      -0.22581116       0.08625428      -0.26466637
O       -3.53404170       2.26654295       8.47803654       0.10116682       0.73427441       0.09831069
H       -2.88799007       2.67560510       9.00771953      -0.12551770      -0.04737042       0.04077529
H       -3.33631693       1.33040078       8.41574519      -0.00372102      -0.06648171      -0.03375902
O       14.28427618      -6.87522113      -2.45875022       0.36857722      -0.98571725      -0.25236500
H       13.51198609      -7.05055236      -2.98643266       0.39428820      -0.05428938       0.02627234
H       15.12320322      -7.42429042      -2.71563796      -0.15197081      -0.24106623       0.28942187
O       11.48748680       3.48450274      23.58836077      -0.70529936       0.12547059       0.10091338
H       10.83190669       3.22708471      24.24329058       0.21692890      -0.01428816      -0.14192502
H       12.31099349       3.09538166      23.88285078       0.45934066      -0.50696656       0.07282970
O        8.06299651      13.76944452      25.40701923      -0.70271906      -0.80097571       1.37440318
H        8.94041799      14.15035320      25.63002286      -0.16672936      -0.08074281      -0.33733326
H        8.12335689      12.74387541      25.26188475      -0.15109961       0.39922020       0.10910229
O       -9.14674008       5.80714049      11.49066318      -0.38361146       0.10656731       0.59094836
H       -8.27314965       5.71233672      11.64749048       0.77135447      -0.39772462       0.10787440
H       -9.51537896       6.11398544      12.41246434       0.22064719       0.01102945      -0.37475649
192
Lattice="13.066109871622112 0.0 0.0 -5.291665241540468e-07 13.066109871622112 0.0 -5.291665241540468e-07 -5.291665241540468e-07 13.066109871622112" Properties=species:S:1:pos:R:3:momenta:R:3 step=20 time_fs=2.0 phase=equilibration pbc="T T T"
O       12.65898459      -2.82154872     -15.45539601       1.17425486      -0.02962716       0.20657877
H       11.97244119      -2.68101492     -16.10388536       0.35058578       0.33135133      -0.02043066
H       13.27882137      -3.37249444     -15.97761621       0.03274503       0.06773316       0.23755655
O       25.27233589      24.43138547       0.35895475       0.19231824      -0.50665954       0.07138971
H       25.34205815      25.30389104       0.79494483       0.16968056       0.66369714       0.33746892
H       25.36004261      24.58702905      -0.65463308       0.04294788       0.12537173       0.62048558
O        5.36761014       1.52015590       8.12422498      -0.06422963      -0.85267953      -1.34645057
H        5.86860693       1.95908080       8.83111079       0.01124137      -0.02884436      -0.23045967
H        4.78540426       0.80693359       8.42831845       0.76431159       0.10209906      -0.08752728
O       -2.93493022      -5.69163937      -2.05280732      -0.17188039       1.02429622       1.33918297
H       -2.12668493      -6.13711252      -2.38466743      -0.10211449       0.47096094      -0.11766859
H       -3.01605535      -4.81412302      -1.64299255      -0.05000407      -0.47825109      -0.33107019
O        3.39339212      16.27239325      10.69097524       0.69952490       0.73496816      -0.50451434
H        3.88973423      17.05688964      10.79016794       0.04838910       0.06608698       0.03866870
H        3.36383749      16.41785257       9.73053334      -0.35115760       0.12878425      -0.01429339
O       -1.97762608       4.39074567       2.95426670      -0.93899355      -0.68971634       0.63238485
H       -2.35792593       4.59099995       3.79567641      -0.09815534      -0.19304173      -0.57502551
H       -2.72283645       4.30753830       2.25836385       0.48955248      -0.01734974       0.26839681
O       23.88300839      13.33474628       7.31094039       0.27606706       0.34312602       0.47778580
H       24.76891940      13.71704609       7.39464608      -0.16862986      -0.29326619      -0.16476609
H       23.50712688      13.40299168       6.39683218      -0.07559096      -0.07398772      -0.39121902
O       -0.65854748     -14.98554395       3.92230240      -1.32277323      -0.25960122      -0.74000229
H       -0.60001951     -15.65740283       3.18857982      -0.17079915       0.30686201       0.28949432
H       -1.34244115     -14.44620168       3.53220808       0.08132227       0.12482115       0.24410709
O       18.42838658     -18.38435020       9.85831593       0.03796849      -0.59648131       0.06254616
H       19.35036051     -18.58348502       9.93946874       0.51565431      -0.24632134       0.03451593
H       17.80488495     -18.87815594      10.38617076      -0.05850199       0.02747536      -0.08669605
O        4.84128009     -14.18060848     -13.57688483       0.81689095      -0.53192200      -0.52356054
H        5.77851244     -14.39875472     -13.68075117      -0.11901578       0.51847068       0.22118658
H        4.59318824     -14.91758371     -12.92685687       0.09134123       0.37185443      -0.20797638
O       -4.81114948       2.20102120       4.32935195       0.17969424       0.95587661      -0.16409961
H       -4.87636523       2.07197034       3.38687814       0.13633269       0.07195269       0.19783539
H       -5.55430126       1.79105510       4.78964589      -0.45737128       0.02585157       0.28015181
O       -5.85056032      15.24870691      27.74874424      -0.08470163       0.67482096      -1.27378765
H       -6.93023078      15.03656200      27.96032552       0.24281731       0.28649324      -0.29592637
H       -5.52515856      14.85170076      26.88686504       0.07947199       0.08881572       0.43150874
O        7.45021405     -15.56552061      -6.90561237       1.42448294       0.76508972       0.77754871
H        7.86104970     -16.40906481      -7.17982829       0.10410391       0.10626804       0.25187008
H        7.17364456     -15.83780153      -5.99414536      -0.30159562       0.11824452       0.79955920
O       15.42030945       7.48883916      20.53805781       0.36374055      -0.01760996       0.54977429
H       14.75954228       6.95369238      20.07135214      -0.07625725      -0.11298967       0.01958639
H       16.23618410       6.85331469      20.46929993       0.00078623       0.27138367       0.08736458
O       -0.25834522       1.01360021       0.95864036      -0.06263758       1.39263425       0.58720103
H        0.07611599       1.30297448       1.81350429      -0.11908724      -0.16305778       0.12062334
H        0.42389946       1.48361341       0.48451746      -0.19907514      -0.12632189      -0.21131034
O      -16.15037235      12.56006616      17.73952512      -0.32685892       0.31267544       0.15127067
H      -16.66929686      13.22219607      17.30193209       0.37276408      -0.53575349      -0.04373545
H      -16.80880200      12.01102133      18.19811851       0.52558013       0.38187244      -0.31096520
O      -17.84644595       6.26856804      13.01320017       1.22922425       0.40578852      -0.91304231
H      -18.55455039       5.87707257      12.27922569       0.32150190      -0.11620720       0.36762181
H      -17.14724321       6.36740615      12.36286075       0.17184862       0.43460327      -0.04822403
O       -9.98243456      34.26733093     -11.48671421      -0.25644035       0.15130342       0.14785166
H       -9.64891787      33.88983936     -10.67003367       0.08004941       0.03501068      -0.37799595
H      -10.09141952      33.35837747     -11.79208463      -0.14327129      -0.34533831       0.03992017
O       36.52397818      10.89297693      21.80393219       0.49768702       0.31065940      -0.87674520
H       36.76790511      11.73870007      21.42010241      -0.00882495      -0.50193869      -0.09326060
H       35.60044115      10.81623417      21.90802052       0.48995750       0.08544726       0.14603682
O       30.55207758     -10.99931170       2.39388802      -0.20299206      -0.07576991      -0.46609541
H       30.58832948     -11.60409311       3.12188449      -0.11606455       0.31621774      -0.20242444
H       29.86069448     -11.53247168       1.85284409       0.25245590       0.30612934       0.08789833
O       16.37860065       9.79115501      -6.87787459      -0.20604522      -1.08968144      -0.25269344
H       16.94526385       9.67462614      -7.64404640      -0.22953963       0.17061740      -0.42039099
H       16.17985464       8.91876682      -6.54176538      -0.27153261       0.08293315      -0.01239999
O       -9.30688545       3.52648290      33.45214091       1.02131742      -1.30179199       0.32716043
H       -9.02154908       4.43594862      33.50861895       0.16185449       0.13875414       0.08527899
H       -8.63307443       2.94690049      33.76606698      -0.14568204       0.25410118       0.05577467
O        3.19235530       1.14276997       0.08547061       1.72013425       0.83402491      -0.39007693
H        3.07913180       1.92676462      -0.46482284       0.07182034      -0.22985464       0.33368230
H        3.84228999       0.45567678      -0.20248620      -0.23267857       0.08709263       0.11667293
O       23.49689937       1.95115918      12.98809425      -0.64452033       0.14071593      -0.16316008
H       23.19493757       2.64501368      13.59994194       0.05941905       0.17737961       0.17713965
H       24.32368235       1.63428217      13.39401399       0.21863739      -0.35083904       0.01401168
O        0.10525731      32.49793117      15.59817708      -0.16844701       0.85320293       1.63984365
H       -0.75789067      32.04206277      15.47957460      -0.18160113      -0.39630640      -0.07001318
H       -0.21523184      33.42184686      15.59400009       0.19602082      -0.35796522      -0.26084879
O        6.04689801      20.26189577       5.03130940      -0.79542176      -0.77440887       0.36338756
H        5.27266562      19.97426067       4.47303573       0.23284632       0.05173465       0.04762399
H        6.47087941      21.04621344       4.68590376       0.34750191       0.56462679      -0.25165517
O       -9.60373481      10.91444265      10.37893584      -0.52478162       0.60753696       1.44673421
H      -10.04189404      10.04980643      10.42307896      -0.29572352       0.00926570       0.10280336
H       -9.16902322      11.02935177      11.29661183      -0.30640676      -0.16441047      -0.55576091
O       17.21183381      17.99082725      28.18755874      -0.49433846      -0.87560637      -1.35610493
H       17.26615431      17.02829144      28.19434288       0.25728588       0.68410799      -0.07509448
H       16.41764450      18.16805181      27.63267295      -0.01052861      -0.02240010       0.08415744
O        6.71017816      18.44117025      10.89574508       0.03240847      -0.52007615       0.63998573
H        7.26475264      18.88110547      10.19684446       0.26754338       0.01122576      -0.43136708
H        6.88991214      17.51347648      10.83860590      -0.31763765       0.02252598      -0.23060511
O        1.05110716     -13.59832362      10.43204723       0.02962773      -0.92039883      -0.26674708
H        0.48394138     -14.38313135      10.51548321      -0.09125730       0.43829815       0.01483803
H        1.99540664     -13.87405376      10.21261918      -0.67594932       0.11049020       0.14741103
O       -0.00281601       9.24580707       1.85722475       0.61581264      -1.81471649       1.30506519
H        0.93842431       9.14255211       1.66341736      -0.10524803      -0.16115374       0.08481164
H       -0.17226772       9.90402917       1.10013737      -0.08047595       0.09705451      -0.46027032
O        0.44444377       0.64746414       7.75504675       1.34847412      -0.55420433       1.21520777
H        0.99540744       0.27072481       7.11938290      -0.22013976       0.27682415       0.21990573
H        0.52071909       0.17991705       8.65102785       0.18630925       0.04639437      -0.21152620
O      -18.84475937      28.85793952     -15.91647821       0.75610567       0.82236230      -0.68340200
H      -18.02388409      28.66960149     -16.53164769      -0.44226118       0.42186370       0.12141656
H      -18.95173485      28.37079188     -15.10467599       0.05482858       0.10202195       0.02438405
O        4.61713015      26.42123804      -8.29001392       0.87489790      -0.35267406       0.36375018
H        5.36752980      26.59895037      -7.73420503      -0.48081935       0.27618873      -0.28079485
H        3.86768802      26.52547260      -7.67205345      -0.48847138       0.15555545       0.06172217
O      -18.20179780      21.57500758       1.46524098      -0.94058785      -0.48049452       0.54734786
H      -17.94886863      20.74024615       1.08207575      -0.16333961      -0.21333027       0.07135525
H      -19.09292660      21.98247021       1.50177992      -0.02669470      -0.29834653      -0.18826182
O       11.43551121      20.28580773       6.91310597      -0.56913970       0.33250330      -0.15859270
H       11.57358925      21.23979288       6.77603164      -0.05960519      -0.56373820      -0.05267427
H       10.44294048      20.09534372       6.87118140       0.62240731       0.17097477      -0.15593046
O       -9.45340051      -6.80879252       4.30275678      -0.88768983      -0.54117029      -0.42636710
H       -9.22275763      -7.33728452       3.48278055       0.22201014       0.21945380       0.80069800
H      -10.32839576      -6.96805799       4.60527892       0.38349827      -0.18298483       0.04663253
O      -25.44979212       2.08835851      11.26022003      -1.36444187      -1.12041407       0.75465543
H      -25.38989077       1.12993951      11.24956565      -0.21198498      -0.72507222      -0.22475010
H      -24.66558323       2.58193281      10.79564671       0.70817916       0.40912311      -0.34412311
O      -12.45087810      -7.41580498      19.41508386      -0.52387795      -0.87328124       0.07005297
H      -12.24760257      -8.29382517      19.06114140      -0.09320254       0.08168976      -0.16518479
H      -13.05046393      -6.77929296      18.99962059       0.19465019      -0.13450193      -0.24856881
O        8.13709564       8.57727360      17.41733155      -1.05883520       1.02699297      -0.32801157
H        8.94425567       8.06447751      17.61923670       0.10243806      -0.30200478      -0.09869371
H        8.34181055       8.58971597      16.47717446      -0.14063207      -0.04848967      -0.18006903
O      -11.18206895      -0.73184348      18.48458250       0.29807297      -0.23590301       0.44717421
H      -10.67250941      -1.52031779      18.68125261      -0.07679266       0.04637217       0.00683892
H      -11.82767892      -0.98654689      17.80967737       0.19101419       0.02692668       0.22943533
O       22.68361233       4.00513371      19.08043927      -1.03593009      -0.03494424      -1.20433892
H       22.26670881       3.34639617      18.43022135       0.31752911       0.33415848       0.20128709
H       22.61143994       3.47011365      19.84862799       0.10476457       0.00939160       0.13817108
O       -4.97508574     -18.87134919      -3.73900961       0.17953457       0.47071093      -1.07278974
H       -4.11203523     -18.93339150      -3.30358838      -0.23293791      -0.30810256      -0.31606021
H       -4.82436226     -19.15167709      -4.66992398      -0.04672213      -0.26988593      -0.06434909
O       27.63087319     -10.02404048      -7.20472310      -0.52749387       0.99751135       0.68896137
H       28.53764932     -10.01439064      -6.70551820      -0.36322190      -0.00842624      -0.45870514
H       27.13353182     -10.59929030      -6.61138921      -0.32237382       0.02182384      -0.28801531
O        6.97661948       0.35178048       5.90956538       0.65776888       0.58313102       1.23593989
H        6.93301021       0.58033352       6.80306043       0.09471419      -0.06510408      -0.30555097
H        7.24859429      -0.56995033       5.83834336       0.13205711       0.12336737      -0.26778452
O      -18.61521879      -2.02815234      24.54793717       0.53431069       0.01389048      -0.30364844
H      -18.82393725      -2.34461601      23.63802079       0.05673601       0.09518996       0.29931476
H      -17.83571039      -2.63606067      24.85910491      -0.23343771       0.26549813      -0.13426862
O        4.89860201      -6.75044119      -5.54694516       1.28490922       0.86891198       0.05911728
H        5.18960870      -6.29383434      -4.72879535      -0.14483646      -0.00936149      -0.19388674
H        5.24736446      -6.39028538      -6.45723338      -0.00133845      -0.07611830       0.17708212
O       12.15025033       9.78911279       6.32147361      -0.33048201       0.44921701       0.43062318
H       11.82428939      10.19806755       7.17272094       0.37235864      -0.75404050      -0.65294393
H       11.92204165      10.41223729       5.61532320       0.24132551      -0.40193225       0.02416564
O        4.43804077      11.87208508      -5.11108477       0.51591717      -0.26759469      -0.94405648
H        4.06112669      11.44500036      -4.34095680      -0.04927380       0.15972000       0.07201666
H        4.25241000      11.27090157      -5.86215105       0.16581748       0.28821648       0.36857653
O       13.20989468      29.02438107      15.90892348      -0.65702840      -0.18168203       0.44084103
H       13.69907281      28.94218501      16.75031060      -0.16768372       0.05007165      -0.33875432
H       12.32862435      29.39687361      15.93791515       0.10253825      -0.23518115       0.14096148
O       -4.10683616       4.00149260       1.21481376      -0.53970674       1.22417220       0.12372355
H       -4.29013560       4.97031527       1.05581390       0.03749756      -0.66583450       0.49475425
H       -4.88808849       3.42636595       1.47791811      -0.20687893      -0.26864389       0.09952339
O        6.56897364     -15.81069899       8.89171361      -0.06622641      -0.25898250      -0.65748818
H        5.88665684     -15.13629424       8.70454478       0.00486943      -0.24122707      -0.04656425
H        6.29205738     -16.70711160       9.02231930       0.31234135      -0.06826381      -0.15330575
O        1.63390820       8.72034698      22.80704726      -1.52170202      -0.08566508      -1.33285226
H        1.52247368       7.94744711      23.36186265      -0.10379685      -0.02079542      -0.06391606
H        1.73609697       8.37861230      21.95218405       0.31846608       0.29809024       0.27263706
O       22.90684702      22.86122682      -0.31773535      -0.58819338       0.80049717       0.23408866
H       23.38048536      23.69824717      -0.20569476       0.06301193      -0.02141506      -0.10694501
H       22.25872570      22.65858533       0.31569421      -0.16845649       0.02242161      -0.22345053
O       11.97237337       5.99527784     -16.66815963       0.81796587       0.04454112      -0.19505696
H       11.80434905       5.03188938     -16.59077023       0.06808364       0.19234865      -0.08765825
H       11.99837910       6.27557248     -17.55477976       0.12248298       0.14212983       0.71189539
O       -7.75746838      22.87672195       1.76317696      -0.18805941      -0.60740972       0.16715402
H       -8.59307962      22.38264029       1.70544732      -0.00630328       0.05408099       0.09646748
H       -7.67571281      23.11358780       2.83618183      -0.07638940       0.08848303      -0.68462545
O        5.20395832     -15.66933356      17.49952826      -0.16811080       0.18489413      -0.39947523
H        5.86565295     -15.63212623      18.22814121      -0.43801283      -0.28453317      -0.12335379
H        4.93970946     -14.71375849      17.46597865       0.27999242      -0.25093739      -0.29946167
O        1.74152673      18.68930718       0.57916688      -1.83736976      -0.62775224      -0.05363353
H        1.19729048      18.84832405       1.34455619       0.18105452       0.08742431      -0.31930492
H        1.18519500      18.51841944      -0.21819781       0.64654111       0.11894309       0.42641385
O       -4.68603138      -6.55026909       6.54259346      -1.43745146      -0.82653672      -0.09456379
H       -4.40941789      -7.39747103       6.27054061      -0.19506141       0.35476109       0.35702131
H       -5.56274318      -6.38008377       6.02558265      -0.03763290       0.03304590      -0.14362409
O       -3.53397343       2.27073646       8.47835563      -0.09704670       0.63217036       0.04813731
H       -2.89330604       2.67512181       9.01768127       0.01551683       0.03675284       0.16682433
H       -3.33577146       1.32507875       8.41132889       0.01213990      -0.03015393      -0.05382829
O       14.28744460      -6.88154684      -2.46042115       0.75128332      -1.09496857      -0.27790164
H       13.54945411      -7.05706457      -2.98463704       0.34183681      -0.08984223      -0.01541906
H       15.09271281      -7.43925981      -2.68347943      -0.45725789      -0.07450655       0.36340527
O       11.48330289       3.48515290      23.58860878      -0.53953610       0.08973710       0.09211156
H       10.85177096       3.22560757      24.23167063       0.17591688      -0.02320760      -0.06957791
H       12.35331161       3.04666143      23.88754019       0.36294709      -0.46709960       0.01463741
O        8.05890663      13.76358756      25.41507904      -0.61582546      -1.01230866       1.37441157
H        8.91975164      14.13865298      25.59557773      -0.22823680      -0.14088332      -0.35344463
H        8.10747094      12.79840332      25.27447639      -0.16965303       0.68320055       0.15291695
O       -9.14993601       5.80803867      11.49475157      -0.58431111       0.19303182       0.78773944
H       -8.18456673       5.67043584      11.65962972       0.93731032      -0.44631903       0.12685862
H       -9.48929086       6.11167465      12.36275006       0.30538474      -0.04895372      -0.61609490
192
Lattice="13.06583652597967 0.0 0.0 -5.291554538840946e-07 13.06583652597967 0.0 -5.291554538840946e-07 -5.291554538840946e-07 13.06583652597967" Properties=species:S:1:pos:R:3:momenta:R:3 step=30 time_fs=3.0 phase=equilibration pbc="T T T"
O       12.66619602      -2.82188379     -15.45414277       1.25696160      -0.08536005       0.11548829
H       12.00125564      -2.64707631     -16.10638752       0.23972864       0.36466341      -0.04590321
H       13.28106978      -3.36595779     -15.94981771       0.03252635       0.05170836       0.31409711
O       25.27303700      24.42860380       0.35888420       0.20699369      -0.21196720      -0.03636896
H       25.35744082      25.35763826       0.82147761       0.15480235       0.42359620       0.19870249
H       25.36373726      24.59567920      -0.58056267       0.04671521       0.06680315       0.85514514
O        5.36727826       1.51521723       8.11565209       0.02315077      -0.70073309      -1.42757039
H        5.86842601       1.95330015       8.80779991      -0.00109922      -0.07831140      -0.23113698
H        4.85890409       0.81401147       8.42243928       0.70411934      -0.00947475      -0.00744438
O       -2.93620605      -5.68607320      -2.04450913      -0.27754883       0.70236532       1.33107316
H       -2.13585707      -6.08407518      -2.39670259      -0.07391257       0.60441644      -0.13538337
H       -3.01579532      -4.85284385      -1.67581845       0.04680075      -0.26385123      -0.31733893
O        3.39729581      16.27642918      10.68704511       0.59649088       0.70289303      -0.69771639
H        3.89897366      17.07132714      10.80053826       0.13392574       0.22141437       0.18003153
H        3.32787144      16.42505488       9.73147304      -0.39135224       0.02094073       0.03309634
O       -1.98348611       4.38634825       2.95706320      -0.91369497      -0.72351415       0.27859859
H       -2.37230961       4.57349949       3.75017145      -0.22519982      -0.14938800      -0.29182308
H       -2.66878452       4.30657563       2.29142794       0.57842934      -0.00700309       0.36481843
O       23.88391594      13.33667383       7.31330944       0.14856917       0.36448807       0.32632363
H       24.75302165      13.68688049       7.37688243      -0.11824373      -0.30756286      -0.19415728
H       23.50506255      13.39327444       6.36629452       0.04632182      -0.12222693      -0.22069310
O       -0.66665124     -14.98720277       3.91737147      -1.31126114      -0.35344280      -0.79318297
H       -0.61377261     -15.62733188       3.22160023      -0.10996805       0.26565827       0.34858220
H       -1.33813452     -14.42943268       3.55853923      -0.00606331       0.22207918       0.29185992
O       18.42831454     -18.38742349       9.85813365       0.10780618      -0.54596273      -0.05234105
H       19.39859559     -18.60683352       9.94432486       0.43813773      -0.23243053       0.06421357
H       17.79832359     -18.87581928      10.38091002      -0.06761477       0.01109039      -0.01917740
O        4.84603879     -14.18436781     -13.57930282       0.73761512      -0.74516676      -0.38325002
H        5.76810170     -14.34525089     -13.65988642      -0.04708861       0.56511718       0.19425475
H        4.60290430     -14.87201928     -12.95302240       0.09546970       0.51903270      -0.30219357
O       -4.81006647       2.20676452       4.32879830       0.11010738       0.91583687       0.04828853
H       -4.86451406       2.07817437       3.40036892       0.10496938       0.05325905       0.07122917
H       -5.59505604       1.79544693       4.81359928      -0.34795317       0.08157912       0.19314502
O       -5.85184643      15.25182240      27.74012794      -0.39958627       0.46411131      -1.30158772
H       -6.89305375      15.06795222      27.92820273       0.52725029       0.36428336      -0.35542997
H       -5.52062975      14.86070007      26.93394992       0.02236046       0.08268238       0.50572580
O        7.45867400     -15.56104757      -6.90004537       1.37252213       0.59524189       1.00965967
H        7.86983402     -16.39344993      -7.15667155       0.08272054       0.19740559       0.22002418
H        7.14399759     -15.82049642      -5.92039096      -0.29077307       0.22961747       0.68435205
O       15.42265603       7.48787648      20.54069240       0.49215638      -0.24303662       0.44538412
H       14.75295639       6.94690162      20.07521392      -0.04648712      -0.02018929       0.07304327
H       16.23045971       6.88817086      20.47983844      -0.10705209       0.43985311       0.13777731
O       -0.25867992       1.02217436       0.96248185      -0.05718262       1.39489966       0.67550428
H        0.06049264       1.28699087       1.82868075      -0.19891016      -0.16292018       0.19782063
H        0.40721096       1.47207520       0.45722628      -0.13190721      -0.10347430      -0.35234214
O      -16.15160048      12.56150066      17.74049620      -0.08495450       0.25344140       0.27360027
H      -16.63634218      13.17824306      17.29086299       0.26378749      -0.31389411      -0.21027605
H      -16.75981072      12.04330446      18.16782925       0.40744408       0.22629459      -0.25453777
O      -17.83877693       6.27069588      13.00678573       1.13452943       0.33694396      -1.09538331
H      -18.52134147       5.86710610      12.32225689       0.35604343      -0.08077525       0.51615496
H      -17.12791169       6.41263335      12.36191910       0.21452368       0.49523002       0.03547882
O       -9.98368897      34.26704055     -11.48578120      -0.23543344      -0.01894138       0.04062038
H       -9.64038244      33.89329006     -10.70379251       0.10295267       0.03412652      -0.29332741
H      -10.10441166      33.33686286     -11.78625514      -0.12375549      -0.05943071       0.08580894
O       36.52718767      10.89431742      21.79811336       0.82264705       0.15502744      -0.85570215
H       36.76712814      11.69698885      21.40807395       0.02446226      -0.29960479      -0.16722254
H       35.63250548      10.82291696      21.92375490       0.13975523       0.05136041       0.19305421
O       30.54963999     -10.99981152       2.39014597      -0.36216089      -0.12514075      -0.74835135
H       30.57869219     -11.57711165       3.11212967      -0.06815575       0.21191267       0.02866164
H       29.89197879     -11.49428043       1.86197796       0.38324156       0.45563409       0.08613383
O       16.37724008       9.78422160      -6.87948359      -0.11873714      -1.09616362      -0.33391697
H       16.92195325       9.69232944      -7.68297253      -0.25205715       0.19500437      -0.36432824
H       16.15127443       8.92580764      -6.54062447      -0.30681724       0.06158262       0.02970079
O       -9.30091365       3.51877418      33.45328605       0.85438618      -1.13460273       0.26709879
H       -9.00441001       4.45192101      33.51563102       0.17223967       0.15659307       0.07051069
H       -8.63894851       2.96393328      33.77402519       0.03773909       0.07961457       0.13056579
O        3.20316787       1.14749504       0.08340805       1.80267607       0.69430402      -0.23804617
H        3.08821435       1.90430248      -0.43468843       0.10870349      -0.18495487       0.24816283
H        3.81554726       0.46962245      -0.19085900      -0.29064485       0.17630346       0.10744550
O       23.49269973       1.95210931      12.98725430      -0.55233117       0.18335071      -0.00255910
H       23.20119003       2.65913184      13.61266125       0.08382522       0.10094977       0.08104269
H       24.33848893       1.60110292      13.39139886       0.06693169      -0.31712101      -0.06685382
O        0.10337843      32.50232654      15.60788826      -0.43618545       0.73348084       1.62665057
H       -0.76531823      32.00510075      15.47415745       0.04330965      -0.33737310      -0.03154830
H       -0.19371190      33.38603068      15.56812032       0.22561434      -0.30761093      -0.26581668
O        6.04159476      20.25700674       5.03314147      -0.84908263      -0.63510039       0.26535303
H        5.30259134      19.98097729       4.48329122       0.36596398       0.08767455       0.15002025
H        6.50081723      21.09201746       4.66394129       0.24815308       0.34589107      -0.18165670
O       -9.60665593      10.91775904      10.38809011      -0.52375507       0.53592760       1.54610517
H      -10.06769247      10.05386942      10.43173864      -0.23905549       0.07850613       0.07660302
H       -9.20123017      11.01266596      11.23454907      -0.32712676      -0.16226969      -0.64709648
O       17.20798679      17.98541458      28.17826051      -0.63718544      -0.67601274      -1.46608163
H       17.29410491      17.08723388      28.18865530       0.33395056       0.44322000      -0.02641308
H       16.42069973      18.16424848      27.64416949       0.06558817      -0.04173094       0.15438983
O        6.71064519      18.43799868      10.89905236       0.17174044      -0.37824222       0.50412879
H        7.28583954      18.87785876      10.16096267       0.16107318      -0.07395826      -0.28858366
H        6.85892409      17.50902903      10.81471527      -0.31450395      -0.10569834      -0.25619363
O        1.05182602     -13.60363832      10.42995591       0.14414846      -0.83917700      -0.32307676
H        0.47469237     -14.33997536      10.51641310      -0.12794738       0.39945767       0.01383716
H        1.91933615     -13.86147056      10.22952866      -0.78202207       0.11601260       0.18212792
O        0.00111207       9.23524980       1.86436270       0.64571488      -1.55984926       1.03228197
H        0.92773653       9.12513365       1.67450977      -0.09757314      -0.19284488       0.13953282
H       -0.18075094       9.90469904       1.06529731      -0.09032946      -0.08125160      -0.24901841
O        0.45200445       0.64403860       7.76373202       1.09773550      -0.52975995       1.66286227
H        0.98347284       0.29063533       7.12987154      -0.00397519       0.12045992      -0.03038501
H        0.53914496       0.19002685       8.62112072       0.19260986       0.15075982      -0.37108795
O      -18.83935068      28.86254342     -15.92081663       0.85866164       0.88207567      -0.82775295
H      -18.07227342      28.70958488     -16.51361189      -0.53799904       0.40170934       0.22989398
H      -18.94322997      28.37877036     -15.10244598       0.11594692       0.07528119       0.01197120
O        4.62152241      26.41841155      -8.28734276       0.52554265      -0.39552155       0.43689612
H        5.32851657      26.62766737      -7.75772709      -0.27408271       0.33560255      -0.17458033
H        3.82559791      26.53917899      -7.67406375      -0.35108721       0.13241966      -0.12153187
O      -18.20717490      21.57201072       1.46854345      -0.92268963      -0.36721233       0.53765946
H      -17.96810948      20.71829779       1.08711772      -0.23860904      -0.21300535       0.03299867
H      -19.09247108      21.94996490       1.48059933       0.01744410      -0.35288818      -0.24488055
O       11.43118836      20.28732977       6.91200789      -0.69091260       0.25382760      -0.14063063
H       11.56897914      21.18610580       6.77032002      -0.01275808      -0.45558259      -0.07105972
H       10.51361244      20.11287495       6.85563719       0.74505077       0.17530681      -0.16193839
O       -9.45788180      -6.81190539       4.29962930      -0.62595977      -0.45913265      -0.50038653
H       -9.20307866      -7.31379588       3.56615709       0.20436153       0.20380539       0.82581198
H      -10.30066325      -6.98886713       4.61274114       0.14220260      -0.25687416       0.12322421
O      -25.45683208       2.08129567      11.26439889      -1.17569030      -1.26472010       0.72297223
H      -25.41050491       1.06658504      11.22339772      -0.21948052      -0.51326120      -0.30517521
H      -24.60683100       2.61525442      10.76771618       0.56521436       0.32281002      -0.26887284
O      -12.45384388      -7.42097846      19.41551489      -0.52216496      -0.86093453       0.20238215
H      -12.25713966      -8.28416166      19.04060230      -0.10607596       0.10759520      -0.24626034
H      -13.03010068      -6.79593748      18.97243319       0.21247961      -0.20497149      -0.30104213
O        8.13108139       8.58316546      17.41485040      -0.81985953       0.93421626      -0.37742895
H        8.94803795       8.03786373      17.61210322      -0.04003098      -0.22542996      -0.04351528
H        8.32467530       8.58745859      16.45684413      -0.21252615       0.00921946      -0.21590282
O      -11.18001122      -0.73320871      18.48690595       0.31172265      -0.19571313       0.45616362
H      -10.67972391      -1.51841504      18.68238786      -0.06686328      -0.01828273       0.02825281
H      -11.80962357      -0.98337588      17.83204421       0.15008578       0.02988723       0.21327255
O       22.67645702       4.00468467      19.07199397      -1.12121233      -0.06569622      -1.35876833
H       22.29916538       3.38472669      18.45105186       0.33685563       0.41919769       0.20259315
H       22.62181090       3.46987572      19.86946849       0.11795450       0.00257088       0.27259616
O       -4.97378761     -18.86822141      -3.74600891       0.18018581       0.42031220      -1.24561635
H       -4.13393685     -18.96165983      -3.33224514      -0.18668296      -0.28317282      -0.25054269
H       -4.83129601     -19.17629557      -4.67155984      -0.09929536      -0.24282166       0.02631943
O       27.62767662     -10.01773768      -7.19961767      -0.35460921       0.99234066       0.89905514
H       28.49152150     -10.01386961      -6.75811859      -0.53607064       0.01601257      -0.60209357
H       27.10108627     -10.59479032      -6.64297473      -0.33460334       0.06107019      -0.35578146
O        6.98054376       0.35516279       5.91600940       0.66418185       0.52063804       0.87368230
H        6.94042446       0.57865185       6.78978861       0.05961249       0.03485212       0.06188867
H        7.26228930      -0.55982228       5.81334642       0.15310554       0.08150376      -0.24139453
O      -18.61102754      -2.02852148      24.54522926       0.70974829      -0.12608376      -0.36843029
H      -18.81631410      -2.33093872      23.67477849       0.07584593       0.16849096       0.40964751
H      -17.86476115      -2.60374727      24.84513481      -0.36094051       0.38965907      -0.13251677
O        4.90658005      -6.74438161      -5.54696410       1.32953004       1.03113555      -0.12592169
H        5.17268650      -6.29849260      -4.75598364      -0.18390232      -0.06129177      -0.31889261
H        5.24406062      -6.40133252      -6.42807554      -0.05999863      -0.15013329       0.40778937
O       12.14777963       9.79167617       6.32419163      -0.34077424       0.37263044       0.41781256
H       11.86157141      10.12305044       7.10836420       0.35547397      -0.73169844      -0.54612974
H       11.94734908      10.37184765       5.61484399       0.27287318      -0.39395405      -0.06973591
O        4.44124178      11.87006620      -5.11672398       0.56655656      -0.27314030      -0.87732332
H        4.05427171      11.46114771      -4.33244846      -0.08838406       0.17918204       0.09894960
H        4.26730675      11.29803389      -5.82625561       0.12990564       0.23714480       0.31558560
O       13.20586578      29.02240081      15.91107775      -0.56424430      -0.27151726       0.32598753
H       13.68001650      28.94707707      16.71619485      -0.19095126       0.05718592      -0.31057955
H       12.33708992      29.37483596      15.95535227       0.04699100      -0.19077803       0.22332613
O       -4.11049056       4.00878422       1.21563925      -0.66525892       1.07872837       0.16864677
H       -4.28841382       4.89913591       1.10394312      -0.01553370      -0.70751170       0.48505376
H       -4.89622536       3.41357494       1.48456508       0.04411528       0.00987193       0.03589028
O        6.56859963     -15.81169064       8.88705686       0.00188738      -0.17597993      -0.78561810
H        5.88725008     -15.16414918       8.69929193      -0.00052865      -0.32648265      -0.06016577
H        6.31956564     -16.71456745       9.00661147       0.25382159      -0.09823885      -0.16274857
O        1.62440516       8.71975835      22.79931322      -1.56789590      -0.04051398      -1.00814262
H        1.51146457       7.94566052      23.35751828      -0.12141647      -0.01098418      -0.01748908
H        1.77004477       8.40411515      21.96089689       0.38457088       0.22062425      -0.10501968
O       22.90309262      22.86596212      -0.31683521      -0.48943093       0.88597845       0.06080403
H       23.38367374      23.69079517      -0.21458674       0.01362168      -0.11340146      -0.07236274
H       22.23461717      22.65672792       0.30428919      -0.30890352      -0.04544183      -0.01915663
O       11.97705535       5.99499221     -16.66770326       0.79357429      -0.08556945       0.27390284
H       11.81108972       5.05216902     -16.59925729       0.07130034       0.19616189      -0.09101472
H       12.01015553       6.29454405     -17.50426286       0.12814454       0.26804225       0.26914662
O       -7.75859404      22.87242864       1.76495945      -0.22172218      -0.62572369       0.43343888
H       -8.59123802      22.38825565       1.71469947       0.02683590       0.06279394       0.08973098
H       -7.68482739      23.11980427       2.75462931      -0.11314856       0.05048701      -0.98496329
O        5.20272962     -15.66734369      17.49715195      -0.21169162       0.31792507      -0.29005447
H        5.82492092     -15.66190366      18.21376205      -0.36760371      -0.33502564      -0.13360622
H        4.96761646     -14.74294592      17.43386757       0.28226588      -0.31554708      -0.35586348
O        1.73062852      18.68483531       0.57841919      -1.61496290      -0.69513292      -0.14800830
H        1.20656115      18.85746520       1.31862143      -0.02191133       0.12017688      -0.16436129
H        1.24615286      18.53071835      -0.17538193       0.54921035       0.12443437       0.36701601
O       -4.69574389      -6.55429303       6.54175517      -1.76926055      -0.49070927      -0.12270133
H       -4.42290412      -7.37735416       6.30209562      -0.06898729       0.01412573       0.28279878
H       -5.55801136      -6.37895585       6.01724544       0.12907317      -0.01124659      -0.02614762
O       -3.53500520       2.27420651       8.47844631      -0.24825204       0.52101593       0.05695532
H       -2.88685511       2.68103328       9.03832370       0.09573198       0.07220972       0.24426680
H       -3.33412023       1.32645432       8.40514383       0.01911788       0.06650336      -0.06826048
O       14.29290730      -6.88815631      -2.46178741       1.08912383      -1.07151430      -0.16377689
H       13.57259404      -7.06905729      -2.99283565       0.12064206      -0.16124335      -0.16440659
H       15.03925761      -7.44219867      -2.64645482      -0.58098269      -0.02369767       0.38346036
O       11.48084645       3.48542987      23.58853134      -0.17301511       0.02579076       0.03493859
H       10.86324933       3.22142604      24.23164879       0.05412959      -0.06106507       0.08620753
H       12.37595849       3.00845624      23.88234097       0.12069881      -0.31520712      -0.11467540
O        8.05472826      13.75723978      25.42301646      -0.72574248      -0.88433509       1.39134157
H        8.90232921      14.12607615      25.56189795      -0.08972480      -0.09135946      -0.31959845
H        8.09037357      12.86107361      25.28872491      -0.17697697       0.50916168       0.13654071
O       -9.15254237       5.80895938      11.49938890      -0.28377845       0.11547371       0.72662842
H       -8.10224349       5.62725803      11.66940718       0.73579225      -0.43211129       0.07403853
H       -9.45908616       6.10771900      12.30209134       0.28254447      -0.00190437      -0.54837978
192
Lattice="13.065611255274536 0.0 0.0 -5.291463306089039e-07 13.065611255274536 0.0 -5.291463306089039e-07 -5.291463306089039e-07 13.065611255274536" Properties=species:S:1:pos:R:3:momenta:R:3 step=40 time_fs=4.0 phase=equilibration pbc="T T T"
O       12.67378447      -2.82229996     -15.45321067       1.26771901      -0.04995259       0.10954872
H       12.01879337      -2.61009578     -16.11274864       0.13146102       0.38972955      -0.08742768
H       13.28732114      -3.36497464     -15.91837913       0.11163722      -0.04484601       0.31288568
O       25.27382345      24.42769634       0.35950103       0.17997626       0.02672334       0.34009221
H       25.37140547      25.38575421       0.83439109       0.14170866       0.17224764       0.07567100
H       25.36968528      24.60177737      -0.50467946       0.09564677       0.08505237       0.59179509
O        5.36788832       1.51185827       8.10604341       0.20595949      -0.37540310      -1.67138806
H        5.87044349       1.94582440       8.78811372       0.05377505      -0.06626192      -0.16090999
H        4.91717101       0.79735198       8.42957941       0.48523797      -0.35059769       0.16340284
O       -2.93835236      -5.68311057      -2.03652657      -0.44459484       0.22371340       1.25203389
H       -2.13828131      -6.02141420      -2.41219431       0.03718339       0.66683692      -0.19115191
H       -3.00815313      -4.85805155      -1.70120543       0.10321440       0.17702945      -0.19513820
O        3.40072115      16.28066405      10.68211066       0.55206471       0.79351136      -0.83831073
H        3.91349598      17.09500386      10.82468514       0.15027273       0.24290852       0.31459144
H        3.28731840      16.42094980       9.73491666      -0.43829779      -0.09833274       0.03345414
O       -1.98788820       4.38169837       2.95795010      -0.47905892      -0.75828621       0.08661077
H       -2.40451980       4.56285876       3.74489618      -0.43741987      -0.07019352       0.18331615
H       -2.62120960       4.30448916       2.31680652       0.34316462      -0.04183372       0.09692593
O       23.88358420      13.33858805       7.31456270      -0.14007481       0.32738279       0.11953178
H       24.75004651      13.65857894       7.35683863       0.08486849      -0.26178669      -0.21354317
H       23.51527033      13.37839143       6.35437149       0.17002624      -0.17889525      -0.02161509
O       -0.67458057     -14.98887373       3.91295004      -1.27915689      -0.24136213      -0.59371090
H       -0.62115668     -15.61246468       3.24824636      -0.04141306       0.00470149       0.16670360
H       -1.34456747     -14.40180329       3.58848688      -0.12315970       0.33558661       0.32519763
O       18.42931113     -18.39049826       9.85733232       0.33073516      -0.56749526      -0.14873972
H       19.42976723     -18.62680966       9.95055064       0.19536985      -0.18016956       0.06277766
H       17.79123077     -18.87504953      10.38142303      -0.06925920       0.00095408       0.02970100
O        4.85000583     -14.18855333     -13.58158686       0.58892947      -0.64489467      -0.48594435
H        5.77524980     -14.28896265     -13.64317622       0.20744628       0.58414590       0.14299713
H        4.60803827     -14.82579295     -12.97650717      -0.00680729       0.37131933      -0.13641218
O       -4.80981317       2.21209714       4.32999442      -0.06152277       0.83131237       0.36802836
H       -4.85555748       2.08189056       3.40040517       0.07822591       0.02339879      -0.06311724
H       -5.61833147       1.80836272       4.82508047      -0.12364639       0.18591953       0.04066657
O       -5.85545589      15.25416585      27.73228895      -0.80656408       0.41496042      -1.05227944
H       -6.82723553      15.10648028      27.88936345       0.80010219       0.42698940      -0.43075145
H       -5.51772080      14.86268305      26.97526450       0.05442562      -0.05986113       0.30421151
O        7.46671720     -15.55737383      -6.89295440       1.28439780       0.53924534       1.25393226
H        7.87781058     -16.37260500      -7.13677402       0.09008354       0.20754110       0.18473617
H        7.11769873     -15.79376021      -5.86164816      -0.24414393       0.30505257       0.52055845
O       15.42555769       7.48570466      20.54273895       0.51454110      -0.39928273       0.33921488
H       14.75019314       6.94943608      20.08505149      -0.00797074       0.07092584       0.13373883
H       16.21741702       6.93629192      20.49519485      -0.12616360       0.52837672       0.18228858
O       -0.25905451       1.03064045       0.96685780      -0.06056055       1.37172590       0.74792807
H        0.03794392       1.27151635       1.85132253      -0.26063220      -0.15237736       0.25756351
H        0.39815973       1.46337770       0.41660679      -0.06369815      -0.08003866      -0.46687851
O      -16.15002179      12.56295033      17.74203075       0.53018210       0.31017459       0.31381757
H      -16.62034462      13.16464134      17.25685316       0.05926627       0.03713665      -0.48279998
H      -16.73797818      12.04650451      18.15439040       0.01247273      -0.17539005      -0.00035373
O      -17.83210838       6.27236798      12.99885475       0.96778859       0.24720786      -1.40563194
H      -18.47957992       5.86446698      12.38371108       0.48215686       0.02099785       0.73700968
H      -17.10615017       6.46327381      12.37041504       0.21359985       0.54052873       0.15122115
O       -9.98508146      34.26588679     -11.48606970      -0.27927291      -0.14582516      -0.20630209
H       -9.62664101      33.89266504     -10.72302183       0.18051080      -0.04233442      -0.09624577
H      -10.11474463      33.34631129     -11.77413007      -0.09157014       0.25244733       0.15647059
O       36.53270131      10.89414010      21.79270331       1.15567754      -0.15499314      -0.78160853
H       36.77290645      11.68494399      21.38406689       0.10657587       0.05583373      -0.31916619
H       35.62448631      10.82566210      21.94528988      -0.26697177       0.01157591       0.25389193
O       30.54691071     -10.99998807       2.38483988      -0.30940870       0.03539628      -0.91964996
H       30.57370198     -11.56377962       3.12880857      -0.02563489       0.06384325       0.30453860
H       29.92748527     -11.44890951       1.86430511       0.31065703       0.43518061      -0.07424303
O       16.37656360       9.77736964      -6.88183618      -0.00915034      -1.07898461      -0.47561470
H       16.89422415       9.71180741      -7.71221853      -0.31372671       0.20516473      -0.23077798
H       16.11980753       8.93015013      -6.53641304      -0.33090338       0.03118612       0.05049571
O       -9.29597467       3.51280261      33.45413487       0.71918419      -0.78235118       0.20316669
H       -8.98977457       4.46070307      33.52061182       0.11780258       0.00544993       0.04166740
H       -8.62506927       2.96166292      33.79046428       0.23030559      -0.11375625       0.21198519
O        3.21405298       1.15119134       0.08301675       1.73519308       0.52756278       0.13871333
H        3.09890453       1.89782376      -0.42146528       0.10774877       0.07550558       0.00912102
H        3.79104838       0.48407449      -0.18433386      -0.18197965       0.08751376       0.01318279
O       23.48931020       1.95332316      12.98766909      -0.41708800       0.21971825       0.21068747
H       23.21099715       2.66358725      13.61441650       0.12586217      -0.00729121      -0.03979054
H       24.33353854       1.57394297      13.37971208      -0.16150709      -0.23589484      -0.16894363
O        0.10005334      32.50502611      15.61756516      -0.63490932       0.29588637       1.61672300
H       -0.74840641      31.97650794      15.47304187       0.30324379      -0.23251165       0.01394335
H       -0.17458357      33.37014401      15.54090003       0.15612455       0.02381684      -0.29125481
O        6.03670540      20.25362198       5.03455994      -0.67123094      -0.33735920       0.25059537
H        5.33870160      19.98867139       4.49787838       0.34213638       0.06469198       0.12427797
H        6.51748089      21.11021560       4.65139436       0.09410668       0.03303351      -0.07285779
O       -9.61027068      10.92049931      10.39658258      -0.73909286       0.41192883       1.21706888
H      -10.08850925      10.06414442      10.43709371      -0.19374422       0.13306530       0.03453472
H       -9.22460023      10.99958266      11.18596943      -0.12142658      -0.09304908      -0.27999806
O       17.20347144      17.98251292      28.16868965      -0.72014185      -0.15510699      -1.47488323
H       17.33235533      17.10301486      28.18841881       0.46259348      -0.12828772       0.03096331
H       16.42582753      18.16036245      27.65904362       0.02133316      -0.02678749       0.14407867
O        6.71204327      18.43576576      10.90148502       0.32107867      -0.26056411       0.34923488
H        7.29537204      18.86585076      10.14071969       0.03685663      -0.16544019      -0.12321492
H        6.82815539      17.49368775      10.78806635      -0.31558765      -0.18675093      -0.28475810
O        1.05196848     -13.60736837      10.42791956      -0.15069204      -0.41252365      -0.26791674
H        0.45297266     -14.31163486      10.51905274      -0.33798822       0.15847038       0.04904585
H        1.86322791     -13.85643655      10.24345199      -0.28734702      -0.04151237       0.09005140
O        0.00491336       9.22629067       1.86986677       0.57942793      -1.30774889       0.77457166
H        0.92225832       9.10453770       1.68984083      -0.00305345      -0.22691786       0.17281228
H       -0.18942127       9.88806057       1.05188328      -0.08616615      -0.25423751      -0.02557069
O        0.45784812       0.64122964       7.77464700       0.81822162      -0.36152855       1.86099361
H        0.99496066       0.29410604       7.11188669       0.22407511      -0.03866731      -0.31951366
H        0.55873461       0.20492451       8.58691610       0.21492961       0.12547247      -0.27256929
O      -18.83395337      28.86778643     -15.92574328       0.73071951       0.99927482      -0.82171542
H      -18.12092560      28.74484095     -16.49102767      -0.40858655       0.32160558       0.18468046
H      -18.92778156      28.38424653     -15.10239872       0.19627143       0.04629250      -0.01854354
O        4.62300781      26.41530656      -8.28443985      -0.02251087      -0.46985068       0.45971674
H        5.31826983      26.66482820      -7.76474188       0.06715492       0.43954722       0.03074056
H        3.80160848      26.54965785      -7.69666472      -0.13326521       0.09047592      -0.34471055
O      -18.21225334      21.56943532       1.47176867      -0.81888706      -0.36860912       0.51936948
H      -17.99451917      20.70020005       1.08950234      -0.31140556      -0.14413095       0.02489092
H      -19.09115720      21.91394307       1.45411983      -0.01191881      -0.37231481      -0.29685856
O       11.42765976      20.28776332       6.91126971      -0.32028233      -0.01375738      -0.04984706
H       11.57319374      21.16121901       6.76050880       0.11025938      -0.01493431      -0.13199131
H       10.56806566      20.12428689       6.83842192       0.29364566       0.04925009      -0.19553025
O       -9.46080238      -6.81356318       4.29708520      -0.39500339      -0.10319511      -0.28802507
H       -9.17739133      -7.30662142       3.62987276       0.33213124      -0.07797892       0.45957321
H      -10.30497657      -7.01905344       4.63142477      -0.23216840      -0.36494477       0.26537482
O      -25.46301387       2.07281514      11.26841283      -0.94959076      -1.46919848       0.62937699
H      -25.43126395       1.03407868      11.19079370      -0.21345154      -0.14182172      -0.35657120
H      -24.55889272       2.64025675      10.74652697       0.37727538       0.16316755      -0.14051899
O      -12.45675816      -7.42609472      19.41682596      -0.49304128      -0.84907014       0.33271919
H      -12.26739952      -8.27335712      19.01283930      -0.10652973       0.10834108      -0.31373171
H      -13.00947575      -6.81788684      18.94011833       0.20191236      -0.24189236      -0.35632650
O        8.12687109       8.58830069      17.41186116      -0.50305655       0.78297871      -0.50984317
H        8.93429735       8.02196288      17.60962770      -0.24071201      -0.09405516      -0.00265975
H        8.29953157       8.59140820      16.43681991      -0.30108658       0.07488928      -0.17807126
O      -11.17763224      -0.73407534      18.48969469       0.41223802      -0.08755063       0.56813400
H      -10.68416078      -1.52482213      18.68647183      -0.02753351      -0.11277025       0.06261257
H      -11.80185893      -0.98199042      17.84676816      -0.00745640      -0.00603706       0.08314797
O       22.66928740       4.00451613      19.06388343      -1.06380700       0.05889605      -1.10984564
H       22.32636165       3.41931103      18.46089930       0.20570280       0.25093500      -0.03259123
H       22.63349954       3.47308520      19.89632870       0.12940632       0.07314498       0.26729071
O       -4.97296842     -18.86543614      -3.75424962       0.04573183       0.38409700      -1.45881244
H       -4.14343632     -18.98835078      -3.34927394       0.00324615      -0.27309592      -0.09338544
H       -4.84365410     -19.19835705      -4.66587720      -0.15553897      -0.21826317       0.07922637
O       27.62471884     -10.01139201      -7.19393216      -0.53091609       1.02541923       0.86491920
H       28.44531242     -10.01070963      -6.81548601      -0.31890510       0.04546159      -0.53622101
H       27.06648690     -10.58827555      -6.67888427      -0.36965462       0.06205629      -0.37550817
O        6.98448344       0.35818229       5.92003589       0.65772782       0.46928564       0.49477040
H        6.94450002       0.58644700       6.81447245       0.02871110       0.11469648       0.41795200
H        7.27801178      -0.55357453       5.79158965       0.16969418       0.05364178      -0.19898788
O      -18.60595371      -2.02916158      24.54299493       0.80112855      -0.03827756      -0.18861462
H      -18.81185523      -2.31510140      23.70523159      -0.00716815       0.13841103       0.16624102
H      -17.89955430      -2.56433137      24.83566702      -0.30707311       0.37972984      -0.02886937
O        4.91444386      -6.73794927      -5.54846915       1.23198566       0.98981371      -0.38644790
H        5.15674733      -6.30014255      -4.78171020      -0.13008651       0.04674417      -0.17464082
H        5.23723698      -6.41744052      -6.38181141      -0.06241723      -0.16615366       0.49769483
O       12.14613765       9.79256011       6.32545152      -0.09833064      -0.06172688      -0.02851863
H       11.88579406      10.06276601       7.08632892       0.12086081      -0.47945058       0.16734524
H       11.97322330      10.33947550       5.59576810       0.25869118      -0.25524572      -0.33371911
O        4.44491353      11.86862102      -5.12113973       0.65768349      -0.11516958      -0.56106060
H        4.04432044      11.48002077      -4.32237292      -0.11046409       0.21488681       0.09968949
H        4.27575634      11.31087700      -5.80810186       0.03930240       0.01196379       0.03161620
O       13.20240355      29.01990768      15.91186174      -0.50140464      -0.37601617      -0.00573981
H       13.66618079      28.95122022      16.69657893      -0.06965056       0.03420824      -0.05974494
H       12.33305489      29.36028324      15.98049351      -0.13393187      -0.09563705       0.29572284
O       -4.11461615       4.01345123       1.21698717      -0.67958482       0.39463033       0.28107834
H       -4.29547891       4.85001334       1.14959942      -0.14819597      -0.21406790       0.44454950
H       -4.87962681       3.42714704       1.48483559       0.28556015       0.25964933      -0.02878375
O        6.56891320     -15.81240314       8.88186372       0.14876540      -0.16176161      -0.84561227
H        5.88347961     -15.19662034       8.69177487      -0.09024737      -0.33086382      -0.09479982
H        6.34123847     -16.72597328       8.99053016       0.19437439      -0.13877405      -0.16355166
O        1.61457387       8.71946177      22.79377706      -1.62191402      -0.02133026      -0.69340950
H        1.49896347       7.94562576      23.35642066      -0.13285419       0.01743094      -0.00572118
H        1.81109852       8.42153376      21.93256766       0.45253866       0.14970615      -0.43135933
O       22.89969674      22.87101266      -0.31683795      -0.51651277       0.86635801      -0.04723832
H       23.38300326      23.67750245      -0.21914502      -0.01213077      -0.13599905      -0.01813638
H       22.20089855      22.65023373       0.30880428      -0.35247301      -0.07029593       0.09242914
O       11.98170354       5.99420671     -16.66402886       0.78934918      -0.11913451       0.81477402
H       11.81690063       5.06524426     -16.60773719       0.04872785       0.05938423      -0.09061049
H       12.02331994       6.32887923     -17.50427262       0.14669967       0.43440738      -0.26030499
O       -7.75978731      22.86815895       1.76802183      -0.20625726      -0.65463967       0.48196729
H       -8.59055061      22.39222627       1.72202387      -0.03076882       0.01728231       0.05762570
H       -7.69646437      23.12489155       2.65240176      -0.11819469       0.09092588      -1.01263047
O        5.20100825     -15.66533068      17.49493935      -0.32697549       0.21414539      -0.35181184
H        5.79834771     -15.69715068      18.20678264      -0.16156877      -0.39473709       0.01556353
H        4.99230199     -14.76664206      17.39520649       0.21831108      -0.14007491      -0.43433771
O        1.72224843      18.68013731       0.57786760      -1.09162637      -0.72215509       0.02344862
H        1.19066284      18.87225156       1.31667186      -0.29436517       0.18832531       0.11423587
H        1.28505533      18.53970454      -0.15915038       0.23033316       0.05976819      -0.07548646
O       -4.70755801      -6.55591631       6.54089291      -2.08875011      -0.09231632      -0.12061657
H       -4.42177930      -7.39685555       6.32505443       0.08500287      -0.40149872       0.19632515
H       -5.53835271      -6.38180997       6.01979267       0.26243251      -0.04827313       0.07510042
O       -3.53668674       2.27720808       8.47893298      -0.30224191       0.48721894       0.15848729
H       -2.87845481       2.68651171       9.06144269       0.05847705       0.03033144       0.21580646
H       -3.33194195       1.33858914       8.39777038       0.02587125       0.18057396      -0.08117625
O       14.29957426      -6.89396344      -2.46220063       1.09691124      -0.82594428       0.01167936
H       13.57184787      -7.08754176      -3.01660885      -0.11461587      -0.21378762      -0.31167270
H       14.99060139      -7.45126762      -2.61096454      -0.36093055      -0.20262803       0.33524377
O       11.48068484       3.48530552      23.58817554       0.17042394      -0.05353552      -0.00445093
H       10.86266191       3.21391458      24.24698471      -0.04624308      -0.08637185       0.22310178
H       12.37696537       2.98440714      23.86516449      -0.10033700      -0.17593711      -0.22738516
O        8.04946883      13.75288602      25.43128024      -0.93864702      -0.42528415       1.44979170
H        8.90561059      14.12242238      25.53284550       0.15766538       0.02142631      -0.26875272
H        8.07261085      12.88413516      25.29824363      -0.18592813      -0.06270928       0.06270821
O       -9.15284748       5.80891925      11.50239792       0.14406559      -0.11556782       0.26997774
H       -8.04023589       5.58647694      11.67370294       0.53346338      -0.39981397       0.02094506
H       -9.43818385       6.11591304      12.26824050       0.13219948       0.18947638      -0.09612746
192
Lattice="13.06550903779308 0.0 0.0 -5.291421908863774e-07 13.06550903779308 0.0 -5.291421908863774e-07 -5.291421908863774e-07 13.06550903779308" Properties=species:S:1:pos:R:3:momenta:R:3 step=50 time_fs=5.0 phase=equilibration pbc="T T T"
O       12.68123063      -2.82228044     -15.45241833       1.17681024       0.05522306       0.10003222
H       12.02885832      -2.57222766     -16.12162298       0.09233985       0.37867190      -0.08708731
H       13.30318168      -3.37573203     -15.88998681       0.21102221      -0.17453313       0.26464839
O       25.27450282      24.42810288       0.36390089       0.10169795       0.15984717       1.11770706
H       25.38447179      25.39150620       0.83751910       0.13005351      -0.04896117      -0.00687549
H       25.38362602      24.61403132      -0.48003156       0.19946589       0.17421677      -0.11242612
O        5.36953383       1.51042379       8.09497219       0.32326521      -0.12312889      -1.89007872
H        5.87936701       1.94084030       8.77655948       0.12723118      -0.03906512      -0.08059531
H        4.95512285       0.74709196       8.45314217       0.31906560      -0.64602493       0.30400577
O       -2.94159611      -5.68309431      -2.02908164      -0.61124689      -0.20633248       1.17349191
H       -2.12738379      -5.95572775      -2.43475802       0.18003605       0.67677101      -0.26947289
H       -2.99645535      -4.81811546      -1.71375400       0.13441972       0.61542882      -0.07189705
O        3.40411240      16.28601201      10.67661075       0.56699599       1.00353321      -0.91746691
H        3.92524306      17.11335055      10.85973244       0.07830906       0.11615141       0.39336072
H        3.24322851      16.40628397       9.73727755      -0.45929381      -0.19343961       0.01870630
O       -1.98927490       4.37706065       2.95871245      -0.02041930      -0.72700900       0.22898033
H       -2.45455630       4.55805915       3.77959606      -0.55436312      -0.04131609       0.46165452
H       -2.60569359       4.29778258       2.30573707      -0.01705397      -0.09292325      -0.31668556
O       23.88158481      13.34035138       7.31459722      -0.43376808       0.28565201      -0.08534027
H       24.76972206      13.63569937       7.33521841       0.31104649      -0.21053860      -0.22847690
H       23.53719362      13.35813841       6.36158508       0.28061538      -0.23390867       0.16630827
O       -0.68245169     -14.98953307       3.91010165      -1.29915212      -0.00507358      -0.33513269
H       -0.62211167     -15.62795448       3.25136758       0.01812439      -0.31496555      -0.09655579
H       -1.36001017     -14.36589276       3.62243573      -0.17722655       0.38116393       0.37579021
O       18.43193497     -18.39401117       9.85612311       0.56773464      -0.62904629      -0.21461660
H       19.43526111     -18.64116327       9.95584629      -0.07987287      -0.11702995       0.04642777
H       17.78512675     -18.87446898      10.38563029      -0.04845457       0.01186679       0.05376710
O        4.85342484     -14.19156192     -13.58533618       0.57233216      -0.36557320      -0.78224583
H        5.80581493     -14.23091228     -13.63126174       0.38327567       0.60527008       0.10399574
H        4.59968025     -14.80532668     -12.97360382      -0.16246514       0.04088893       0.20005692
O       -4.81073010       2.21691024       4.33309902      -0.24867056       0.74276110       0.63614246
H       -4.84904101       2.08289693       3.39030627       0.05429747      -0.00020624      -0.12740810
H       -5.61855534       1.83146453       4.82135104       0.11611497       0.28589634      -0.11491185
O       -5.86090248      15.25687307      27.72672214      -0.88212637       0.52749753      -0.70149824
H       -6.75056015      15.14894358      27.84572202       0.66836788       0.43476365      -0.44230288
H       -5.50662847      14.84590425      26.98670116       0.18262756      -0.28493024      -0.07237226
O        7.47417071     -15.55376962      -6.88450679       1.15411253       0.61171173       1.48390719
H        7.88836667     -16.35579662      -7.12073820       0.13269582       0.12110392       0.14238611
H        7.09703041     -15.76182357      -5.81975062      -0.17214762       0.34417821       0.32534592
O       15.42820946       7.48316896      20.54440439       0.35915491      -0.37367277       0.26294325
H       14.74976229       6.95928141      20.09991194      -0.00764688       0.12265178       0.16812070
H       16.21287660       6.98574270      20.51433196       0.07429367       0.46123155       0.21135828
O       -0.25929542       1.03907057       0.97152612      -0.00816063       1.38422315       0.76521328
H        0.01039269       1.25764091       1.87620645      -0.30054262      -0.12972389       0.23833886
H        0.39193488       1.45471702       0.37042440      -0.08026298      -0.10700839      -0.45397728
O      -16.14500673      12.56516300      17.74381284       0.99056739       0.44740036       0.30742436
H      -16.62118682      13.18035023      17.19969913      -0.04879746       0.24041169      -0.65001899
H      -16.75499795      12.01087456      18.16540223      -0.32302482      -0.51219676       0.19531070
O      -17.82574337       6.27392181      12.98979398       1.13027438       0.32039452      -1.44508453
H      -18.43611861       5.86521257      12.45639103       0.34054591      -0.04810455       0.69303174
H      -17.08715966       6.51691773      12.39125893       0.17202515       0.55882954       0.27312297
O       -9.98681478      34.26477425     -11.48786262      -0.29651359      -0.08262207      -0.37415652
H       -9.60522624      33.88427472     -10.72318248       0.25001218      -0.11712506       0.07410852
H      -10.12258924      33.37870486     -11.75729032      -0.07805280       0.36172086       0.17098180
O       36.53994770      10.89238035      21.78792515       1.24526299      -0.35171558      -0.72909687
H       36.78504211      11.70254405      21.34776821       0.13062669       0.26120637      -0.39774904
H       35.58989789      10.82602868      21.97094443      -0.36660440       0.00537232       0.26245681
O       30.54549762     -10.99899367       2.37946192      -0.05697901       0.24650759      -0.77442648
H       30.57242526     -11.56104210       3.16653502       0.00150658       0.01563772       0.43277808
H       29.94510150     -11.41430214       1.84184505       0.04047541       0.26193382      -0.39975496
O       16.37668086       9.77073038      -6.88512988       0.08260432      -1.06002808      -0.60668606
H       16.86062100       9.73147182      -7.72749548      -0.36835590       0.19696871      -0.08915982
H       16.08690465       8.93209118      -6.53133044      -0.33857150       0.01383789       0.04920040
O       -9.29153532       3.50893083      33.45508564       0.73359182      -0.49719134       0.20741251
H       -8.98186095       4.45095380      33.52273156       0.04289744      -0.20558123       0.00725780
H       -8.59890060       2.94614401      33.81182019       0.27175334      -0.17406031       0.21301964
O        3.22419493       1.15419823       0.08519430       1.57231703       0.48378119       0.55426265
H        3.10908524       1.91889095      -0.43278271       0.10614215       0.33073992      -0.22455495
H        3.78309925       0.48280005      -0.18982193       0.02032413      -0.11657087      -0.12719449
O       23.48696095       1.95469273      12.98942066      -0.29713513       0.22438416       0.37614574
H       23.22462644       2.65885991      13.60561577       0.15249725      -0.07776749      -0.12777361
H       24.30762069       1.55495630      13.35875268      -0.35111908      -0.15939665      -0.25160410
O        0.09567766      32.50515300      15.62738878      -0.78136162      -0.13667597       1.62539513
H       -0.70766292      31.95920850      15.47639299       0.51380860      -0.12423644       0.05631879
H       -0.16367917      33.38992140      15.51060393       0.07316629       0.35780577      -0.32642162
O        6.03358239      20.25250965       5.03637377      -0.31104397       0.03474389       0.36875793
H        5.36253239      19.99057058       4.50280650       0.12227781      -0.03328471      -0.03869892
H        6.51881635      21.09798852       4.64972872      -0.06576226      -0.27905997       0.03981643
O       -9.61566539      10.92253782      10.40241861      -1.04135819       0.28694056       0.70916360
H      -10.10552349      10.07893250      10.43796769      -0.15939311       0.16724231      -0.01432998
H       -9.22124587      10.99511549      11.18576946       0.18992446       0.00263079       0.27858968
O       17.19897172      17.98272647      28.15963267      -0.67997427       0.20656255      -1.39390217
H       17.38334532      17.06700241      28.19349068       0.57393532      -0.54138528       0.07283636
H       16.42062016      18.15897959      27.66897062      -0.13518061      -0.00097677       0.05781188
O        6.71441607      18.43411448      10.90304653       0.46845057      -0.24873673       0.18326735
H        7.29285021      18.84534704      10.13688772      -0.08771388      -0.25095167       0.04777950
H        6.79710540      17.47599597      10.75973027      -0.32088717      -0.15448725      -0.29043713
O        1.04946088     -13.60830725      10.42649704      -0.66384041       0.03965575      -0.17132238
H        0.40977502     -14.30704308      10.52577943      -0.51966284      -0.03705331       0.08628901
H        1.87036413     -13.87160710      10.24535645       0.40598617      -0.26703505      -0.04319321
O        0.00814976       9.21895761       1.87384439       0.47611411      -1.05733489       0.52628717
H        0.92785833       9.08083116       1.70782404       0.11350573      -0.25588930       0.19626426
H       -0.19726683       9.85521782       1.06045531      -0.07408664      -0.41604078       0.20197977
O        0.46231973       0.63963839       7.78544257       0.67249909      -0.16741483       1.60858487
H        1.02143919       0.28673591       7.07440050       0.28194172      -0.08873224      -0.39937649
H        0.58215952       0.21020988       8.57573161       0.27113968      -0.02749109       0.06262895
O      -18.83053663      28.87417789     -15.93002748       0.30770279       1.15829078      -0.59246523
H      -18.14248127      28.77038352     -16.48408339      -0.01210889       0.20583103      -0.06394384
H      -18.90446555      28.38714202     -15.10570981       0.27842892       0.01847236      -0.05136296
O        4.62134633      26.41201579      -8.28143620      -0.46288844      -0.52534163       0.50855816
H        5.33789358      26.71196037      -7.75350660       0.29834122       0.52027297       0.17515944
H        3.79973728      26.55621010      -7.73993700       0.08906306       0.05060214      -0.53286046
O      -18.21662705      21.56679345       1.47486240      -0.64545249      -0.44329141       0.49129281
H      -18.02831918      20.69046891       1.09282411      -0.38240508      -0.05167611       0.04438370
H      -19.09686238      21.87806991       1.42290504      -0.11781168      -0.35510652      -0.34260180
O       11.42738877      20.28669992       6.91129142       0.25500598      -0.25354386       0.07235083
H       11.59034902      21.18318689       6.74446655       0.23725715       0.43719438      -0.19096452
H       10.56362717      20.12071421       6.81639320      -0.36980313      -0.11521312      -0.25721541
O       -9.46310994      -6.81306223       4.29620919      -0.44925928       0.22996431       0.03384517
H       -9.13751880      -7.32974468       3.65534098       0.48031931      -0.39332725       0.07635058
H      -10.33582751      -7.05770879       4.66074581      -0.32441994      -0.41179376       0.30433513
O      -25.46757642       2.06350802      11.27170425      -0.58228334      -1.53469800       0.46449963
H      -25.45105285       1.03866177      11.15374864      -0.19434862       0.22959873      -0.40286324
H      -24.53775853       2.64266377      10.74302400       0.03080802      -0.12843440       0.07994410
O      -12.45955495      -7.43124790      19.41907227      -0.44920101      -0.85129747       0.44171077
H      -12.27725430      -8.26310463      18.97982778      -0.09614681       0.10090853      -0.35481131
H      -12.99112248      -6.84188451      18.90252749       0.17048899      -0.24750550      -0.41038490
O        8.12463788       8.59258596      17.40806212      -0.21803558       0.64327347      -0.68782010
H        8.90178991       8.01916827      17.61100083      -0.41281648       0.03112415       0.03414355
H        8.26606114       8.60171762      16.42333371      -0.38151693       0.13670356      -0.09148463
O      -11.17461425      -0.73434720      18.49344632       0.53858434      -0.01846105       0.69330594
H      -10.68554332      -1.53899347      18.69384803      -0.00963969      -0.16629762       0.08862806
H      -11.81094648      -0.98450703      17.84766180      -0.16974535      -0.04129743      -0.05122285
O       22.66296597       4.00543522      19.05838265      -0.93778690       0.24663009      -0.61881860
H       22.33656865       3.42949272      18.44058618       0.00835689      -0.04271365      -0.38001503
H       22.64637904       3.48473230      19.91885775       0.13782954       0.16830414       0.18932387
O       -4.97308231     -18.86301196      -3.76369534      -0.07963104       0.35727570      -1.60852210
H       -4.13383830     -19.01440825      -3.35062717       0.17357771      -0.26246844       0.05524309
H       -4.86121490     -19.21876070      -4.65787793      -0.20365549      -0.20601971       0.07501086
O       27.61984031     -10.00483045      -7.18917518      -1.00893754       1.09023424       0.65589302
H       28.43894852     -10.00506070      -6.85756634       0.21064012       0.06556171      -0.31985846
H       27.02831867     -10.58327137      -6.71481496      -0.40485013       0.03764959      -0.35894930
O        6.98844557       0.36099371       5.92246855       0.65128722       0.45470853       0.36688490
H        6.94637256       0.59808481       6.86160584       0.01320842       0.10826074       0.49265644
H        7.29452530      -0.54759192       5.77524254       0.16690558       0.07761653      -0.13216858
O      -18.60119137      -2.02839726      24.54244893       0.67460107       0.30116866       0.06001103
H      -18.81888892      -2.30574375      23.70046817      -0.13845998       0.05482752      -0.25652683
H      -17.91542221      -2.53612664      24.84264141       0.00435892       0.17994754       0.18633178
O        4.92128373      -6.73242098      -5.55117494       0.99079742       0.77535216      -0.46596596
H        5.14818657      -6.28689256      -4.78560038      -0.04501626       0.22685904       0.10100447
H        5.23550367      -6.42986250      -6.34123581       0.04604356      -0.07271857       0.28363661
O       12.14625739       9.79074886       6.32356821       0.14154804      -0.46598612      -0.52794946
H       11.88484879      10.02899477       7.14050225      -0.11414620      -0.23351934       0.86743501
H       11.99762744      10.32118102       5.55178834       0.24772673      -0.13468328      -0.53118952
O        4.44919346      11.86837663      -5.12336012       0.74262034       0.05413533      -0.18361877
H        4.03335581      11.50305780      -4.31424690      -0.11088049       0.26030923       0.05902567
H        4.27459930      11.29933353      -5.82067110      -0.05936807      -0.23626326      -0.27469260
O       13.19916971      29.01712641      15.91055283      -0.53716744      -0.44726433      -0.36379369
H       13.66731126      28.95271924      16.70550120       0.08828400       0.00194146       0.23233170
H       12.31265192      29.35439139      16.01206871      -0.25607991      -0.03180095       0.35144087
O       -4.11839269       4.01335887       1.21895697      -0.52555554      -0.35060158       0.34205445
H       -4.31873715       4.86499260       1.19011898      -0.32399206       0.49908076       0.39208048
H       -4.84520986       3.45920965       1.48019008       0.37358060       0.35383153      -0.05097466
O        6.57032281     -15.81347046       8.87657775       0.32441720      -0.23843461      -0.84422388
H        5.86744149     -15.22638460       8.68018995      -0.24210664      -0.27897019      -0.14138638
H        6.35769716     -16.73989327       8.97453952       0.14728757      -0.14001352      -0.16314638
O        1.60456797       8.71904864      22.78971577      -1.61914783      -0.10940190      -0.61973424
H        1.48586159       7.94946958      23.35406772      -0.13471588       0.06280254      -0.04573040
H        1.85580194       8.43584728      21.88675618       0.44900652       0.16050698      -0.44628491
O       22.89584036      22.87577677      -0.31721281      -0.70598892       0.72600194      -0.06160972
H       23.38225203      23.66648733      -0.21764672       0.00833708      -0.07389741       0.05047255
H       22.16954830      22.64397708       0.31887894      -0.26891061      -0.04891215       0.09929696
O       11.98642960       5.99359012     -16.65785636       0.77790643      -0.04347507       1.07097050
H       11.81983305       5.06383595     -16.61713692       0.01149730      -0.07619873      -0.10803418
H       12.03780108       6.37545141     -17.54514699       0.14540651       0.48944508      -0.49983606
O       -7.76098380      22.86346761       1.76964046      -0.21310935      -0.84450412      -0.01815904
H       -8.59818895      22.39018615       1.72546328      -0.12470971      -0.05504546       0.01209496
H       -7.70570085      23.14346800       2.57721433      -0.06521888       0.32237565      -0.45744996
O        5.19858787     -15.66454922      17.49232873      -0.44082094       0.00026902      -0.44680304
H        5.79332687     -15.73807635      18.21692166       0.04598511      -0.44185132       0.18212250
H        5.00986149     -14.76668577      17.34877190       0.14908287       0.13091060      -0.51167155
O        1.71697679      18.67560309       0.57921791      -0.66441183      -0.70139135       0.43617099
H        1.15377947      18.89208772       1.33429755      -0.43080040       0.20900466       0.20053497
H        1.29051271      18.54181554      -0.19216387      -0.10182071      -0.00697679      -0.57541441
O       -4.72084911      -6.55578819       6.54013673      -2.20001606       0.05308883      -0.10212708
H       -4.40912534      -7.44763113       6.34223692       0.15149175      -0.58222785       0.17060568
H       -5.51042290      -6.38772211       6.02947187       0.27962140      -0.06966890       0.10507893
O       -3.53847314       2.28036278       8.48019900      -0.28505131       0.56565856       0.27568880
H       -2.87742925       2.68574236       9.07775385      -0.04138125      -0.04625326       0.11512525
H       -3.32844844       1.35980948       8.38877615       0.04886738       0.23886235      -0.10373580
O       14.30532507      -6.89796681      -2.46186274       0.77431024      -0.50195505       0.05761554
H       13.55731482      -7.10855684      -3.04811817      -0.13053594      -0.20786868      -0.29965802
H       14.97338895      -7.48550770      -2.58159794       0.00923684      -0.50280126       0.26893123
O       11.48241415       3.48457221      23.58812038       0.40059026      -0.18642811       0.06751421
H       10.85793430       3.20606204      24.27050824      -0.02767761      -0.06568770       0.23967328
H       12.35587793       2.97400283      23.83751193      -0.32998416      -0.03728424      -0.33761735
O        8.04325309      13.75171783      25.44021443      -1.03312623       0.05290311       1.52296193
H        8.92873409      14.12798851      25.50830945       0.28335997       0.07677917      -0.23476121
H        8.05374551      12.84943748      25.30032071      -0.19936428      -0.60434369      -0.01041560
O       -9.15042617       5.80728595      11.50226758       0.62423386      -0.39706315      -0.25660937
H       -8.00052346       5.55026765      11.67340949       0.26187323      -0.33557208      -0.02581265
H       -9.43247307       6.14519335      12.28524270      -0.00095603       0.40115654       0.42092852
192
Lattice="13.065482176920892 0.0 0.0 -5.291411030435144e-07 13.065482176920892 0.0 -5.291411030435144e-07 -5.291411030435144e-07 13.065482176920892" Properties=species:S:1:pos:R:3:momenta:R:3 step=60 time_fs=6.0 phase=equilibration pbc="T T T"
O       12.68804013      -2.82160159     -15.45199573       1.05170406       0.15806100       0.01223789
H       12.03950370      -2.53793989     -16.12765486       0.13889986       0.31706893      -0.02949862
H       13.32589861      -3.39719395     -15.86622028       0.23800016      -0.25166284       0.22789568
O       25.27487700      24.42946564       0.37283165       0.04984813       0.31863343       1.71186599
H       25.39624751      25.37564163       0.83322182       0.11096490      -0.28095224      -0.08509335
H       25.40763497      24.63413015      -0.52005439       0.28334105       0.22301341      -0.62363653
O        5.37153412       1.50971778       8.08323111       0.31476154      -0.15820767      -1.88538361
H        5.89373592       1.93676583       8.77024285       0.15787757      -0.05386082      -0.06173871
H        4.98529309       0.68167292       8.48355880       0.32873570      -0.64015707       0.29127579
O       -2.94561936      -5.68488684      -2.02197208      -0.67603747      -0.30138784       1.15220877
H       -2.10705458      -5.88925648      -2.46231185       0.20745747       0.68930611      -0.27839299
H       -2.98182405      -4.74995974      -1.71880651       0.16634560       0.69882662      -0.05506459
O        3.40767217      16.29289717      10.67082109       0.59434964       1.24938422      -0.95531142
H        3.92700084      17.11519007      10.89876030      -0.04639113      -0.08131836       0.39647624
H        3.19902613      16.38444673       9.73942787      -0.44137033      -0.24683366       0.03210677
O       -1.98890927       4.37287585       2.96129094       0.06326375      -0.62837678       0.61747553
H       -2.50478592       4.55201775       3.82032054      -0.44615332      -0.09315978       0.31586778
H       -2.61960744       4.28725950       2.26074879      -0.22607638      -0.11554536      -0.55263283
O       23.87839534      13.34205214       7.31356881      -0.54822803       0.28548511      -0.22511830
H       24.80583008      13.61567704       7.31238402       0.40017828      -0.21059308      -0.23825426
H       23.56877483      13.33283358       6.38479080       0.36039330      -0.28399761       0.29097057
O       -0.69066637     -14.98892417       3.90846016      -1.38595346       0.16647165      -0.23698281
H       -0.61865929     -15.66811564       3.23382905       0.04530910      -0.46490789      -0.22531099
H       -1.37553556     -14.33144452       3.66208981      -0.12357509       0.30315684       0.43838912
O       18.43602970     -18.39808170       9.85465971       0.76916597      -0.70976123      -0.25100238
H       19.41443604     -18.64953652       9.95953241      -0.34066605      -0.05748550       0.03129684
H       17.78246607     -18.87190760      10.39107066      -0.00150669       0.04241417       0.05575655
O        4.85735357     -14.19309368     -13.59090793       0.72400474      -0.17744073      -1.00592440
H        5.84129437     -14.17137623     -13.62172193       0.30581448       0.61028266       0.09699084
H        4.57883942     -14.81393828     -12.94098416      -0.24035173      -0.17697494       0.42684952
O       -4.81273359       2.22123303       4.33746937      -0.38820035       0.67510442       0.75999195
H       -4.84505447       2.08233981       3.37873744       0.02720876      -0.00846678      -0.09428380
H       -5.59738981       1.86308275       4.80347956       0.29674474       0.35298079      -0.24087978
O       -5.86508490      15.26048763      27.72293644      -0.39581721       0.63921011      -0.57033548
H       -6.71256700      15.18960074      27.80547278       0.05026107       0.39700455      -0.37591599
H       -5.48333965      14.80962465      26.96587309       0.27253585      -0.43133453      -0.30261038
O        7.48074247     -15.54961186      -6.87460653       0.99033115       0.73143004       1.73846031
H        7.90395133     -16.35002707      -7.10884549       0.18560947      -0.00078281       0.10356792
H        7.08546255     -15.72692571      -5.80119960      -0.05939971       0.37021683       0.04181197
O       15.42963703       7.48135342      20.54586337       0.11931798      -0.19922882       0.23375518
H       14.74687029       6.97112412      20.11626307      -0.05703683       0.10996388       0.16197821
H       16.23617567       7.02295281      20.53580950       0.40704504       0.29852961       0.22854771
O       -0.25908235       1.04768436       0.97613870       0.07790747       1.42395624       0.73013540
H       -0.01974847       1.24683913       1.89549873      -0.31312517      -0.08821452       0.15064305
H        0.38026670       1.44148720       0.33257553      -0.16409594      -0.16490453      -0.30886698
O      -16.13882091      12.56820419      17.74563010       0.92805220       0.53425038       0.29735578
H      -16.62344641      13.20095866      17.13898623       0.02856978       0.13828636      -0.55330745
H      -16.78930427      11.95862101      18.18306067      -0.32351998      -0.49888201       0.12391843
O      -17.81742964       6.27671552      12.98161322       1.58919496       0.61775597      -1.18315247
H      -18.42243833       5.84848040      12.50966991      -0.08050324      -0.31193660       0.37930524
H      -17.07229381       6.57186073      12.42165023       0.13286251       0.56761810       0.33957070
O       -9.98837712      34.26509764     -11.49004886      -0.19674742       0.24442898      -0.30376685
H       -9.58011864      33.87164294     -10.71324860       0.24982529      -0.12729931       0.10054795
H      -10.13143035      33.40513146     -11.74394014      -0.11103401       0.13482354       0.08918050
O       36.54710971      10.89020794      21.78339259       1.08408615      -0.31597280      -0.74304032
H       36.79487860      11.72704083      21.31123985       0.06253377       0.20835130      -0.33122538
H       35.56403371      10.82766913      21.99381177      -0.12381075       0.03124313       0.19868205
O       30.54583518     -10.99717769       2.37567535       0.16026384       0.30404165      -0.45463599
H       30.57304860     -11.55628095       3.20587200       0.00781027       0.09782195       0.34078972
H       29.93663890     -11.39684313       1.78811649      -0.18181631       0.11468563      -0.66963779
O       16.37730424       9.76423759      -6.88904698       0.11988001      -1.04988282      -0.65420756
H       16.82376643       9.74959969      -7.73164982      -0.37701561       0.17327222      -0.01300046
H       16.05432040       8.93361117      -6.52743010      -0.32614212       0.02201811       0.02740273
O       -9.28661077       3.50626366      33.45650718       0.87286045      -0.40715956       0.28564131
H       -8.98075678       4.42268638      33.52189973      -0.01355750      -0.34950925      -0.02087510
H       -8.57738295       2.93262587      33.82847272       0.15165732      -0.08661059       0.11878924
O        3.23340232       1.15749445       0.08938675       1.44477069       0.61392871       0.76439916
H        3.12086469       1.95380109      -0.45959183       0.14127280       0.33719214      -0.29184171
H        3.79263901       0.46386976      -0.20802885       0.15286206      -0.24585394      -0.23423411
O       23.48522188       1.95598427      12.99185190      -0.27917976       0.19383550       0.39222487
H       23.23943715       2.65135694      13.59218570       0.14753444      -0.05746159      -0.13058358
H       24.26994625       1.54058577      13.33279980      -0.38390772      -0.15331752      -0.26527496
O        0.09065212      32.50377604      15.63738134      -0.83023509      -0.21226803       1.64080142
H       -0.65417144      31.94898982      15.48319884       0.54361882      -0.10749418       0.07744521
H       -0.15844150      33.43013758      15.47830489       0.04564992       0.41549289      -0.32694641
O        6.03286070      20.25384938       5.03909096       0.06452224       0.40403544       0.51368644
H        5.36074981      19.98099446       4.48958540      -0.15223536      -0.16195951      -0.22345142
H        6.50497368      21.05647913       4.65908112      -0.21225624      -0.56160002       0.15051060
O       -9.62275565      10.92407606      10.40549034      -1.24191005       0.23783963       0.35154646
H      -10.11998035      10.09540228      10.43466896      -0.13956482       0.16515804      -0.04925204
H       -9.19037124      10.99899695      11.23479027       0.41225052       0.06847567       0.66976040
O       17.19513493      17.98391269      28.15131759      -0.55236149       0.12202644      -1.30045149
H       17.43987579      17.01381736      28.20098175       0.56309936      -0.47198315       0.07470046
H       16.40050635      18.15851845      27.67072892      -0.25959120      -0.01778288      -0.01040799
O        6.71771185      18.43235513      10.90358015       0.60575349      -0.32284688      -0.00294936
H        7.27827228      18.81716249      10.15006410      -0.20841995      -0.32249460       0.22028984
H        6.76564262      17.46596611      10.73214528      -0.32355801      -0.04401999      -0.27167444
O        1.04422598     -13.60736837      10.42558861      -0.97618204       0.19900434      -0.13335183
H        0.35897204     -14.31208196      10.53447891      -0.48905741      -0.03508270       0.08665559
H        1.92845747     -13.90500205      10.23784734       0.68868467      -0.39134070      -0.08972252
O        0.01084751       9.21322688       1.87632046       0.41422011      -0.80657432       0.28356676
H        0.94216897       9.05527846       1.72828597       0.16495352      -0.26388533       0.22552063
H       -0.20387496       9.80752845       1.09104544      -0.06173726      -0.55825360       0.42319076
O        0.46646068       0.63891562       7.79388137       0.69963616      -0.09469153       1.14442583
H        1.04389154       0.28043881       7.04227004       0.15809361      -0.02899192      -0.22927994
H        0.61198928       0.19978597       8.59761689       0.33879597      -0.17452305       0.35629553
O      -18.83000552      28.88170504     -15.93284717      -0.12433046       1.30857593      -0.35580919
H      -18.12232070      28.78489475     -16.50372872       0.40690333       0.09666444      -0.32342293
H      -18.87341576      28.38750313     -15.11217484       0.35797553      -0.01121402      -0.08168450
O        4.61805094      26.40874882      -8.27800456      -0.53283887      -0.51102807       0.60160166
H        5.36762629      26.76267160      -7.73613091       0.27200620       0.50425381       0.15508946
H        3.81520297      26.56014898      -7.79683667       0.19254491       0.03878924      -0.60877930
O      -18.22002861      21.56378862       1.47778712      -0.48782596      -0.51369166       0.46267275
H      -18.06790503      20.68915237       1.09778426      -0.42376945       0.01677905       0.05374951
H      -19.11428537      21.84509061       1.38758128      -0.23315946      -0.32036081      -0.38041069
O       11.43018243      20.28499982       6.91195740       0.58714665      -0.23652949       0.13070632
H       11.61659847      21.23444184       6.72509874       0.28078971       0.53626415      -0.19347939
H       10.50675960      20.10431112       6.78886564      -0.69896635      -0.19642597      -0.29836624
O       -9.46672425      -6.81104839       4.29742133      -0.73938945       0.37571912       0.33110064
H       -9.08642514      -7.37956862       3.65051839       0.54347044      -0.59217123      -0.12656131
H      -10.35675206      -7.09637309       4.68571680      -0.07294217      -0.37105747       0.19417379
O      -25.46988058       2.05390568      11.27395431      -0.21554150      -1.59236452       0.27866174
H      -25.46864115       1.07900001      11.11268893      -0.16812186       0.57489775      -0.43469533
H      -24.55335466       2.61584912      10.76189571      -0.32705468      -0.39793934       0.29534131
O      -12.46217147      -7.43650152      19.42192991      -0.41529990      -0.86635559       0.48767362
H      -12.28569144      -8.25335240      18.94488503      -0.07582254       0.10069220      -0.35320977
H      -12.97603621      -6.86557251      18.86074386       0.14131665      -0.23814564      -0.43967294
O        8.12381588       8.59631160      17.40321771      -0.07886660       0.60016005      -0.87856288
H        8.85780989       8.02517919      17.61658592      -0.45978050       0.07052584       0.08578512
H        8.22591089       8.61758924      16.41883497      -0.43679934       0.18682754      -0.00468013
O      -11.17104372      -0.73453444      18.49784172       0.60074742      -0.06394224       0.73142939
H      -10.68756399      -1.55462829      18.70276808      -0.04097813      -0.14152121       0.09063333
H      -11.83098974      -0.98866852      17.84023790      -0.21698784      -0.03588379      -0.07668263
O       22.65741440       4.00727747      19.05595755      -0.87635356       0.32249589      -0.19512823
H       22.33013819       3.41445774      18.39112801      -0.11636337      -0.22853863      -0.58823340
H       22.65985273       3.50644568      19.93076485       0.13770529       0.28159059       0.04022699
O       -4.97359876     -18.86088989      -3.77369470      -0.06416425       0.31782492      -1.62970219
H       -4.11520460     -19.03859003      -3.34147108       0.17656850      -0.23000406       0.11445656
H       -4.88285063     -19.23875954      -4.65249352      -0.23786014      -0.20725128       0.03145664
O       27.61214405      -9.99788381      -7.18575005      -1.44342430       1.16591847       0.47338407
H       28.48285865      -9.99873811      -6.87856336       0.64026174       0.05804105      -0.12697507
H       26.98930768     -10.58043575      -6.74843194      -0.37906439       0.02525179      -0.33175658
O        6.99241987       0.36383088       5.92500578       0.64838011       0.47407366       0.49164645
H        6.94722269       0.60540246       6.90190699       0.00465208       0.03591847       0.30765345
H        7.31003000      -0.53762456       5.76609917       0.15061508       0.12655380      -0.05486192
O      -18.59763412      -2.02554955      24.54308752       0.47624741       0.59399510       0.12124854
H      -18.83639348      -2.30231077      23.66201265      -0.20183385       0.03167986      -0.47142475
H      -17.89833745      -2.52939588      24.87137100       0.32224528      -0.02623146       0.38911046
O        4.92649385      -6.72836812      -5.55365387       0.71653479       0.55870158      -0.30622350
H        5.14687665      -6.25751639      -4.76468043       0.00717350       0.35435127       0.29009004
H        5.24823504      -6.42972713      -6.33180837       0.21871049       0.07756634      -0.09594555
O       12.14733231       9.78730041       6.31965295       0.17895584      -0.60057175      -0.66628694
H       11.86951979      10.01212137       7.23573379      -0.16599309      -0.14102439       0.98317935
H       12.02228138      10.30947604       5.49975586       0.26409876      -0.12192853      -0.50998059
O        4.45388261      11.86887495      -5.12366778       0.77680017       0.08203269       0.03769550
H        4.02314032      11.53052339      -4.31225120      -0.09681938       0.30212617      -0.02420566
H        4.26551578      11.26949139      -5.85501385      -0.11634550      -0.33976815      -0.38207874
O       13.19553957      29.01423031      15.90766369      -0.63807720      -0.47006574      -0.51757322
H       13.67968621      28.95179041      16.73555804       0.13948718      -0.01624908       0.33958992
H       12.28908056      29.35134175      16.04797584      -0.19754622      -0.04173761       0.38107388
O       -4.12054402       4.01041074       1.22083881      -0.15985481      -0.48968723       0.25194737
H       -4.35608345       4.93524763       1.22745202      -0.42282167       0.85386892       0.38106442
H       -4.81788168       3.48659738       1.47910399       0.14559681       0.17761292       0.04626568
O        6.57270131     -15.81524901       8.87148412       0.43675250      -0.35134012      -0.80677640
H        5.83699746     -15.25143538       8.66459534      -0.37071911      -0.24448718      -0.17425135
H        6.37043201     -16.75118145       8.95864349       0.11692699      -0.08326095      -0.16293466
O        1.59483515       8.71791109      22.78551458      -1.54089429      -0.25525996      -0.75210996
H        1.47271822       7.95700364      23.34687716      -0.13546476       0.08437568      -0.09825452
H        1.89599943       8.45460137      21.85323832       0.36780319       0.22818351      -0.22201694
O       22.89060208      22.87956928      -0.31747134      -0.99268386       0.52209932      -0.01688716
H       23.38544484      23.66424253      -0.20916228       0.05935996       0.02916766       0.12338084
H       22.15071593      22.64104452       0.32617444      -0.10948477      -0.00957838       0.04486941
O       11.99111067       5.99381414     -16.65157861       0.75309425       0.12242911       0.92223717
H       11.81888546       5.05272398     -16.62882437      -0.03023934      -0.13804871      -0.13169663
H       12.05035014       6.41885927     -17.58848645       0.10861276       0.38793270      -0.35473482
O       -7.76244668      22.85730192       1.76738700      -0.27550345      -1.15238327      -0.69547580
H       -8.61336441      22.38200489       1.72453742      -0.17553048      -0.10460677      -0.02661933
H       -7.70862376      23.19076086       2.56978577      -0.00063410       0.64472468       0.28127490
O        5.19568921     -15.66497221      17.48946724      -0.48615267      -0.11905419      -0.45363659
H        5.80285316     -15.78123435      18.23711735       0.12286841      -0.43300744       0.20097688
H        5.02340589     -14.74601798      17.29725845       0.14165321       0.25240956      -0.52988319
O        1.71339089      18.67135130       0.58303428      -0.56929320      -0.67607083       0.75619798
H        1.11240356      18.91028980       1.34739261      -0.39308540       0.15464027       0.03579860
H        1.27112123      18.54008526      -0.26054609      -0.25097191      -0.01501376      -0.74669843
O       -4.73386753      -6.55593849       6.53971506      -1.99941646      -0.15137265      -0.01736480
H       -4.39629758      -7.49963106       6.36028330       0.09552432      -0.44529042       0.20597020
H       -5.49019882      -6.39431866       6.03598541       0.10644107      -0.06170686       0.00936285
O       -3.54023903       2.28433167       8.48227546      -0.30676644       0.74106229       0.41103578
H       -2.88591631       2.67828937       9.08427512      -0.12494267      -0.09862757       0.02792390
H       -3.32177778       1.38131517       8.37724939       0.09049399       0.18130237      -0.13344114
O       14.30892732      -6.90034240      -2.46179416       0.44125727      -0.31731558      -0.05491090
H       13.55338470      -7.12698792      -3.07038454       0.07160286      -0.16943273      -0.14614243
H       14.98720576      -7.54538396      -2.55763084       0.22681546      -0.68550250       0.22922995
O       11.48524604       3.48291487      23.58895923       0.50640275      -0.34815318       0.22793173
H       10.86023416       3.20235376      24.28971757       0.08307088      -0.00631136       0.14374563
H       12.31341046       2.97716842      23.79933522      -0.52195180       0.09376198      -0.43560947
O        8.03711253      13.75269912      25.44963100      -0.93248558       0.19854265       1.54935359
H        8.95357719      14.13332362      25.48610100       0.19459742       0.01657943      -0.22254909
H        8.03405237      12.78107053      25.29797552      -0.20277511      -0.70334883      -0.02360116
O       -9.14521584       5.80421807      11.49983645       1.04095601      -0.56443244      -0.44176692
H       -7.99134503       5.52197525      11.66822335      -0.07441901      -0.24313898      -0.08219808
H       -9.43405452       6.18941926      12.33923402      -0.00511961       0.47061699       0.60370639
192
Lattice="13.065404726043234 0.0 0.0 -5.291379663477322e-07 13.065404726043234 0.0 -5.291379663477322e-07 -5.291379663477322e-07 13.065404726043234" Properties=species:S:1:pos:R:3:momenta:R:3 step=70 time_fs=7.0 phase=equilibration pbc="T T T"
O       12.69412856      -2.82042002     -15.45227496       0.96664184       0.21187608      -0.13756838
H       12.05715127      -2.51150493     -16.12652961       0.22573836       0.22188296       0.04962837
H       13.34620488      -3.42191556     -15.84426651       0.16596742      -0.24269172       0.22639968
O       25.27510959      24.43215186       0.38380228       0.08849685       0.62318683       1.78525023
H       25.40541574      25.33445440       0.81935971       0.07763816      -0.56730043      -0.20478078
H       25.43600660      24.65343184      -0.58221358       0.28932954       0.15819309      -0.56991123
O        5.37328822       1.50806698       8.07213989       0.27021097      -0.39032257      -1.69473567
H        5.90833063       1.92877770       8.76233420       0.13551020      -0.11533479      -0.10741340
H        5.02205785       0.62936630       8.50594205       0.42968216      -0.41734205       0.15861111
O       -2.94956110      -5.68602381      -2.01487950      -0.59208209      -0.04830439       1.14988990
H       -2.09204645      -5.82131735      -2.48606434       0.08073250       0.70188340      -0.19822760
H       -2.96431071      -4.69372210      -1.72731584       0.18947454       0.42428604      -0.12440722
O        3.41133959      16.30112321      10.66486585       0.59874333       1.44497134      -0.95841163
H        3.91635264      17.09813905      10.93528662      -0.16523973      -0.25447073       0.34984791
H        3.15822702      16.35926320       9.74422086      -0.39153060      -0.26244000       0.06785163
O       -1.98924922       4.36928490       2.96591320      -0.22102617      -0.53814579       0.85701719
H       -2.53848256       4.53891792       3.83557709      -0.23925807      -0.17590595      -0.00985555
H       -2.64089234       4.27659663       2.20906482      -0.17398908      -0.09782565      -0.46329122
O       23.87516099      13.34383480       7.31214421      -0.42129421       0.32679360      -0.18506065
H       24.84216341      13.59298634       7.28930334       0.32669172      -0.25809628      -0.23023894
H       23.60491012      13.30276619       6.41229499       0.36862758      -0.33209087       0.23275236
O       -0.69950407     -14.98772403       3.90671586      -1.49144911       0.17060670      -0.34945231
H       -0.61469389     -15.70998278       3.21487309       0.03098080      -0.36492186      -0.13427006
H       -1.38195895     -14.30955622       3.70771491      -0.00650835       0.13977680       0.49729548
O       18.44103437     -18.40251595       9.85300622       0.86887995      -0.75832852      -0.26803126
H       19.37157536     -18.65300205       9.96256823      -0.50774196      -0.02331121       0.03784203
H       17.78521973     -18.86573905      10.39637361       0.06145316       0.08228432       0.05675777
O        4.86223697     -14.19411729     -13.59702618       0.86704000      -0.21932725      -0.97006359
H        5.86038690     -14.11300890     -13.61141841       0.07239292       0.58090345       0.11452163
H        4.55809748     -14.83066084     -12.89995054      -0.16196273      -0.12772222       0.36837679
O       -4.81502702       2.22536667       4.34197893      -0.31927273       0.69636066       0.68149442
H       -4.84362948       2.08156451       3.37383863       0.00228227      -0.00634352      -0.00245247
H       -5.56798835       1.89692578       4.77841369       0.25431763       0.31928730      -0.24325611
O       -5.86515303      15.26425996      27.71892211       0.34588546       0.59074857      -0.71217670
H       -6.74402523      15.22636451      27.77179856      -0.65489945       0.36380650      -0.32208531
H       -5.45849564      14.76720442      26.93709044       0.21289536      -0.41390638      -0.24640904
O        7.48632657     -15.54477012      -6.86315631       0.85249822       0.80062107       1.96964971
H        7.92343052     -16.35378223      -7.09985084       0.20687687      -0.06169525       0.08436733
H        7.08567125     -15.68971593      -5.81228258       0.06212916       0.39045732      -0.26364133
O       15.42982286       7.48062184      20.54716575       0.01165900      -0.04295553       0.23214077
H       14.73861143       6.97941130      20.13070478      -0.10527724       0.05884761       0.13637306
H       16.28776148       7.04566060      20.55829090       0.60792080       0.18937452       0.23233217
O       -0.25839932       1.05651757       0.98041998       0.13301018       1.44938292       0.66425349
H       -0.04969614       1.24109862       1.90542361      -0.29661873      -0.02611712       0.05837937
H        0.36035078       1.42318852       0.31091141      -0.23672548      -0.20385424      -0.13986351
O      -16.13408123      12.57146842      17.74729376       0.56409043       0.54608918       0.27418638
H      -16.61252913      13.20313078      17.09613687       0.20011545      -0.09727424      -0.31479585
H      -16.81135221      11.91981117      18.18534943      -0.11655326      -0.28475809      -0.07944230
O      -17.80619473       6.28145487      12.97522391       1.99613660       0.91357612      -0.88802713
H      -18.44911446       5.80529285      12.53091054      -0.42567690      -0.54666579       0.08315551
H      -17.06137060       6.62695244      12.45533678       0.08802514       0.56090976       0.34355498
O       -9.98895361      34.26758742     -11.49114755      -0.00295225       0.61095525      -0.06366611
H       -9.55902106      33.86155327     -10.70798412       0.17272165      -0.06558200      -0.00839982
H      -10.14489651      33.40098631     -11.74097668      -0.16633932      -0.20457322      -0.02831904
O       36.55281731      10.88865012      21.77854668       0.84559567      -0.16060401      -0.79790481
H       36.79608943      11.73942895      21.28527850      -0.03416077       0.03813268      -0.19305323
H       35.56894033      10.83211349      22.00854021       0.23153425       0.06072195       0.10442032
O       30.54676366     -10.99555361       2.37362595       0.16462303       0.18015195      -0.23694541
H       30.57269400     -11.54014445       3.22791106      -0.01493848       0.23508522       0.09643467
H       29.91767091     -11.38710921       1.72045451      -0.16322856       0.10680638      -0.67259057
O       16.37787919       9.75775420      -6.89284069       0.08822775      -1.04285731      -0.57288533
H       16.78910886       9.76483297      -7.73365369      -0.32183676       0.13934255      -0.04880015
H       16.02372363       8.93677162      -6.52633609      -0.29810368       0.04430067      -0.00683369
O       -9.28080333       3.50340726      33.45834712       0.98559069      -0.55796260       0.37544984
H       -8.98235398       4.38985962      33.51883654      -0.00722812      -0.27988805      -0.03581804
H       -8.57065737       2.93048853      33.83367369      -0.01291309       0.04092888      -0.00815608
O        3.24216394       1.16180624       0.09404592       1.43766282       0.78698301       0.71645404
H        3.13710871       1.97766878      -0.48451268       0.19313467       0.13118228      -0.20125663
H        3.80790105       0.44056326      -0.23245555       0.13690694      -0.20504816      -0.25056065
O       23.48302481       1.95704906      12.99376838      -0.41264943       0.15865310       0.23514712
H       23.25209233       2.65144292      13.58308247       0.11122137       0.07400476      -0.04318344
H       24.23938980       1.52150433      13.30979059      -0.21452862      -0.25313398      -0.19371021
O        0.08583110      32.50313200      15.64742409      -0.71484364       0.11727261       1.66206944
H       -0.60928831      31.93316358      15.48984131       0.34652292      -0.23462003       0.05354218
H       -0.15308888      33.46295406      15.44822251       0.06908041       0.23523838      -0.28264422
O        6.03386152      20.25690182       5.04252276       0.20468044       0.55834191       0.60997253
H        5.33672592      19.96010104       4.46297399      -0.30794445      -0.25181866      -0.29442748
H        6.48069560      20.99376676       4.67733297      -0.24646335      -0.66118944       0.20034960
O       -9.63033162      10.92553248      10.40754371      -1.20749408       0.26907771       0.40333049
H      -10.13256921      10.11076409      10.42900799      -0.11912741       0.15104416      -0.06163244
H       -9.14901597      11.00638727      11.30094505       0.39601553       0.07513392       0.61825419
O       17.19200417      17.98365134      28.14335068      -0.44508819      -0.18088333      -1.24850944
H       17.49005316      16.98249919      28.20702279       0.46241590      -0.15890919       0.05145370
H       16.37338744      18.15403837      27.66870869      -0.27876227      -0.07539904      -0.01874119
O        6.72167357      18.42988756      10.90303350       0.67693514      -0.45641967      -0.12960279
H        7.25395612      18.78407484      10.17739878      -0.27028563      -0.33809135       0.31527886
H        6.73415575      17.46713120      10.70732894      -0.32149037       0.06266208      -0.23350068
O        1.03833963     -13.60632603      10.42457805      -0.88218290       0.08352944      -0.18929912
H        0.31782676     -14.30975358      10.54202865      -0.35039660       0.09173149       0.06876332
H        1.98760073     -13.94188883      10.23137078       0.46562520      -0.34336525      -0.03018057
O        0.01345027       9.20867867       1.87757948       0.45877711      -0.70544100       0.18399722
H        0.95736449       9.03002112       1.75192328       0.13622934      -0.25037863       0.25982567
H       -0.21035818       9.74995345       1.13816805      -0.08609698      -0.58186727       0.48732831
O        0.47110626       0.63810449       7.79977670       0.82705819      -0.19903830       0.83624020
H        1.05027814       0.28209936       7.03277521      -0.03007482       0.06460318       0.04114354
H        0.64691528       0.18016948       8.63683438       0.36865790      -0.20305829       0.40305408
O      -18.83133138      28.88992477     -15.93470425      -0.28068865       1.41540539      -0.32343002
H      -18.07186724      28.79022100     -16.53979740       0.56233237       0.02486821      -0.36994900
H      -18.83472602      28.38467974     -15.12156533       0.43125973      -0.04185506      -0.11321819
O        4.61561555      26.40556054      -8.27416248      -0.19080713      -0.47961183       0.61456790
H        5.38611458      26.80767156      -7.72621692       0.09463128       0.41456517       0.03971991
H        3.82827714      26.56540538      -7.85289932       0.02823985       0.08282033      -0.51603466
O      -18.22273400      21.56045286       1.48053181      -0.45667730      -0.51785332       0.43407471
H      -18.10929861      20.69132969       1.10257458      -0.42020448       0.01733196       0.04120283
H      -19.13930622      21.81529290       1.34942240      -0.26303346      -0.28940101      -0.39708102
O       11.43352668      20.28400717       6.91261781       0.46677477      -0.03751553       0.08479599
H       11.64161369      21.27575506       6.70872956       0.22589190       0.28359214      -0.13500803
H       10.44618941      20.08666848       6.76040455      -0.47854949      -0.15067307      -0.27504253
O       -9.47188919      -6.80900174       4.29969150      -0.93778972       0.23902254       0.38009032
H       -9.03675456      -7.43652549       3.64030441       0.45387072      -0.54237571      -0.04805877
H      -10.34781474      -7.12849597       4.69779946       0.25319415      -0.28432068       0.05644029
O      -25.47048481       2.04436564      11.27523284      -0.05436074      -1.44907714       0.18190761
H      -25.48379238       1.13866991      11.06821075      -0.14607422       0.57308249      -0.49001569
H      -24.59492088       2.56995074      10.79718532      -0.50937708      -0.53028992       0.41791884
O      -12.46461412      -7.44182466      19.42470385      -0.40982985      -0.88057901       0.43570977
H      -12.29163405      -8.24318304      18.91243290      -0.04603009       0.10757498      -0.30254323
H      -12.96278445      -6.88834921      18.81834443       0.13296772      -0.23143354      -0.41813720
O        8.12315410       8.60019777      17.39717110      -0.15530825       0.70503454      -1.05041229
H        8.81793686       8.02821712      17.62849430      -0.33253157      -0.02854706       0.16397490
H        8.18190433       8.63744696      16.42070141      -0.46030361       0.21801725       0.03349590
O      -11.16734557      -0.73532442      18.50206523       0.56822458      -0.20460585       0.66636216
H      -10.69467749      -1.56469271      18.71062703      -0.10951841      -0.05996996       0.07051234
H      -11.84877848      -0.99011543      17.83668589      -0.13224773       0.01134479       0.02215871
O       22.65176238       4.00894630      19.05525714      -0.93686814       0.20709422      -0.04354544
H       22.31844196       3.39286050      18.33566950      -0.10202551      -0.18158357      -0.50664597
H       22.67280238       3.53970094      19.92454566       0.13060714       0.39481910      -0.16249406
O       -4.97356608     -18.85899825      -3.78349039       0.07930415       0.25938567      -1.56021287
H       -4.10415395     -19.05824324      -3.33128543       0.03333423      -0.17205327       0.08212038
H       -4.90701080     -19.25921599      -4.65194638      -0.25615213      -0.21477314      -0.01959719
O       27.60262822      -9.99045868      -7.18297671      -1.53580319       1.22995953       0.44353758
H       28.54938217      -9.99439198      -6.88676544       0.65554561       0.02979275      -0.06657760
H       26.95672905     -10.57721532      -6.77980004      -0.28085715       0.04292460      -0.31495093
O        6.99634241       0.36686419       5.92863357       0.64088604       0.52015439       0.70702577
H        6.94719537       0.60459134       6.91901113      -0.00440314      -0.05295042       0.04011070
H        7.32384634      -0.52363676       5.76446013       0.13504535       0.15440713       0.02127688
O      -18.59493061      -2.02161160      24.54330514       0.40353065       0.63874358      -0.02352441
H      -18.85400855      -2.29668599      23.62043564      -0.14588405       0.09423996      -0.33035744
H      -17.86071115      -2.53578135      24.91310951       0.39497865      -0.06981043       0.43856959
O        4.93025122      -6.72512092      -5.55454729       0.54161249       0.52251768       0.00412732
H        5.14671484      -6.22349671      -4.73902998      -0.02258549       0.31557582       0.19006653
H        5.27719062      -6.41560500      -6.35704526       0.36260799       0.19903507      -0.38670632
O       12.14807506       9.78374534       6.31594883       0.07931626      -0.51645714      -0.51366980
H       11.85651194       9.99820691       7.31852986      -0.09212966      -0.14687752       0.68095777
H       12.04958214      10.29498485       5.45616120       0.29763562      -0.18371747      -0.36170706
O        4.45858605      11.86892324      -5.12336444       0.75896313      -0.06287588       0.01717971
H        4.01440257      11.56140449      -4.31911709      -0.08475576       0.33060086      -0.11344218
H        4.25378214      11.23940391      -5.88669244      -0.11696716      -0.25272676      -0.23863359
O       13.19128793      29.01117539      15.90463903      -0.71417188      -0.46670379      -0.39971877
H       13.68963245      28.94991186      16.76323542       0.04814566      -0.01678239       0.19703806
H       12.27799996      29.34435893      16.08521671      -0.01761314      -0.10260336       0.38025628
O       -4.12057154       4.00859897       1.22202730       0.11828281      -0.02880574       0.14208274
H       -4.39592772       5.01139494       1.26418641      -0.37682111       0.63894391       0.36791648
H       -4.81826315       3.49291948       1.48989655      -0.14905630      -0.04156236       0.17405414
O        6.57538841     -15.81757758       8.86658644       0.43246152      -0.42455046      -0.77574619
H        5.79847478     -15.27613278       8.64705736      -0.39795193      -0.27706656      -0.17972463
H        6.38082048     -16.75491002       8.94264300       0.09847456       0.00488346      -0.16461497
O        1.58570017       8.71594401      22.78020064      -1.42806540      -0.35602928      -0.93965348
H        1.45932405       7.96394846      23.33581868      -0.13981821       0.04855476      -0.11873115
H        1.92679633       8.48012561      21.84404223       0.26323548       0.29419340       0.03316172
O       22.88348591      22.88208293      -0.31738481      -1.27147009       0.35543149       0.04496208
H       23.39299820      23.67059143      -0.19385892       0.09236749       0.09060326       0.18845640
H       22.14853773      22.64187514       0.32730358       0.06661162       0.02842886      -0.02000848
O       11.99556257       5.99493266     -16.64657964       0.71982603       0.23850528       0.67257460
H       11.81416481       5.03968485     -16.64238331      -0.06113413      -0.11393144      -0.14674806
H       12.05841660       6.45039173     -17.61205610       0.05696437       0.26109705      -0.13214593
O       -7.76434941      22.84930946       1.76175806      -0.36201391      -1.37201020      -1.04324320
H       -8.62970513      22.37142044       1.72148621      -0.14443282      -0.09798838      -0.02877718
H       -7.70775487      23.26427332       2.61980410       0.00440541       0.81988547       0.64604228
O        5.19270992     -15.66551340      17.48680857      -0.46664913      -0.06164011      -0.36956957
H        5.81329229     -15.82076170      18.25108299       0.07976884      -0.37610613       0.07197353
H        5.03906401     -14.72459854      17.24801304       0.18422592       0.15659089      -0.46868388
O        1.70931702      18.66708049       0.58780656      -0.78556572      -0.68242884       0.75990635
H        1.08028311      18.92099738       1.33836554      -0.25780564       0.06547220      -0.22358464
H        1.24940520      18.54075763      -0.32407397      -0.16981270       0.03632842      -0.51598509
O       -4.74505882      -6.55787883       6.53999062      -1.64868653      -0.50195120       0.12357856
H       -4.39229934      -7.53012715       6.38259896      -0.01890648      -0.17105319       0.25153243
H       -5.49264003      -6.39944279       6.02916012      -0.15833438      -0.04575203      -0.14992285
O       -3.54236156       2.28949926       8.48515567      -0.39967408       0.94101280       0.53263948
H       -2.89964713       2.66824283       9.08534079      -0.14407213      -0.09795577       0.00758772
H       -3.31048422       1.39199306       8.36246455       0.14069434       0.03143182      -0.17020962
O       14.31115908      -6.90237856      -2.46264575       0.35462531      -0.40237570      -0.23059612
H       13.57294122      -7.14140502      -3.07578411       0.32935091      -0.12685503       0.03391198
H       15.00752169      -7.60981976      -2.53580941       0.14865840      -0.59556732       0.22233025
O       11.48808772       3.48050451      23.59064166       0.38826734      -0.39297959       0.34647830
H       10.87366967       3.20498213      24.29792914       0.18461145       0.05901130       0.03418929
H       12.26221493       2.98745682      23.75505500      -0.46276194       0.07881493      -0.45602358
O        8.03194839      13.75337269      25.45892137      -0.72728353       0.02265954       1.52144766
H        8.96307898      14.12973090      25.46469042      -0.00530827      -0.08920130      -0.21244480
H        8.01419870      12.72467686      25.29722187      -0.20448429      -0.42613676       0.01433187
O       -9.13794781       5.80073271      11.49770685       1.28166775      -0.53409167      -0.18019915
H       -8.01331124       5.50256726      11.65716622      -0.36238687      -0.15798042      -0.14194682
H       -9.42911270       6.23020174      12.38795839       0.11758828       0.34387597       0.34896909
192
Lattice="13.065184338959252 0.0 0.0 -5.291290408551147e-07 13.065184338959252 0.0 -5.291290408551147e-07 -5.291290408551147e-07 13.065184338959252" Properties=species:S:1:pos:R:3:momenta:R:3 step=80 time_fs=8.0 phase=equilibration pbc="T T T"
O       12.69976516      -2.81903845     -15.45330019       0.95262130       0.21537334      -0.27163079
H       12.08234282      -2.49476658     -16.11881404       0.28593685       0.12238622       0.09162859
H       13.35591180      -3.44242750     -15.82104499       0.03094937      -0.17256375       0.24618976
O       25.27540435      24.43631000       0.39416488       0.13634807       0.79880404       1.55556801
H       25.41118174      25.26986812       0.79592623       0.05871761      -0.67879441      -0.23863879
H       25.46208719      24.66275788      -0.62483020       0.25237773       0.04075254      -0.30654372
O        5.37478393       1.50484892       8.06231389       0.24867050      -0.65055391      -1.46261120
H        5.91948433       1.91393277       8.74848625       0.09732593      -0.18613185      -0.17206536
H        5.06845902       0.60112347       8.51347098       0.51977627      -0.16275957      -0.00241347
O       -2.95265482      -5.68519166      -2.00788641      -0.42528565       0.29310421       1.11138282
H       -2.09330183      -5.75329609      -2.49971798      -0.10895964       0.68436099      -0.08202445
H       -2.94560370      -4.66903797      -1.74278436       0.18829993       0.08135398      -0.18998503
O        3.41478942      16.30996422      10.65885444       0.52720126       1.49205839      -0.94073109
H        3.89700350      17.06922759      10.96670320      -0.21273270      -0.30331733       0.30357849
H        3.12306969      16.33385377       9.75184654      -0.32785165      -0.24903818       0.08605005
O       -1.99183590       4.36611159       2.97147475      -0.63689540      -0.47597744       0.95960421
H       -2.55072269       4.51780100       3.81823745      -0.01250799      -0.25399653      -0.34120499
H       -2.64961063       4.26851646       2.17492391       0.00106083      -0.06619395      -0.22840048
O       23.87302124      13.34581504       7.31155127      -0.12728661       0.39471974       0.05200838
H       24.86629136      13.56475115       7.26830709       0.16966825      -0.31601081      -0.19288729
H       23.63743131      13.26739647       6.42270510       0.29781080      -0.39224416      -0.04098885
O       -0.70885678     -14.98671049       3.90394757      -1.54455806       0.06126581      -0.53087037
H       -0.61307744     -15.73592887       3.21044859       0.00059665      -0.16751923       0.04934419
H       -1.37803255     -14.30291848       3.75846667       0.07343957       0.00349278       0.54117204
O       18.44578447     -18.40677595       9.85108038       0.73091245      -0.71128984      -0.31458644
H       19.32362725     -18.65579713       9.96795010      -0.41292762      -0.05405060       0.08318699
H       17.79371816     -18.85577840      10.40260732       0.11343599       0.11201975       0.07951010
O        4.86779825     -14.19570130     -13.60217951       0.96417703      -0.37993560      -0.77054687
H        5.85458763     -14.05861533     -13.59921718      -0.18448172       0.52714795       0.12929375
H        4.54960965     -14.83418438     -12.87415236      -0.00534338       0.05879700       0.14499940
O       -4.81604029       2.22993893       4.34542299      -0.01237543       0.81488370       0.45222413
H       -4.84420103       2.08112240       3.37781163      -0.01366877      -0.00213668       0.07971053
H       -5.55626064       1.92175740       4.76095275      -0.04326002       0.18101545      -0.09736722
O       -5.86142111      15.26715548      27.71343509       0.73747527       0.42466904      -0.92347901
H       -6.82573647      15.26094569      27.74011797      -0.92094428       0.35471453      -0.32382211
H       -5.44460175      14.73134324      26.92129225       0.06607499      -0.31079699      -0.06094603
O        7.49114870     -15.53963546      -6.85032065       0.76506420       0.76986951       2.17823908
H        7.94236165     -16.35833916      -7.09139819       0.17584764      -0.02176827       0.09087071
H        7.09686248     -15.65073967      -5.85084408       0.16935642       0.40272057      -0.52654085
O       15.42993832       7.48040722      20.54826261       0.14253545      -0.00158866       0.23932472
H       14.72696615       6.98246926      20.14241075      -0.12554440       0.00776156       0.11099630
H       16.34495442       7.06387136      20.58000748       0.53328766       0.20296345       0.21760850
O       -0.25763748       1.06534439       0.98429092       0.09333835       1.41931174       0.60709823
H       -0.07667014       1.24229502       1.90849743      -0.25288431       0.05357381       0.01604843
H        0.33636240       1.40339047       0.30365344      -0.24140528      -0.19223207      -0.02175931
O      -16.13159132      12.57456450      17.74854556       0.16350468       0.52539108       0.23118643
H      -16.58386622      13.18177780      17.07789544       0.37786759      -0.33182733      -0.05540410
H      -16.81071076      11.90360291      18.16726176       0.12373648      -0.04216478      -0.28376889
O      -17.79319321       6.28731219      12.97007156       2.08353424       0.98458426      -0.75214130
H      -18.49402157       5.74954334      12.53239595      -0.44635230      -0.55328741      -0.01154943
H      -17.05452338       6.68081671      12.48692862       0.05073989       0.54768352       0.30504409
O       -9.98821775      34.27125826     -11.49061756       0.17640469       0.71038055       0.15555145
H       -9.54701991      33.85938058     -10.71554692       0.07102951       0.03519408      -0.14659318
H      -10.16268634      33.37200910     -11.74758524      -0.19315063      -0.31908766      -0.09769741
O       36.55679452      10.88802910      21.77305151       0.67610286       0.01650970      -0.87717333
H       36.78749372      11.73355354      21.27356669      -0.12813058      -0.15293487      -0.04075027
H       35.60631136      10.83906527      22.01389356       0.52107879       0.08417203       0.01841910
O       30.54689813     -10.99483606       2.37242952       0.03927631      -0.00387900      -0.15954621
H       30.56924424     -11.51055736       3.22402300      -0.04525012       0.36087250      -0.16701507
H       29.90878708     -11.37310770       1.66258562       0.00151946       0.18202099      -0.49901062
O       16.37792891       9.75122419      -6.89573071       0.01552240      -1.02881364      -0.39902016
H       16.76207335       9.77632054      -7.74381241      -0.22405896       0.09860040      -0.16940688
H       15.99605265       8.94180594      -6.52876547      -0.26380095       0.05950222      -0.04597248
O       -9.27454412       3.49898914      33.46028103       0.97908253      -0.86941040       0.42915257
H       -8.97989181       4.37500475      33.51442500       0.06085551      -0.00211308      -0.04281434
H       -8.57786215       2.93875863      33.82698584      -0.12043489       0.11377873      -0.10779482
O        3.25118636       1.16700718       0.09786257       1.53079511       0.90160881       0.51042746
H        3.15843060       1.97743750      -0.49677007       0.24605936      -0.13729064      -0.04543685
H        3.81602044       0.42762833      -0.25429385       0.02131197      -0.04846927      -0.18821204
O       23.47950040       1.95792634      12.99435870      -0.60344648       0.14159285       0.03708035
H       23.26061614       2.66634774      13.58402866       0.07571378       0.22478382       0.06121689
H       24.22921963       1.49011379      13.29572200       0.00523274      -0.38517401      -0.09263177
O        0.08200732      32.50477646      15.65742118      -0.53574335       0.59608522       1.67568013
H       -0.58900449      31.90103179      15.49259896       0.07702553      -0.40589323       0.00935798
H       -0.14475749      33.47227730      15.42361934       0.10049501      -0.03920838      -0.21451302
O        6.03428065      20.25918361       5.04650984      -0.10084772       0.22672397       0.71636762
H        5.30674090      19.93434793       4.43749057      -0.27802437      -0.25428659      -0.20195796
H        6.46607357      20.94181037       4.69141249      -0.01424417      -0.34029087       0.06192498
O       -9.63714408      10.92727220      10.41053187      -1.06020653       0.36896104       0.62670174
H      -10.14324777      10.12381269      10.42318181      -0.10722877       0.11389063      -0.05092402
H       -9.11662569      11.01226595      11.34905533       0.26152474       0.04673624       0.37027015
O       17.18914326      17.98129863      28.13527093      -0.40120397      -0.48295720      -1.23263959
H       17.52907069      16.98241844      28.21027936       0.34261437       0.16145548       0.02446427
H       16.34828386      18.14310588      27.66777037      -0.22077959      -0.14354175       0.01428215
O        6.72551130      18.42618093      10.90220701       0.57844721      -0.66003256      -0.03584929
H        7.23095212      18.75500396      10.20369634      -0.16753039      -0.22988167       0.18498332
H        6.70284239      17.47567046      10.68668550      -0.31880594       0.10581291      -0.18624764
O        1.03363355     -13.60620075      10.42294174      -0.65628347      -0.12062692      -0.28573178
H        0.29131873     -14.29276994      10.54737799      -0.18719539       0.25647416       0.04262696
H        2.01486355     -13.96979363      10.23228362       0.10187058      -0.23702908       0.04936751
O        0.01680227       9.20371369       1.87933749       0.65580208      -0.90354335       0.45556734
H        0.96740773       9.00671403       1.77881533       0.06639926      -0.22289690       0.29202242
H       -0.22422570       9.70239855       1.17325995      -0.21485192      -0.35760173       0.17993433
O        0.47669604       0.63618730       7.80446305       0.99647405      -0.43219832       0.76554323
H        1.03815757       0.29285923       7.05009490      -0.21275878       0.15261055       0.31002199
H        0.68225904       0.16395030       8.66941625       0.35119749      -0.11667113       0.24707762
O      -18.83248252      28.89831382     -15.93677970      -0.17190331       1.46671850      -0.45222567
H      -18.02107396      28.79063814     -16.56931831       0.44818475       0.00072622      -0.22653262
H      -18.78972192      28.37910493     -15.13399393       0.48028791      -0.06035672      -0.14790533
O        4.61605776      26.40221959      -8.27040226       0.36974373      -0.46406498       0.56606008
H        5.38452773      26.84183109      -7.72887555      -0.12873261       0.29225299      -0.09784576
H        3.81482174      26.57715047      -7.89438462      -0.30834766       0.17048674      -0.33744391
O      -18.22557310      21.55706960       1.48307614      -0.59747081      -0.46039300       0.40220808
H      -18.14808055      20.68982404       1.10520114      -0.37693407      -0.04935348       0.01165693
H      -19.16126305      21.78819234       1.31146961      -0.17535828      -0.25918625      -0.37359432
O       11.43534025      20.28410691       6.91275715       0.18023166       0.18245010      -0.00501562
H       11.65982958      21.28686972       6.69945223       0.15058730      -0.05275561      -0.05001933
H       10.41848056      20.07524162       6.73622369      -0.07953519      -0.07633696      -0.21605915
O       -9.47777277      -6.80817123       4.30175514      -1.00534549      -0.00605644       0.30403676
H       -8.99982309      -7.48173555       3.64363978       0.29626309      -0.38237484       0.11846331
H      -10.30916929      -7.15145450       4.69764406       0.51475605      -0.19436592      -0.04777404
O      -25.47003019       2.03680039      11.27612962       0.07158316      -0.95363360       0.17675581
H      -25.49659451       1.17951707      11.01382730      -0.12965417       0.23007487      -0.63578678
H      -24.65213322       2.51277522      10.84220034      -0.69115265      -0.64682396       0.51214946
O      -12.46697742      -7.44711779      19.42664448      -0.43234813      -0.88191604       0.29000275
H      -12.29404781      -8.23222087      18.88681143      -0.00580637       0.11332998      -0.21122594
H      -12.94918824      -6.91069958      18.78072430       0.14400287      -0.22957129      -0.33851879
O        8.12148447       8.60493199      17.39006309      -0.34726205       0.88627661      -1.15452529
H        8.79503272       8.01730095      17.64798122      -0.13772392      -0.19151312       0.23582719
H        8.13694520       8.65914960      16.42251759      -0.45480296       0.22606791      -0.00285821
O      -11.16393104      -0.73704647      18.50550835       0.47715249      -0.35337104       0.55488574
H      -10.70851799      -1.56639210      18.71602715      -0.17348139       0.01771906       0.04873981
H      -11.85479364      -0.98592282      17.84572535       0.00510603       0.07454614       0.16972737
O       22.64530431       4.00972239      19.05447521      -1.04486954       0.08392882      -0.15034598
H       22.31155825       3.38217388      18.29619725      -0.02854858      -0.03130054      -0.28798552
H       22.68487698       3.58048346      19.90250430       0.12609916       0.42171669      -0.24750159
O       -4.97243138     -18.85729940      -3.79273793       0.26391358       0.18875265      -1.47520219
H       -4.11029006     -19.07120245      -3.32691746      -0.16322092      -0.09904802       0.00201518
H       -4.93224816     -19.27987523      -4.65550477      -0.26136184      -0.21323501      -0.04921096
O       27.59320538      -9.98258206      -7.17995753      -1.36032562       1.28179464       0.50310889
H       28.60147420      -9.99235181      -6.89422221       0.40585343       0.01024585      -0.09385782
H       26.93366888     -10.57193219      -6.80964067      -0.18757482       0.05785700      -0.29719212
O        7.00009151       0.37028542       5.93354633       0.61480206       0.60258882       0.91917644
H        6.94624003       0.59520749       6.90981844      -0.01253991      -0.13739141      -0.21912668
H        7.33657566      -0.50885997       5.76993830       0.13139948       0.14130059       0.09201165
O      -18.59189489      -2.01805419      24.54216831       0.49788022       0.49383143      -0.21239198
H      -18.86314413      -2.28298889      23.60153120      -0.04588433       0.18547392      -0.04158219
H      -17.82921766      -2.53712436      24.95125468       0.21432255       0.06450337       0.33043653
O        4.93335279      -6.72142860      -5.55385676       0.52141939       0.66759924       0.14666417
H        5.14133744      -6.19876448      -4.73187998      -0.08652605       0.18302940      -0.05281678
H        5.31479086      -6.39416796      -6.39741533       0.38754801       0.22023227      -0.39316615
O       12.14807315       9.78086990       6.31303543      -0.00647523      -0.36335132      -0.41693324
H       11.85085108       9.98393529       7.36714006      -0.02468232      -0.13846632       0.32417580
H       12.07968073      10.27208522       5.43309055       0.32153448      -0.28513190      -0.09816922
O        4.46309771      11.86774237      -5.12362741       0.73890690      -0.25605993      -0.14851111
H        4.00553604      11.59419612      -4.33287298      -0.10319301       0.34339860      -0.15984004
H        4.24328770      11.22234099      -5.89854481      -0.09567669      -0.08878936      -0.00184233
O       13.18655232      29.00784402      15.90266100      -0.74873244      -0.46053701      -0.14819448
H       13.68704055      28.94797652      16.76995849      -0.09755894      -0.01359885      -0.05977291
H       12.28558886      29.33060851      16.12093662       0.16955880      -0.16577716       0.35532607
O       -4.11925672       4.00996577       1.22264606       0.25535404       0.45614741       0.08081579
H       -4.42875295       5.05657000       1.29844488      -0.30181285       0.30113026       0.33260577
H       -4.84350736       3.48154554       1.51179235      -0.33500981      -0.16120243       0.26148601
O        6.57770101     -15.81988760       8.86167163       0.34889862      -0.39457533      -0.78578740
H        5.76324194     -15.30713794       8.63025490      -0.30519746      -0.37196822      -0.15795993
H        6.38963465     -16.75105694       8.92647114       0.08509988       0.05687574      -0.16259913
O        1.57730678       8.71347852      22.77341933      -1.29424365      -0.39078222      -1.14419121
H        1.44539339       7.96477742      23.32426542      -0.14570314      -0.03311483      -0.10757505
H        1.94712027       8.51111045      21.85831157       0.15438035       0.34014137       0.26051678
O       22.87467821      22.88362498      -0.31692097      -1.44619043       0.29009470       0.10226416
H       23.40156513      23.67836909      -0.17292141       0.08452207       0.06153555       0.23892442
H       22.16251271      22.64552379       0.32350514       0.22202710       0.04845688      -0.04466791
O       11.99970023       5.99643304     -16.64291719       0.69843509       0.27233463       0.43123375
H       11.80789149       5.03294411     -16.65666644      -0.05684678      -0.01250498      -0.15036196
H       12.06107279       6.46971735     -17.61432776       0.00207701       0.13722812       0.07804229
O       -7.76677820      22.84040431       1.75562382      -0.47816073      -1.38086948      -0.89677489
H       -8.63820632      22.36464975       1.71982487      -0.02230829      -0.02682411      -0.00382245
H       -7.70951594      23.34012027       2.67748117      -0.04598521       0.71406616       0.49043406
O        5.18989798     -15.66518455      17.48456892      -0.41853359       0.08907635      -0.26556302
H        5.81708444     -15.85385291      18.24919505      -0.00235775      -0.30747087      -0.10711954
H        5.05938579     -14.71839204      17.20678810       0.23374148      -0.04093556      -0.36680629
O        1.70359470      18.66253900       0.59215127      -1.06309243      -0.69485457       0.65216043
H        1.06245087      18.92264690       1.30445276      -0.11349885      -0.02257395      -0.46201404
H        1.23958075      18.54689106      -0.35860279      -0.03263125       0.09484530      -0.19455613
O       -4.75412685      -6.56195247       6.54102088      -1.35675901      -0.85486679       0.23323235
H       -4.40022835      -7.53196460       6.40874232      -0.14473147       0.13064711       0.28467116
H       -5.51816915      -6.40383352       6.00838727      -0.33862171      -0.05285449      -0.25522148
O       -3.54511960       2.29562878       8.48844509      -0.51868151       1.04216196       0.57095067
H       -2.91143183       2.66071763       9.08771606      -0.08739928      -0.04926587       0.05342900
H       -3.29479986       1.38881129       8.34388635       0.17499251      -0.07660063      -0.20650192
O       14.31335437      -6.90543855      -2.46447803       0.47347317      -0.63959468      -0.35696656
H       13.61366897      -7.15185435      -3.06561427       0.47146001      -0.09640928       0.14903737
H       15.01107131      -7.65659410      -2.51395340      -0.07979299      -0.35711282       0.22498672
O       11.48923262       3.47847090      23.59241711       0.03038393      -0.22340987       0.34209073
H       10.89346194       3.21310423      24.29813336       0.21097080       0.10307266      -0.00532462
H       12.23449058       2.98542244      23.71167196      -0.06059223      -0.14711527      -0.42185946
O        8.02800001      13.75258006      25.46770881      -0.52175973      -0.20602856       1.48009535
H        8.95230693      14.11591503      25.44439466      -0.20625286      -0.18602608      -0.19395930
H        7.99391745      12.69875020      25.30014357      -0.20899684      -0.10421002       0.05274639
O       -9.12948760       5.79768844      11.49759895       1.41721334      -0.42161755       0.21120235
H       -8.05883034       5.49048162      11.64077934      -0.56514054      -0.08890771      -0.18762634
H       -9.41026769       6.25427114      12.40314408       0.26488069       0.14920548      -0.03618397
192
Lattice="13.06480679636996 0.0 0.0 -5.291137506959427e-07 13.06480679636996 0.0 -5.291137506959427e-07 -5.291137506959427e-07 13.06480679636996" Properties=species:S:1:pos:R:3:momenta:R:3 step=90 time_fs=9.0 phase=equilibration pbc="T T T"
O       12.70539778      -2.81770449     -15.45471667       1.01204134       0.19178280      -0.31504071
H       12.10992897      -2.48680324     -16.11074148       0.27327972       0.04574721       0.04861222
H       13.35113479      -3.45495343     -15.79562249      -0.11792340      -0.08978924       0.26388300
O       25.27547770      24.43983757       0.40237437       0.11358820       0.50807377       1.08716607
H       25.41836341      25.21755987       0.78152429       0.11711853      -0.30717070      -0.01779893
H       25.48380741      24.66038323      -0.64262049       0.20760472      -0.07458036      -0.06203433
O        5.37607059       1.49997368       8.05375136       0.21555431      -0.92832262      -1.25904315
H        5.92822495       1.89372377       8.72948689       0.09549328      -0.21684525      -0.20402219
H        5.12220253       0.59737136       8.50485969       0.58097117       0.08393637      -0.17054704
O       -2.95465128      -5.68211937      -2.00116970      -0.25950107       0.65701023       1.05892506
H       -2.11186567      -5.68959418      -2.50280670      -0.25909131       0.60872353       0.00805503
H       -2.92878596      -4.67679420      -1.76334895       0.14721262      -0.23609961      -0.22717838
O        3.41745980      16.31829674      10.65280719       0.36031400       1.34722583      -0.93092420
H        3.87840020      17.04409761      10.99547460      -0.15070669      -0.17704101       0.30177482
H        3.09454661      16.31068777       9.75929329      -0.25464813      -0.21401022       0.06697763
O       -1.99684504       4.36316916       2.97736532      -0.98486150      -0.45037963       0.95245140
H       -2.54242588       4.48998599       3.77168049       0.15771208      -0.30672673      -0.57676426
H       -2.64056534       4.26346629       2.16469303       0.17983059      -0.03505263       0.01815721
O       23.87257661      13.34807882       7.31240159       0.20360760       0.46559766       0.26610438
H       24.87337894      13.53114822       7.25223815      -0.01058173      -0.36290863      -0.12879146
H       23.66138607      13.22538552       6.40397402       0.21135421      -0.46111143      -0.31547121
O       -0.71821597     -14.98648118       3.90008558      -1.49038547      -0.14320022      -0.68070594
H       -0.61485124     -15.74165327       3.22416501      -0.03931213       0.03869782       0.22900406
H       -1.37078275     -14.30527305       3.81190953       0.05585832      -0.04320939       0.55220601
O       18.44870908     -18.41021622       9.84858116       0.37602204      -0.57348367      -0.41432324
H       19.29936378     -18.66477539       9.97941058      -0.04511811      -0.14785994       0.16139101
H       17.80493587     -18.84380045      10.41228559       0.11910081       0.11900190       0.12869846
O        4.87372010     -14.19810444     -13.60581895       0.99127303      -0.53043591      -0.54629726
H        5.82635774     -14.01012974     -13.58581943      -0.37122659       0.45881326       0.13810298
H        4.55728017     -14.81824866     -12.87153722       0.16587639       0.25565045      -0.09437393
O       -4.81488939       2.23529174       4.34736673       0.32928398       0.94451623       0.23815746
H       -4.84584077       2.08088865       3.38781237      -0.02295345      -0.00292742       0.11921087
H       -5.57759792       1.93185326       4.75994742      -0.38549202       0.03367232       0.07158841
O       -5.85699267      15.26870384      27.70630332       0.59511435       0.21968726      -1.14295976
H       -6.90567878      15.29507375      27.70771282      -0.67502057       0.35376024      -0.31998476
H       -5.44479333      14.70642502      26.92425422      -0.06977586      -0.18905215       0.13902789
O        7.49541724     -15.53474157      -6.83603617       0.70357047       0.67530146       2.39734488
H        7.95612623     -16.35526831      -7.08121367       0.10802250       0.07900687       0.11549546
H        7.11829588     -15.61088921      -5.91416222       0.26788237       0.40185069      -0.75708618
O       15.43104606       7.48015466      20.54916804       0.36510547      -0.01465120       0.24789752
H       14.71408835       6.98106036      20.15154085      -0.12421960      -0.02895762       0.09003505
H       16.38656578       7.08642429      20.59932224       0.31630169       0.26632538       0.18911317
O       -0.25747971       1.07373707       0.98790469      -0.06158925       1.31230892       0.58770323
H       -0.09825709       1.25192249       1.91014113      -0.18720170       0.14690365       0.02603222
H        0.31639810       1.38757922       0.30313219      -0.15174239      -0.12193872      -0.00657983
O      -16.13114611      12.57719837      17.74943850      -0.13918459       0.43153383       0.25027038
H      -16.54047500      13.14005778      17.08247256       0.48048628      -0.49354016       0.13364350
H      -16.78706433      11.91123902      18.12942041       0.34319920       0.20294659      -0.47981461
O      -17.78025528       6.29287710      12.96512936       1.94844577       0.87285618      -0.74316871
H      -18.52853737       5.70249845      12.53246958      -0.25964566      -0.39770472       0.02697478
H      -17.04977754       6.73358185      12.51373322       0.03924708       0.53850170       0.25036928
O       -9.98651851      34.27407271     -11.48899922       0.26640412       0.49430412       0.23782126
H       -9.54381132      33.86639459     -10.73401371      -0.00244232       0.12215132      -0.22249158
H      -10.18016866      33.34823496     -11.75683548      -0.16376781      -0.10752857      -0.08852146
O       36.55994889      10.88826689      21.76670961       0.75123660       0.14823811      -0.98917908
H       36.77004763      11.71080683      21.27541594      -0.20103949      -0.28737219       0.07999453
H       35.66010785      10.84751330      22.01324800       0.54086234       0.09136102      -0.00139691
O       30.54584374     -10.99491980       2.37123409      -0.09223831      -0.10089964      -0.24878169
H       30.56242350     -11.47224746       3.19925353      -0.07726701       0.39338872      -0.30258638
H       29.91724668     -11.35101818       1.62491827       0.19052889       0.26249541      -0.26618424
O       16.37734927       9.74470663      -6.89746201      -0.04368963      -0.99938357      -0.24274368
H       16.74435463       9.78336710      -7.76576765      -0.13544773       0.05056453      -0.27369689
H       15.97155120       8.94729049      -6.53505497      -0.23045341       0.05418478      -0.08666735
O       -9.26863276       3.49280649      33.46194193       0.84015010      -1.06699885       0.41386793
H       -8.97015459       4.38917698      33.50875727       0.12612587       0.27242734      -0.05570682
H       -8.58911907       2.94840323      33.81379895      -0.08794793       0.06170150      -0.12664048
O        3.26086745       1.17266941       0.10021838       1.65296363       0.93810655       0.26232874
H        3.18458187       1.95155522      -0.49358844       0.28894583      -0.37925050       0.10022383
H        3.81087608       0.43231814      -0.26822561      -0.12510467       0.14640558      -0.09749752
O       23.47471684       1.95872326      12.99387955      -0.71129319       0.13590974      -0.04239704
H       23.26715425       2.69173678      13.59185756       0.08035886       0.27447835       0.09042644
H       24.23491258       1.44951450      13.28959618       0.09202667      -0.42251048      -0.03611318
O        0.07900951      32.50868683      15.66717398      -0.46834421       0.94283782       1.63717148
H       -0.58971930      31.85687557      15.49199649      -0.05846843      -0.44901856      -0.00368153
H       -0.13398522      33.45375491      15.40598059       0.11682416      -0.31404487      -0.13826582
O        6.03191551      20.25836769       5.05099458      -0.62175904      -0.30604567       0.78095821
H        5.28628824      19.91225787       4.42684461      -0.12501253      -0.17583431      -0.00454739
H        6.48032069      20.93054818       4.68676316       0.30572145       0.11567795      -0.15545234
O       -9.64291223      10.92965418      10.41467797      -0.91158848       0.51261162       0.81581651
H      -10.15365059      10.13155777      10.41906754      -0.11393732       0.04899812      -0.02592430
H       -9.09754872      11.01478386      11.37345024       0.12552194       0.01080060       0.14155710
O       17.18623805      17.97692862      28.12691370      -0.38384745      -0.76847297      -1.22388371
H       17.55564631      17.01327641      28.21025540       0.21146016       0.48269559      -0.00991135
H       16.33089397      18.12512425      27.67089193      -0.12281894      -0.21506777       0.06806099
O        6.72822249      18.42091169      10.90246513       0.36231273      -0.87725062       0.23492325
H        7.22508564      18.74112967      10.20755662       0.05902794      -0.03924998      -0.10895545
H        6.67174892      17.48464032      10.67042410      -0.31509225       0.07870816      -0.14207376
O        1.03007793     -13.60715373      10.42064289      -0.49310328      -0.31032647      -0.36226988
H        0.28207688     -14.25904258      10.54977872      -0.00620413       0.41876295       0.01392790
H        2.00948826     -13.98819482      10.24020423      -0.20473455      -0.15057586       0.11916990
O        0.02162043       9.19696163       1.88338698       0.90819481      -1.20097420       0.87325155
H        0.96994352       8.98657146       1.80843105      -0.01334474      -0.18276986       0.31330155
H       -0.25351675       9.68199557       1.16923984      -0.38056187      -0.06636652      -0.24910569
O        0.48317469       0.63280396       7.80919456       1.09258779      -0.64871011       0.88909830
H        1.01161329       0.31007279       7.08906505      -0.30419005       0.18465220       0.45609965
H        0.71467342       0.15875522       8.68208432       0.31264243       0.01312016       0.01211210
O      -18.83241045      28.90651619     -15.93957624       0.02467983       1.47097018      -0.60752057
H      -17.98635812      28.79003289     -16.58202163       0.24695714       0.00732847      -0.04312918
H      -18.74125173      28.37212092     -15.14987372       0.49913236      -0.06307992      -0.18822982
O        4.61969428      26.39870570      -8.26668304       0.81104544      -0.42373481       0.58750427
H        5.36076249      26.86303418      -7.74476738      -0.35236480       0.15889147      -0.23003396
H        3.77228769      26.59681924      -7.92061086      -0.51664847       0.23983001      -0.22662829
O      -18.22953819      21.55378235       1.48540643      -0.88403485      -0.41761919       0.37288811
H      -18.18125132      20.68038129       1.10512332      -0.31149198      -0.12775040      -0.00765671
H      -19.16999992      21.76400346       1.27802809      -0.00896950      -0.22080575      -0.30500377
O       11.43522242      20.28531339       6.91221377      -0.10773787       0.39745468      -0.10802956
H       11.67020060      21.26452763       6.69900246       0.06861003      -0.38705933       0.04464633
H       10.43023314      20.07095173       6.71823106       0.32410106       0.00114760      -0.14882311
O       -9.48332544      -6.80860999       4.30303428      -0.83981472      -0.17891901       0.12964911
H       -8.97928758      -7.51041209       3.66276762       0.11565870      -0.20956689       0.27430285
H      -10.25411145      -7.16875896       4.69167654       0.55870879      -0.18808505      -0.04683788
O      -25.46845961       2.03261692      11.27697262       0.13032393      -0.45705615       0.24307240
H      -25.50900886       1.18073609      10.94319684      -0.14415753      -0.19445518      -0.80319044
H      -24.72749834       2.44512301      10.89623862      -0.78992667      -0.69034446       0.56504801
O      -12.46937791      -7.45228025      19.42727069      -0.46720583      -0.86727252       0.09312071
H      -12.29178967      -8.22127788      18.87105958       0.04723297       0.10173492      -0.09961102
H      -12.93395609      -6.93242107      18.75271418       0.16016030      -0.21661289      -0.22207991
O        8.11864692       8.61057236      17.38237515      -0.47980533       1.01394303      -1.17415415
H        8.78755437       7.99308033      17.67136654      -0.03640777      -0.27788996       0.23821101
H        8.09375521       8.68012406      16.41797582      -0.42261147       0.20365567      -0.08145277
O      -11.16098201      -0.73945589      18.50807588       0.38374512      -0.41788773       0.46526857
H      -10.72644858      -1.56353845      18.72000930      -0.19039628       0.02332276       0.04936674
H      -11.84874632      -0.97594928      17.86748282       0.09607229       0.12520043       0.27231258
O       22.63788148       4.01005430      19.05200536      -1.16106354       0.08222485      -0.51419002
H       22.31194935       3.38673502      18.27951796       0.04920900       0.12547893      -0.04119931
H       22.69665965       3.61732674      19.88319772       0.13133993       0.31654471      -0.09932227
O       -4.97015372     -18.85583036      -3.80149405       0.41959456       0.11235975      -1.42143912
H       -4.13509715     -19.07667978      -3.33080231      -0.33738096      -0.02694517      -0.07926400
H       -4.95730216     -19.29932671      -4.66013967      -0.25349265      -0.19465992      -0.04323813
O       27.58476032      -9.97421832      -7.17651867      -1.12846487       1.35400078       0.54302369
H       28.62638432      -9.99184379      -6.90468714       0.12389210      -0.00578996      -0.12232504
H       26.91815000     -10.56653630      -6.83664518      -0.11857309       0.04023318      -0.25667054
O        7.00352512       0.37429026       5.93944990       0.56696907       0.70484910       1.02982677
H        6.94440239       0.57865089       6.87927984      -0.02218336      -0.19383371      -0.37216705
H        7.34963119      -0.49738868       5.78183740       0.14335673       0.08768266       0.15329560
O      -18.58794487      -2.01547619      24.53958810       0.61367729       0.33246944      -0.38795998
H      -18.86155512      -2.26123491      23.61171032       0.06736121       0.25366340       0.25680829
H      -17.82178135      -2.52032005      24.97285596      -0.07832320       0.28296740       0.11953247
O        4.93665240      -6.71644663      -5.55291034       0.61060182       0.89488578       0.08550451
H        5.13003005      -6.18788905      -4.74901228      -0.13705138       0.04025304      -0.29253069
H        5.34904704      -6.37492458      -6.42680902       0.30728880       0.16325936      -0.19647502
O       12.14749816       9.77876876       6.31056010      -0.06291756      -0.24466109      -0.31193228
H       11.85067953       9.97114114       7.38161450       0.02717716      -0.11696665      -0.02330325
H       12.11106488      10.23991955       5.43614605       0.32616244      -0.35591601       0.14550565
O        4.46752371      11.86527612      -5.12511892       0.75157253      -0.43107214      -0.39504462
H        3.99266487      11.62717366      -4.34781072      -0.16527696       0.33725365      -0.13782167
H        4.23507006      11.22183940      -5.88673840      -0.07006240       0.08399566       0.23744539
O       13.18159855      29.00415168      15.90204929      -0.73049021      -0.47441116       0.08113899
H       13.67124385      28.94555768      16.75167252      -0.20366478      -0.02226117      -0.28893090
H       12.30711598      29.31213135      16.15340749       0.25214068      -0.18512107       0.32088359
O       -4.11773476       4.01348982       1.22318881       0.16332271       0.69560912       0.12538658
H       -4.45498865       5.07188297       1.32844491      -0.23942437       0.02123574       0.28138116
H       -4.87491660       3.46785312       1.53726936      -0.27222816      -0.08758642       0.24480543
O        6.57932904     -15.82148138       8.85642836       0.24394765      -0.25992281      -0.84590024
H        5.74102343     -15.34839992       8.61639395      -0.14292025      -0.48104782      -0.12068784
H        6.39718651     -16.74564351       8.91089774       0.07410378       0.03030443      -0.15029354
O        1.56973590       8.71082109      22.76520543      -1.16446457      -0.38620662      -1.29485429
H        1.43083729       7.95682808      23.31377104      -0.15201075      -0.12477548      -0.09613398
H        1.95726063       8.54475895      21.89142904       0.06324860       0.34604497       0.40749800
O       22.86503894      22.88477647      -0.31619048      -1.45022110       0.31449326       0.11969475
H       23.40728327      23.67907699      -0.14759034       0.04178583      -0.04142607       0.27921326
H       22.18910731      22.64901446       0.32182277       0.32385172       0.03302155       0.02627459
O       12.00363976       5.99795452     -16.64051871       0.70148231       0.28234428       0.19199337
H       11.80313770       5.03811512     -16.67082457      -0.03337518       0.12163048      -0.15018070
H       12.05837860       6.47656805     -17.59596211      -0.04965904       0.00462143       0.29058189
O       -7.76987622      22.83138944       1.75081203      -0.59799096      -1.33844286      -0.65715765
H       -8.63325469      22.36525831       1.72054317       0.11270269       0.04916423       0.01921826
H       -7.71608918      23.40035103       2.71282463      -0.09079928       0.53155351       0.23435881
O        5.18733279     -15.66371143      17.48270168      -0.37082190       0.23589075      -0.18317806
H        5.81261748     -15.87973685      18.22957079      -0.08257519      -0.23215277      -0.28006386
H        5.08402147     -14.73154827      17.17655568       0.27229786      -0.22768856      -0.23878681
O        1.69637810      18.65764593       0.59562080      -1.24636651      -0.73254320       0.45592614
H        1.05512058      18.91687920       1.25184541      -0.06347156      -0.07409676      -0.58792602
H        1.24248677      18.55825529      -0.36233290       0.09147967       0.14892196       0.11948146
O       -4.76190183      -6.56793888       6.54232072      -1.25630990      -1.13796978       0.23323770
H       -4.41981125      -7.50522336       6.43727402      -0.25430997       0.40076643       0.30146987
H       -5.55181536      -6.41075886       5.98357531      -0.32258220      -0.09897540      -0.22838904
O       -3.54850664       2.30185707       8.49164717      -0.60745626       0.98379280       0.54605410
H       -2.91547510       2.65903391       9.09609487       0.00200345       0.01504408       0.12220127
H       -3.27741368       1.38174435       8.32242408       0.17357218      -0.04243231      -0.22509352
O       14.31674962      -6.90984570      -2.46653741       0.79710884      -0.84946603      -0.30634331
H       13.65521176      -7.16150427      -3.05301961       0.34625858      -0.11434118       0.07477262
H       14.99158246      -7.67837390      -2.49187058      -0.30294960      -0.09616057       0.22765874
O       11.48805270       3.47771663      23.59358284      -0.27139917       0.00135295       0.24951255
H       10.91156364       3.22373666      24.29914560       0.15578916       0.11212344       0.05548735
H       12.25005561       2.95768332      23.67163208       0.35493206      -0.40158800      -0.39127754
O        8.02498758      13.75016950      25.47591918      -0.40894831      -0.45879207       1.43361399
H        8.92523729      14.09398305      25.42589325      -0.32048977      -0.24685728      -0.17047576
H        7.97327848      12.70354520      25.30612903      -0.20728602       0.21179370       0.08538971
O       -9.12004278       5.79525426      11.49973170       1.58857174      -0.32474644       0.58228917
H       -8.12384551       5.48565806      11.62048529      -0.78623373      -0.00062442      -0.21961126
H       -9.37742792       6.25899322      12.38106664       0.40109306      -0.04605342      -0.40020672
