192
Lattice="13.064313472975492 0.0 0.0 -5.29093771510975e-07 13.064313472975492 0.0 -5.29093771510975e-07 -5.29093771510975e-07 13.064313472975492" Properties=species:S:1:pos:R:3:momenta:R:3 step=100 time_fs=10.0 phase=production pbc="T T T"
O       12.71139305      -2.81643174     -15.45588705       1.09333402       0.20040380      -0.23745784
H       12.13240601      -2.48433948     -16.11084731       0.18836457       0.00926505      -0.07273683
H       13.33403857      -3.46156539     -15.76953222      -0.20518005      -0.06469520       0.25160723
O       25.27502753      24.44048591       0.40727380       0.05023698       0.00792470       0.51550219
H       25.43378539      25.21499020       0.79590574       0.21983202       0.26763152       0.30947022
H       25.50061135      24.64671541      -0.63707772       0.15554755      -0.18505428       0.17680389
O        5.37700970       1.49332908       8.04618498       0.15503987      -1.20907285      -1.12206866
H        5.93981270       1.87377620       8.70994762       0.15701897      -0.18062867      -0.18167611
H        5.18009103       0.61613658       8.47987291       0.60238717       0.28453404      -0.32874999
O       -2.95579015      -5.67680095      -1.99470705      -0.16556365       0.98437305       1.02567448
H       -2.14017077      -5.63590824      -2.50016597      -0.30242018       0.48407972       0.03108442
H       -2.91795498      -4.71233867      -1.78559118       0.06876580      -0.47112407      -0.22134260
O        3.41887922      16.32521147      10.64671372       0.14141936       1.10058599      -0.91995359
H        3.86921061      17.03635928      11.02566544      -0.03218983       0.03442684       0.32633976
H        3.07329765      16.29142591       9.76342095      -0.17974489      -0.16793424       0.02257527
O       -2.00323681       4.36015461       2.98226878      -1.06380192      -0.48903969       0.61291311
H       -2.52766829       4.45971339       3.71726150       0.09160746      -0.30024012      -0.45984497
H       -2.61522260       4.26139088       2.17747605       0.33138144      -0.00478287       0.23534291
O       23.87381023      13.35055662       7.31382141       0.47702665       0.49456142       0.24012900
H       24.86287070      13.49372090       7.24329743      -0.18023635      -0.39093390      -0.04700361
H       23.67831507      13.17754994       6.36843506       0.16151192      -0.50260435      -0.36356386
O       -0.72689059     -14.98756508       3.89550866      -1.33106654      -0.38864930      -0.73968366
H       -0.62099067     -15.72890696       3.25277432      -0.08756745       0.19265691       0.34087177
H       -1.37022415     -14.30763134       3.86493723      -0.05762595      -0.00721063       0.53502268
O       18.44918651     -18.41259189       9.84527529       0.02848115      -0.43620275      -0.54275331
H       19.31403671     -18.68357965       9.99878806       0.33775403      -0.24721944       0.24065208
H       17.81484147     -18.83186362      10.42713313       0.09772845       0.10968637       0.18261767
O        4.87928242     -14.20116210     -13.60814347       0.84565021      -0.62587287      -0.40683053
H        5.78815850     -13.96758498     -13.57100151      -0.36441278       0.41211965       0.15826895
H        4.58095171     -14.78555260     -12.88898081       0.31289780       0.38124063      -0.24549598
O       -4.81207497       2.24123159       4.34837232       0.47611836       0.99800264       0.17593421
H       -4.84849053       2.08016744       3.39965020      -0.03547537      -0.01079518       0.12346012
H       -5.62442835       1.93088341       4.77090235      -0.52550385      -0.03122672       0.12859118
O       -5.85387086      15.26878536      27.69750303       0.35797617      -0.00897122      -1.38304656
H       -6.95507766      15.32852982      27.67661351      -0.35572961       0.34363573      -0.29467433
H       -5.45762556      14.69427033      26.94697016      -0.19600008      -0.04685149       0.34638516
O        7.49954103     -15.53021127      -6.82107935       0.76443491       0.62488272       2.30505472
H        7.96316460     -16.34272743      -7.06873329       0.04926628       0.15319651       0.12952633
H        7.14405927     -15.57250907      -5.98657568       0.22764788       0.36878954      -0.64117633
O       15.43332049       7.47969771      20.54990490       0.55576841      -0.04360291       0.24146834
H       14.70355498       6.97725775      20.15913262      -0.06937049      -0.03850086       0.08443497
H       16.40296761       7.11525123      20.61514624       0.02029292       0.32955577       0.14971207
O       -0.25851137       1.08128197       0.99152519      -0.28140019       1.15524063       0.60728485
H       -0.11284113       1.27108270       1.91420466      -0.11195492       0.24732667       0.05890433
H        0.30889540       1.38080120       0.30002965       0.00226184      -0.01335290      -0.06163862
O      -16.13156261      12.57880689      17.75085484      -0.11555665       0.24501105       0.46439845
H      -16.49507745      13.09234516      17.09379253       0.40496327      -0.42274300       0.04835021
H      -16.74716485      11.93832212      18.07491062       0.41704350       0.31217851      -0.59595107
O      -17.76814871       6.29755211      12.96008927       1.77431398       0.72671373      -0.73714959
H      -18.54239762       5.67234300      12.53651834      -0.03501333      -0.21424419       0.06264646
H      -17.04587326       6.78469947      12.53460936       0.02369129       0.51102320       0.18773358
O       -9.98446460      34.27493995     -11.48722537       0.26607719       0.22187402       0.17507149
H       -9.54472595      33.87906842     -10.75440056      -0.01014793       0.15210940      -0.18168999
H      -10.19313426      33.35239148     -11.76300422      -0.10916579       0.21881417      -0.04584206
O       36.56419284      10.88881258      21.75946434       1.11243557       0.12651075      -1.09232288
H       36.74809742      11.68294281      21.28398885      -0.20657612      -0.23173608       0.08542378
H       35.69745834      10.85520314      22.01573403       0.20800062       0.07080647       0.08477042
O       30.54377835     -10.99497855       2.36863401      -0.19801760      -0.02495739      -0.61144928
H       30.55195717     -11.43855023       3.17338552      -0.11530969       0.26481744      -0.18392006
H       29.94375950     -11.32180081       1.61139748       0.37235354       0.32364221      -0.01143269
O       16.37640061       9.73833855      -6.89847791      -0.05527130      -0.95310108      -0.19473184
H       16.73306142       9.78531804      -7.79324004      -0.09190920      -0.00367182      -0.27546332
H       15.94978191       8.95094702      -6.54501350      -0.20569565       0.02389155      -0.12115230
O       -9.26369486       3.48634117      33.46302315       0.65986841      -0.93934904       0.34617994
H       -8.95730183       4.41980906      33.50091435       0.11466843       0.30816243      -0.08110487
H       -8.59049536       2.94731645      33.80224644       0.06230989      -0.08805916      -0.07956408
O        3.27120458       1.17818452       0.10134111       1.74378065       0.84558869       0.14609264
H        3.21366153       1.90912267      -0.48134890       0.30394720      -0.43999996       0.11617654
H        3.79262921       0.45466595      -0.27395924      -0.23126738       0.29122549      -0.02821626
O       23.46947665       1.95943260      12.99328833      -0.68814567       0.11576705       0.02981784
H       23.27581593       2.71569584      13.59777722       0.11801735       0.20417053       0.02976526
H       24.23938969       1.41230410      13.28571860      -0.00577186      -0.32058062      -0.04235070
O        0.07597064      32.51357982      15.67637870      -0.53361916       0.99346487       1.55244504
H       -0.59452917      31.81739457      15.49254873      -0.01779904      -0.31094322       0.03423096
H       -0.12308901      33.41217228      15.39510483       0.09780420      -0.48300537      -0.08024142
O        6.02641464      20.25431186       5.05559679      -1.05617094      -0.71124704       0.75662627
H        5.28327642      19.90011143       4.43644927       0.06913143      -0.05675342       0.20063255
H        6.52142001      20.95779301       4.66272972       0.50280146       0.40205572      -0.30650423
O       -9.64773270      10.93280733      10.41982368      -0.78174628       0.64172049       0.98873770
H      -10.16455817      10.13305174      10.41753721      -0.11409678      -0.00476113       0.00251150
H       -9.09160109      11.01354549      11.37622976      -0.01165974      -0.02781469      -0.07567295
O       17.18328604      17.97080363      28.11839494      -0.36976829      -0.97481879      -1.20271735
H       17.56930257      17.07379611      28.20625945       0.09019912       0.74438989      -0.04958044
H       16.32342102      18.09991057      27.67924200      -0.02054296      -0.28898284       0.12279610
O        6.72962614      18.41432350      10.90425741       0.20135659      -1.02496918       0.45329121
H        7.24051779      18.74507247      10.18388997       0.24098380       0.11991280      -0.33814225
H        6.64106405      17.48879419      10.65815537      -0.30868809       0.01933233      -0.10182597
O        1.02766600     -13.60894024      10.41779787      -0.25577255      -0.41741186      -0.43866218
H        0.28729629     -14.21370588      10.54988553       0.08852960       0.47302438       0.00082907
H        1.97508503     -13.99825797      10.25489072      -0.50045738      -0.06737775       0.19046358
O        0.02769274       9.18871457       1.88947486       1.03650340      -1.32744617       1.07357120
H        0.96488696       8.97103442       1.83873776      -0.08891692      -0.12630089       0.30423208
H       -0.29437767       9.68282924       1.13307531      -0.42601681       0.04665634      -0.42546249
O        0.48964886       0.62846174       7.81544489       0.98401667      -0.73120762       1.29041171
H        0.98580858       0.32478986       7.12820122      -0.18569424       0.09597114       0.29192128
H        0.74281088       0.16653114       8.67148118       0.26379087       0.14375422      -0.21370051
O      -18.83087264      28.91438519     -15.94314658       0.24921438       1.44331861      -0.75016894
H      -17.97246788      28.79058981     -16.57672093       0.02127301       0.02828627       0.13850495
H      -18.69182873      28.36551843     -15.16992637       0.49799616      -0.04768600      -0.23585664
O        4.62498674      26.39533860      -8.26244016       0.90489202      -0.34863926       0.69850689
H        5.31729444      26.87181528      -7.77189676      -0.51695217       0.05341209      -0.31962156
H        3.72384372      26.61982809      -7.94209771      -0.42734973       0.24091535      -0.23733184
O      -18.23529400      21.55032669       1.48758677      -1.20912331      -0.46047521       0.35703712
H      -18.20685025      20.66518851       1.10487833      -0.22389959      -0.15740903       0.00982573
H      -19.16231322      21.74477247       1.25276334       0.13937133      -0.15017901      -0.21187789
O       11.43332370      20.28749041       6.91098734      -0.35645564       0.53600164      -0.19935821
H       11.67256806      21.21293497       6.70709866      -0.00703906      -0.62459438       0.11893796
H       10.47972931      20.07441744       6.70664641       0.68219062       0.08584622      -0.08697323
O       -9.48685239      -6.80965742       4.30276507      -0.39083406      -0.23181492      -0.18351127
H       -8.97753024      -7.52152814       3.69679612      -0.08985823      -0.01984471       0.42751895
H      -10.20859416      -7.19221313       4.69294545       0.33497696      -0.31723147       0.09542351
O      -25.46790772       2.02979345      11.27879433      -0.35788310      -0.56094263       0.50101126
H      -25.52341503       1.14928253      10.85972372      -0.17211724      -0.38132407      -0.86870628
H      -24.78471790       2.38971807      10.94217687      -0.30706372      -0.38984100       0.34345464
O      -12.47186327      -7.45724284      19.42651321      -0.49261625      -0.83930292      -0.09415151
H      -12.28356458      -8.21292953      18.86598732       0.11437985       0.05702970       0.00757083
H      -12.91756344      -6.95147090      18.73612710       0.16245378      -0.17356119      -0.10753734
O        8.11532291       8.61656771      17.37456776      -0.48342652       1.02723322      -1.15399167
H        8.78237869       7.96729705      17.69018062      -0.08441657      -0.22373659       0.14903474
H        8.05473599       8.69720636      16.40659344      -0.36893208       0.14943065      -0.12946004
O      -11.15833657      -0.74186783      18.51016161       0.35752361      -0.35810249       0.45962784
H      -10.74301396      -1.56481878      18.72537399      -0.15036895      -0.06318166       0.07916880
H      -11.83936298      -0.96259617      17.89380389       0.06324870       0.14130822       0.25959580
O       22.62953572       4.01061376      19.04663903      -1.27713600       0.15460994      -0.99599437
H       22.31937585       3.40575659      18.28700130       0.11742537       0.26066167       0.20497789
H       22.70927010       3.63984580      19.88581514       0.14527850       0.14779532       0.16845469
O       -4.96719893     -18.85463252      -3.81009039       0.45130541       0.05155468      -1.44247724
H       -4.17185907     -19.07621764      -3.34014633      -0.39035186       0.01311894      -0.09833938
H       -4.98091884     -19.31615896      -4.66294334      -0.23338556      -0.16481304      -0.01656887
O       27.57753958      -9.96523741      -7.17287768      -0.88134127       1.45166548       0.55116514
H       28.62402783      -9.99278488      -6.91702388      -0.14958828      -0.02078079      -0.13356812
H       26.90822378     -10.56444797      -6.85851001      -0.06604611      -0.00941394      -0.19495729
O        7.00658573       0.37883783       5.94527585       0.51918433       0.76946861       0.89091666
H        6.94094213       0.55969919       6.84556896      -0.04767545      -0.18065569      -0.26068869
H        7.36437630      -0.49258598       5.79875962       0.16580504       0.00934770       0.19415088
O      -18.58307484      -2.01370183      24.53606940       0.74316699       0.24358831      -0.41742344
H      -18.85005167      -2.23480321      23.64500233       0.14237564       0.27591595       0.39979822
H      -17.84130861      -2.48365154      24.97413493      -0.30713367       0.44319862      -0.05513022
O        4.94055764      -6.71011574      -5.55270880       0.71865105       1.06155703      -0.11930246
H        5.11649780      -6.18792125      -4.78380366      -0.11922756      -0.02118751      -0.38304265
H        5.37320570      -6.36266115      -6.43403659       0.19092076       0.08211823       0.04424916
O       12.14652206       9.77693307       6.30911118      -0.10485428      -0.26039755      -0.04988474
H       11.85528757       9.96082887       7.36222612       0.07715580      -0.08466090      -0.36782906
H       12.14184588      10.20554017       5.45550572       0.31291880      -0.32111519       0.22093505
O        4.47210622      11.86173792      -5.12814025       0.80264631      -0.56409987      -0.63875817
H        3.97226716      11.65877365      -4.35783667      -0.25112047       0.31979708      -0.06711688
H        4.22922626      11.23693400      -5.85354816      -0.04956619       0.22177753       0.42131108
O       13.17679300      29.00002151      15.90220106      -0.67256760      -0.51792263       0.11834909
H       13.65082118      28.94084555      16.71830004      -0.17568498      -0.05732589      -0.34120818
H       12.32778268      29.29487344      16.18288786       0.15093363      -0.13560052       0.30072965
O       -4.11728888       4.01800959       1.22425779      -0.08266087       0.81902845       0.24573731
H       -4.47483258       5.06059800       1.35266363      -0.16907361      -0.25023701       0.21431517
H       -4.89105153       3.46812172       1.55706888      -0.04752749       0.10773689       0.15583755
O        6.58031137     -15.82195060       8.85063436       0.16553537      -0.09035608      -0.93517323
H        5.73414663     -15.39833030       8.60589499      -0.00711575      -0.54312872      -0.09153566
H        6.40380372     -16.74626882       8.89673374       0.06840285      -0.06386755      -0.13318343
O        1.56269825       8.70824923      22.75646215      -1.13273416      -0.33815838      -1.22683731
H        1.41579871       7.94041583      23.30334486      -0.15439135      -0.20074821      -0.10403516
H        1.96235516       8.57589369      21.92891947       0.06338823       0.28950133       0.33427220
O       22.85558849      22.88612729      -0.31565441      -1.33593904       0.41856833       0.02988472
H       23.40740178      23.66813838      -0.11889705      -0.02280071      -0.16258749       0.30733496
H       22.22090158      22.65068459       0.33070161       0.32662780       0.02175899       0.16377300
O       12.00755714       5.99959533     -16.63946340       0.72580755       0.33753960      -0.05001579
H       11.80040787       5.05525632     -16.68490471      -0.01555906       0.22350807      -0.15280964
H       12.05073378       6.46948049     -17.55600861      -0.09679974      -0.14838876       0.51584486
O       -7.77343836      22.82258078       1.74748902      -0.63786885      -1.23195690      -0.39384031
H       -8.61824471      22.37146422       1.72349156       0.16872380       0.08572329       0.04306820
H       -7.72639148      23.44018519       2.72074016      -0.12617936       0.29067299      -0.08695301
O        5.18492583     -15.66141667      17.48107400      -0.36031590       0.29751379      -0.14119009
H        5.80201155     -15.89796755      18.19518012      -0.11832237      -0.15530455      -0.39662433
H        5.11161521     -14.75826811      17.15975011       0.29578847      -0.30550208      -0.09307098
O        1.68855048      18.65214842       0.59725998      -1.25175732      -0.84110349       0.05137343
H        1.04337611      18.90964840       1.19682018      -0.21134173      -0.04463963      -0.50115335
H        1.25741580      18.57455731      -0.33473414       0.21712826       0.19782458       0.44325091
O       -4.76962808      -6.57506015       6.54332079      -1.35034992      -1.20598122       0.17026348
H       -4.44720559      -7.45938096       6.46615617      -0.29079596       0.47907289       0.29012855
H       -5.57658079      -6.42326963       5.96615488      -0.18147782      -0.16268325      -0.11909236
O       -3.55217905       2.30736398       8.49458169      -0.61802170       0.83191320       0.51947200
H       -2.91195630       2.66257948       9.10969391       0.05837065       0.05275902       0.15400871
H       -3.26170515       1.38417486       8.30020017       0.14303167       0.10574963      -0.22133221
O       14.32235249      -6.91524204      -2.46782660       1.19629135      -0.97527514      -0.13614489
H       13.67462072      -7.17466387      -3.05511930       0.05002277      -0.16235261      -0.12899011
H       14.95345944      -7.67623378      -2.46918293      -0.44939419       0.11776744       0.23718960
O       11.48579575       3.47790760      23.59386461      -0.26205084       0.06337150       0.13471258
H       10.92241530       3.23412729      24.30874219       0.07968261       0.10209630       0.15929912
H       12.29227974       2.91371653      23.63304788       0.45504085      -0.45524692      -0.38283994
O        8.02205139      13.74588559      25.48362357      -0.48626281      -0.77596235       1.39273205
H        8.89522714      14.06905631      25.40931700      -0.25149164      -0.23951608      -0.15204668
H        7.95375924      12.73948867      25.31543512      -0.18329138       0.53130153       0.12727850
O       -9.10938754       5.79321885      11.50370005       1.73270748      -0.27311977       0.80087645
H       -8.21003206       5.48980690      11.59785106      -0.93438929       0.07185587      -0.23117293
H       -9.33287749       6.24680638      12.32846486       0.48779182      -0.17292419      -0.62224269
192
Lattice="13.063779013369249 0.0 0.0 -5.290721263438276e-07 13.063779013369249 0.0 -5.290721263438276e-07 -5.290721263438276e-07 13.063779013369249" Properties=species:S:1:pos:R:3:momenta:R:3 step=110 time_fs=11.0 phase=production pbc="T T T"
O       12.71768900      -2.81481853     -15.45627122       1.11115574       0.30617219      -0.09055449
H       12.14507012      -2.48421245     -16.12427325       0.08497637      -0.00990681      -0.21264743
H       13.31382833      -3.47081000     -15.74698747      -0.18154312      -0.14480314       0.19025741
O       25.27420695      24.43851624       0.40892145       0.03672561      -0.24933214       0.06427990
H       25.45783502      25.25910938       0.83688375       0.27994617       0.58007319       0.48753750
H       25.51183884      24.62288082      -0.60721006       0.09469828      -0.28075100       0.44382464
O        5.37762362       1.48538225       8.03907338       0.12965767      -1.30538661      -1.11542351
H        5.95952093       1.85963347       8.69437259       0.25376709      -0.10554849      -0.12980192
H        5.23701158       0.64569964       8.44351923       0.55708739       0.26467854      -0.38167551
O       -2.95670858      -5.67017019      -1.98841054      -0.19522110       1.02817132       0.99606242
H       -2.16720620      -5.59418587      -2.49856834      -0.24248784       0.37896315      -0.00626736
H       -2.91468646      -4.75951332      -1.80450877       0.00589561      -0.44034209      -0.16103762
O        3.41897558      16.33059757      10.64075080      -0.05509546       0.88757538      -0.87129954
H        3.87100320      17.04780336      11.05732448       0.06160168       0.19524857       0.32376212
H        3.05910625      16.27663812       9.76266573      -0.10883140      -0.12230817      -0.03030828
O       -2.00913330       4.35676028       2.98418088      -0.84245127      -0.55617049       0.05492103
H       -2.53189454       4.43230512       3.69312195      -0.20017069      -0.25779768      -0.00316154
H       -2.57828814       4.26188720       2.20634451       0.40121490       0.01530419       0.32371954
O       23.87631903      13.35294974       7.31436885       0.63113195       0.45036418       0.01715622
H       24.83882335      13.45486104       7.24267905      -0.26824975      -0.38880092       0.04004011
H       23.69175665      13.12796487       6.33914079       0.13450411      -0.49672788      -0.21278993
O       -0.73443155     -14.98980813       3.89105327      -1.13646658      -0.50720852      -0.62739580
H       -0.63166833     -15.70829468       3.28491283      -0.12978045       0.18180542       0.28774237
H       -1.38286772     -14.30528415       3.91508903      -0.20057785       0.03765003       0.49325403
O       18.44810740     -18.41432845       9.84122426      -0.08009385      -0.39789458      -0.63132639
H       19.35486430     -18.70909290      10.02411556       0.45542685      -0.27430180       0.27614389
H       17.82333733     -18.82082721      10.44642203       0.09848775       0.10456939       0.21600776
O        4.88344345     -14.20438887     -13.61027362       0.56923195      -0.58346512      -0.52210376
H        5.76266116     -13.92664134     -13.55360876      -0.12413063       0.42681741       0.18713301
H        4.61431243     -14.74943598     -12.91014879       0.35175865       0.30497102      -0.14693606
O       -4.80928271       2.24714147       4.34955617       0.33179298       0.94418597       0.29149292
H       -4.85235435       2.07855130       3.41107403      -0.04778166      -0.02138034       0.10933851
H       -5.66935156       1.92933040       4.77959423      -0.36169757       0.01407405       0.03569063
O       -5.85204419      15.26745355      27.68725377       0.15703045      -0.20008918      -1.56245059
H       -6.97710187      15.36064404      27.64837985      -0.11134202       0.32622402      -0.26083335
H       -5.48152689      14.69523944      26.98772782      -0.28712870       0.06240870       0.48903144
O        7.50450004     -15.52567745      -6.80796338       0.96314602       0.65660387       1.84187168
H        7.96676370     -16.32697258      -7.05673200       0.03968017       0.14226821       0.10482593
H        7.15608899     -15.53796121      -6.02510261       0.00549405       0.32880331      -0.11371957
O       15.43654577       7.47903023      20.55049145       0.69248918      -0.07192899       0.22412331
H       14.70093297       6.97369243      20.16683042       0.02997059      -0.02797032       0.09162623
H       16.38854587       7.14967236      20.62659023      -0.29197797       0.37848878       0.10213385
O       -0.26085787       1.08786717       0.99526530      -0.47371161       1.01201758       0.61835642
H       -0.12021363       1.29978250       1.92075780      -0.04098928       0.34045020       0.07038771
H        0.31614222       1.38455282       0.29180697       0.13601284       0.08600639      -0.09568160
O      -16.13030816      12.57958032      17.75389560       0.37309523       0.22537447       0.75353090
H      -16.46431557      13.06456804      17.08085878       0.20617680      -0.11746209      -0.32329116
H      -16.71632288      11.95763505      18.01926118       0.14139866       0.02610793      -0.49698345
O      -17.75707186       6.30131854      12.95506262       1.59814629       0.58606938      -0.72872325
H      -18.53326051       5.66083846      12.54327779       0.20917032      -0.01426358       0.08566786
H      -17.04489800       6.83162856      12.54959606      -0.02360038       0.45262528       0.13261801
O       -9.98257166      34.27442005     -11.48615492       0.21731917       0.10625376       0.01536862
H       -9.54259145      33.89120794     -10.76471381       0.05539892       0.11740732      -0.02521750
H      -10.20105286      33.38515167     -11.76544057      -0.06843856       0.44608534      -0.02333818
O       36.57076529      10.88853548      21.75179600       1.49204150      -0.09339278      -1.09809118
H       36.72897438      11.67230285      21.28576598      -0.15055722       0.04597696      -0.04453388
H       35.69512574      10.86008956      22.02926354      -0.20809165       0.03842963       0.20792176
O       30.54118402     -10.99408858       2.36334141      -0.21433917       0.18695719      -1.06339568
H       30.53720939     -11.42248996       3.16809833      -0.16385863       0.05045245       0.08530014
H       29.98511083     -11.28875442       1.62012783       0.47792011       0.32961777       0.16323846
O       16.37546577       9.73224611      -6.89954627      -0.02639013      -0.90225159      -0.26084562
H       16.72376258       9.78181614      -7.81521922      -0.08995127      -0.05983569      -0.16687413
H       15.93003420       8.95084005      -6.55788318      -0.18607427      -0.01800085      -0.14774190
O       -9.25963595       3.48144166      33.46357970       0.55952247      -0.59804972       0.28801183
H       -8.94939646       4.44082204      33.49020206       0.03320840       0.09915679      -0.10959304
H       -8.57706368       2.93220553      33.79515411       0.18905963      -0.20101015      -0.04678584
O        3.28181583       1.18271018       0.10262849       1.73437485       0.64166039       0.32435632
H        3.24219141       1.87667333      -0.47828038       0.27879558      -0.17732305      -0.08503118
H        3.76983368       0.48243948      -0.27597873      -0.20707165       0.23829814      -0.02880186
O       23.46455953       1.95995640      12.99336023      -0.59663118       0.07926737       0.17015259
H       23.28840688       2.72966504      13.59529707       0.15929629       0.08131858      -0.07144267
H       24.22928271       1.38923252      13.27924315      -0.18583634      -0.14640903      -0.08092501
O        0.07243118      32.51760957      15.68508884      -0.61159038       0.69465081       1.50843548
H       -0.59056709      31.79691686      15.49829906       0.10410275      -0.07507628       0.09882751
H       -0.11713472      33.36494931      15.38677824       0.01102405      -0.41014932      -0.09397566
O        6.01911392      20.24894260       5.05950217      -1.19613119      -0.71208286       0.56437373
H        5.29890879      19.89901138       4.46484210       0.24608842       0.04496291       0.37819596
H        6.56787260      20.99307297       4.63415223       0.41674236       0.28675374      -0.24669789
O       -9.65180202      10.93655716      10.42603056      -0.67455010       0.71525919       1.17783413
H      -10.17412080      10.13134529      10.41866289      -0.08508511      -0.01305933       0.02879466
H       -9.09946747      11.00850208      11.35750126      -0.16055034      -0.06659436      -0.30339190
O       17.18020929      17.96425533      28.10995284      -0.42127449      -0.84177207      -1.17206123
H       17.57584996      17.14597748      28.19913955       0.09240370       0.67387337      -0.06573222
H       16.32379509      18.06746256      27.69151797       0.02511603      -0.35901656       0.14283746
O        6.73053104      18.40710839      10.90667998       0.21129066      -1.06353085       0.44037312
H        7.26578593      18.75915796      10.14876513       0.25446323       0.16389303      -0.33323396
H        6.61143583      17.48768110      10.64969947      -0.29071539      -0.02069188      -0.06299223
O        1.02709515     -13.61082688      10.41441254       0.07936581      -0.33534643      -0.52411872
H        0.29363203     -14.17182953      10.55016076       0.01318653       0.34415148       0.01931687
H        1.91343037     -14.00136640      10.27618010      -0.73158397      -0.02514351       0.24909993
O        0.03391782       9.18045153       1.89577521       0.95795237      -1.20678935       0.96789550
H        0.95352159       8.96140779       1.86678127      -0.13166623      -0.06552675       0.27058259
H       -0.33100377       9.68325631       1.09769280      -0.30674429      -0.05206257      -0.25841755
O        0.49490801       0.62404105       7.82467741       0.72495435      -0.68266359       1.80440453
H        0.98014651       0.32626938       7.13730505       0.07698561      -0.06730219      -0.11410132
H        0.76613463       0.18532404       8.64320778       0.22088677       0.22715653      -0.32878372
O      -18.82779805      28.92191931     -15.94754795       0.50783920       1.39385127      -0.89947751
H      -17.98131080      28.79369533     -16.55389709      -0.21940312       0.06262862       0.31299488
H      -18.64323174      28.36086438     -15.19437355       0.48052530      -0.02460996      -0.27347056
O        4.62968214      26.39218747      -8.25759167       0.62714162      -0.35188188       0.74570719
H        5.26567629      26.87552267      -7.80226876      -0.49469288       0.07699575      -0.28133652
H        3.69479858      26.63990347      -7.96805592      -0.14935513       0.18705735      -0.30579309
O      -18.24274794      21.54622934       1.48967082      -1.43758671      -0.60213031       0.34123862
H      -18.22284553      20.64997382       1.10786291      -0.11758598      -0.12930951       0.05555088
H      -19.14514060      21.73435187       1.23606305       0.17164371      -0.03872200      -0.13561968
O       11.43042026      20.28976664       6.90946129      -0.36514438       0.42170536      -0.17315168
H       11.67051161      21.15243142       6.71895502      -0.00116828      -0.51726949       0.11190942
H       10.55212514      20.08437891       6.69872404       0.71528121       0.11311371      -0.08994581
O       -9.48725257      -6.81088597       4.30036067       0.11843857      -0.26547921      -0.53397398
H       -8.99607351      -7.51290140       3.74568542      -0.29272776       0.19096028       0.57455182
H      -10.18994598      -7.23127196       4.71142744       0.05083076      -0.48418536       0.28392717
O      -25.47178486       2.02438190      11.28226208      -1.23306390      -1.20120427       0.74638178
H      -25.54036931       1.11759514      10.77913251      -0.19332423      -0.23019917      -0.75357250
H      -24.77031977       2.37682471      10.95621424       0.56921870       0.11615975      -0.03440385
O      -12.47439832      -7.46199241      19.42470882      -0.49527335      -0.80811976      -0.22268437
H      -12.26816040      -8.21064000      18.87039103       0.19287729      -0.02223615       0.09507554
H      -12.90222074      -6.96447277      18.72907494       0.13560296      -0.09263503      -0.02947922
O        8.11223332       8.62237017      17.36681215      -0.40835917       0.97285307      -1.14506541
H        8.76793694       7.95151390      17.69767077      -0.20966701      -0.08672713       0.01715549
H        8.02176990       8.70818216      16.39352499      -0.29782530       0.08296570      -0.11491354
O      -11.15550254      -0.74367302      18.51245978       0.43194793      -0.24041276       0.54742844
H      -10.75430760      -1.57661519      18.73427186      -0.09198825      -0.17629263       0.11814398
H      -11.83931988      -0.94942399      17.91313826      -0.08443913       0.12460286       0.14074455
O       22.62050456       4.01168615      19.03866278      -1.34928916       0.25718247      -1.28882745
H       22.33190166       3.43466476      18.31560879       0.14733964       0.31161195       0.37222086
H       22.72279572       3.64736368      19.91062069       0.14723711       0.02324532       0.32205189
O       -4.96462673     -18.85362143      -3.81911883       0.28998705       0.03443550      -1.56461571
H       -4.20454159     -19.07446401      -3.34595981      -0.25413357      -0.00198855      -0.00542793
H       -5.00215317     -19.32991258      -4.66315699      -0.20539442      -0.13423212       0.00601279
O       27.57180376      -9.95560900      -7.16920128      -0.61851985       1.54951009       0.55171474
H       28.59478593      -9.99495212      -6.92984208      -0.42785713      -0.03105938      -0.13410823
H       26.90316116     -10.56774870      -6.87396130      -0.01320265      -0.06545167      -0.12882557
O        7.00941505       0.38354313       5.94945810       0.50296835       0.75461639       0.53139021
H        6.93370555       0.54539710       6.83582918      -0.09864904      -0.10740621       0.08700488
H        7.38115377      -0.49469685       5.81852003       0.18144707      -0.04400212       0.21400342
O      -18.57761436      -2.01186145      24.53298356       0.75134883       0.37484479      -0.23230182
H      -18.83460940      -2.21018058      23.67748585       0.14680605       0.21242431       0.23220217
H      -17.87170526      -2.44021852      24.96493138      -0.27990294       0.41044854      -0.08394538
O        4.94500302      -6.70318861      -5.55433888       0.78635048       1.08511962      -0.51160166
H        5.10899772      -6.18664628      -4.81570017      -0.02517565       0.06370075      -0.24592036
H        5.38579693      -6.35840936      -6.41780691       0.07226788       0.00070600       0.28167786
O       12.14521738       9.77451478       6.30986092      -0.16495247      -0.41508734       0.40895462
H       11.86530653       9.95407024       7.30889956       0.14294744      -0.04626682      -0.72513281
H       12.17102781      10.17982692       5.47260680       0.29750468      -0.18645358       0.10895921
O        4.47711222      11.85766107      -5.13217561       0.89518154      -0.57690239      -0.69543964
H        3.94400619      11.68879601      -4.36072636      -0.31839844       0.30870886      -0.00185275
H        4.22371064      11.25964963      -5.81001774      -0.07168953       0.21983347       0.42517695
O       13.17219203      28.99551150      15.90173410      -0.66755290      -0.56084624      -0.08801424
H       13.64120813      28.93116292      16.69166509       0.01048066      -0.12099752      -0.16090163
H       12.33196089      29.28455993      16.21121768      -0.05865525      -0.05084912       0.29350220
O       -4.11848232       4.02326928       1.22615688      -0.35809165       0.96249499       0.38979990
H       -4.48697205       5.02201116       1.36973737      -0.07813590      -0.54313211       0.13495434
H       -4.88314778       3.48899493       1.56713492       0.19700884       0.31333272       0.05481617
O        6.58099710     -15.82149675       8.84425786       0.16176694       0.00610308      -1.02056161
H        5.73542756     -15.45016834       8.59686598       0.01403837      -0.51750353      -0.09343832
H        6.41068652     -16.75690064       8.88429279       0.08331879      -0.16135862      -0.11426898
O        1.55543284       8.70598225      22.74883146      -1.22989601      -0.29136225      -0.92822576
H        1.40098346       7.91882278      23.29053549      -0.14602032      -0.22345103      -0.14680303
H        1.97288187       8.59931107      21.94815590       0.16632453       0.19596911       0.05920595
O       22.84688928      22.88816239      -0.31599538      -1.19592395       0.54469885      -0.15350381
H       23.40161302      23.64682487      -0.08796131      -0.06841934      -0.24415760       0.32720751
H       22.24813428      22.65140193       0.35508151       0.24318224       0.00896876       0.34195932
O       12.01164046       6.00174532     -16.63961673       0.76613630       0.44525489      -0.18022692
H       11.79856378       5.07825449     -16.69960423      -0.01711120       0.23030986      -0.16411173
H       12.03889277       6.44785191     -17.49659952      -0.13329246      -0.27190963       0.65113499
O       -7.77681714      22.81466526       1.74588749      -0.54201643      -1.03086635      -0.10971793
H       -8.60421098      22.37790616       1.72881401       0.08694938       0.05193919       0.06705344
H       -7.74008209      23.45390743       2.69426461      -0.16140125       0.01354558      -0.44731195
O        5.18230048     -15.65913309      17.47944060      -0.44763611       0.21183220      -0.17405951
H        5.79238559     -15.90947730      18.15479741      -0.05283027      -0.10138980      -0.39169505
H        5.14105919     -14.78393715      17.15587811       0.31298104      -0.20120300       0.01648072
O        1.68118346      18.64579014       0.59618553      -1.10089882      -0.97851712      -0.34938812
H        1.00985842      18.90858670       1.15960275      -0.48076848       0.04194738      -0.24879219
H        1.28373723      18.59436503      -0.28072900       0.30597364       0.21720355       0.60970647
O       -4.77844438      -6.58145681       6.54390741      -1.60596083      -0.91018043       0.10980412
H       -4.47139399      -7.42375457       6.49235433      -0.18643637       0.18787062       0.25058383
H       -5.58668573      -6.44156337       5.96012226      -0.03353145      -0.21479541      -0.00022897
O       -3.55567065       2.31191515       8.49745695      -0.55857131       0.69094015       0.54019230
H       -2.90589106       2.66776019       9.12337753       0.05356520       0.04992858       0.12494751
H       -3.24954626       1.40309034       8.27902609       0.10420771       0.28029984      -0.20561126
O       14.32989345      -6.92095869      -2.46809891       1.39089012      -0.94475459      -0.00731590
H       13.66503642      -7.19176861      -3.07666789      -0.21151657      -0.18475920      -0.29473212
H       14.90816464      -7.66066380      -2.44528611      -0.42995275       0.15101576       0.25214184
O       11.48437901       3.47784460      23.59344854      -0.03403353      -0.05631547       0.05177446
H       10.92798181       3.24351567      24.32682172       0.05475278       0.09630174       0.22062023
H       12.32854135       2.87478175      23.59566319       0.27371881      -0.32417593      -0.36055119
O        8.01800956      13.73974078      25.49110191      -0.74090793      -0.98905639       1.39549375
H        8.88196479      14.04897687      25.39369608       0.01032082      -0.14921766      -0.15038220
H        7.93694454      12.80080000      25.32863449      -0.16005491       0.67413868       0.15691161
O       -9.09897690       5.79139459      11.50768545       1.45810317      -0.25070956       0.56381233
H       -8.28596051       5.49232593      11.57582023      -0.53110633      -0.05185882      -0.20483448
H       -9.28659919       6.23304098      12.27335194       0.43112886      -0.05847908      -0.41604053
192
Lattice="13.063279519082027 0.0 0.0 -5.290518972428632e-07 13.063279519082027 0.0 -5.290518972428632e-07 -5.290518972428632e-07 13.063279519082027" Properties=species:S:1:pos:R:3:momenta:R:3 step=120 time_fs=12.0 phase=production pbc="T T T"
O       12.72384158      -2.81227454     -15.45585908       1.03861335       0.49525884       0.01630318
H       12.14970189      -2.48705360     -16.14903369       0.03249091      -0.05826435      -0.29261953
H       13.29923921      -3.49136907     -15.73196210      -0.10816135      -0.28079451       0.10605378
O       25.27371511      24.43642530       0.40855411       0.13174563      -0.07375332      -0.13626182
H       25.48297799      25.31011087       0.88180006       0.24254971       0.42523302       0.39936578
H       25.51686070      24.59045139      -0.54938670       0.02979898      -0.36253532       0.73809085
O        5.37835987       1.47787004       8.03159579       0.19258088      -1.07928762      -1.22619330
H        5.98793916       1.85272753       8.68311986       0.32330585      -0.04053361      -0.10457521
H        5.28640698       0.65660576       8.41017029       0.45671345      -0.08189076      -0.27714356
O       -2.95816383      -5.66454901      -1.98235773      -0.32589657       0.68454004       0.94903041
H       -2.18586250      -5.55933913      -2.50188842      -0.13882791       0.34081120      -0.06571008
H       -2.91452355      -4.78689852      -1.81587883       0.00319796      -0.08571713      -0.07149889
O        3.41808088      16.33507666      10.63528413      -0.18101960       0.79778820      -0.76990673
H        3.87813571      17.06829270      11.08559546       0.07127476       0.21113827       0.25083705
H        3.05217408      16.26633787       9.75690772      -0.02851809      -0.07569469      -0.07693458
O       -2.01307380       4.35307977       2.98330362      -0.45701096      -0.57740468      -0.22249107
H       -2.56614066       4.40852059       3.71568020      -0.48162077      -0.23234472       0.43471629
H       -2.54295346       4.26309599       2.23151755       0.28924990       0.00757598       0.14792021
O       23.87925258      13.35489992       7.31336059       0.58450102       0.34289812      -0.25614780
H       24.81511764      13.41816234       7.25031206      -0.16057960      -0.34827490       0.12093766
H       23.70232706      13.08083794       6.32818329       0.09926975      -0.45513214      -0.00396263
O       -0.74088672     -14.99216885       3.88781203      -0.98985620      -0.41540574      -0.36302735
H       -0.64581768     -15.69819598       3.30306277      -0.16036288      -0.00711081       0.06944105
H       -1.40752645     -14.30122259       3.96008605      -0.29380161       0.02046490       0.43122221
O       18.44728245     -18.41627106       9.83692869       0.06932670      -0.47864652      -0.63260528
H       19.39137140     -18.73251121      10.04948693       0.27575991      -0.20987364       0.24204495
H       17.83384088     -18.80909189      10.46695485       0.13502730       0.12480989       0.20690907
O        4.88600534     -14.20689374     -13.61396066       0.35412605      -0.39488284      -0.86150172
H        5.76521825     -13.88226193     -13.53373047       0.16088190       0.46997142       0.20727356
H        4.64571018     -14.73107039     -12.90886241       0.28924835       0.04930956       0.17816906
O       -4.80785257       2.25258340       4.35178123       0.06700293       0.85587060       0.49427092
H       -4.85736856       2.07567916       3.41977105      -0.05834069      -0.03650832       0.06830778
H       -5.69047109       1.93459392       4.77593918      -0.06835937       0.09690317      -0.10807229
O       -5.85166004      15.26557068      27.67661748      -0.12868518      -0.17485373      -1.50596060
H       -6.97668649      15.39030530      27.62342290       0.11737586       0.29092680      -0.23211810
H       -5.50946682      14.69941685      27.03258238      -0.26724307      -0.00590765       0.40239088
O        7.51080941     -15.52081419      -6.79807034       1.17707795       0.73949924       1.31224701
H        7.97131175     -16.31573044      -7.04830500       0.06109425       0.07033448       0.06389319
H        7.14307186     -15.50699571      -6.00556483      -0.25897966       0.29360689       0.49071933
O       15.44041140       7.47832685      20.55106173       0.72091308      -0.04434639       0.21927886
H       14.70747754       6.97074405      20.17534217       0.10954995      -0.03291331       0.09680774
H       16.35090383       7.18638316      20.63376103      -0.40904095       0.35985448       0.06524248
O       -0.26409547       1.09374853       0.99894086      -0.56429717       0.92929762       0.58233850
H       -0.12120483       1.33672767       1.92616292       0.01815262       0.41483098       0.03265443
H        0.33245125       1.39591880       0.28440429       0.18148687       0.13909344      -0.03787213
O      -16.12546934      12.58106929      17.75845599       0.97124093       0.43722621       0.92042014
H      -16.45222847      13.06708977      17.03107534       0.04942085       0.14687661      -0.64274976
H      -16.72394914      11.93628345      17.97903005      -0.30112115      -0.44309541      -0.32476299
O      -17.74712238       6.30426445      12.95009809       1.41978590       0.45221968      -0.72845836
H      -18.49992175       5.66956938      12.55228182       0.46145812       0.19970339       0.11036737
H      -17.04981210       6.87161155      12.55987640      -0.09157638       0.37117454       0.08964900
O       -9.98087336      34.27414001     -11.48598638       0.23157277       0.28066773      -0.07739475
H       -9.53249666      33.89881230     -10.75781321       0.14165772       0.06889589       0.15190094
H      -10.20783921      33.42672430     -11.76967729      -0.09371877       0.37496288      -0.09311832
O       36.57906565      10.88682309      21.74441143       1.60714641      -0.30513713      -1.03030620
H       36.71549591      11.69043107      21.27407215      -0.10409363       0.30824129      -0.16167811
H       35.66303063      10.86201451      22.05189715      -0.35522117       0.01161537       0.25196124
O       30.53913216     -10.99163477       2.35598743      -0.04158377       0.48234343      -1.23440969
H       30.51724305     -11.42718722       3.18778545      -0.22263855      -0.14503589       0.29624657
H       30.02836040     -11.26057901       1.63503256       0.40045183       0.21950070       0.09895109
O       16.37480359       9.72647566      -6.90124798       0.01405148      -0.85807896      -0.38238101
H       16.71370934       9.77302454      -7.82333708      -0.10344358      -0.11190398      -0.00267337
H       15.91251425       8.94733470      -6.57334609      -0.15836259      -0.04269380      -0.17611677
O       -9.25580509       3.47862629      33.46403540       0.59443781      -0.29607491       0.28786092
H       -8.95068257       4.43626794      33.47736233      -0.06671376      -0.19007677      -0.12446738
H       -8.55769416       2.91286241      33.78791545       0.17693216      -0.16710597      -0.08929571
O        3.29201379       1.18619318       0.10564739       1.61863240       0.54105633       0.65826017
H        3.26738796       1.87769250      -0.49989300       0.24159967       0.18619846      -0.34606574
H        3.75598309       0.49478393      -0.28215831      -0.06299687      -0.00382371      -0.10609468
O       23.46025468       1.96025284      12.99430425      -0.52468598       0.04412336       0.28820304
H       23.30484732       2.73142515      13.58310492       0.19555233      -0.03816413      -0.16260091
H       24.20191490       1.38347211      13.26931415      -0.34439991       0.02148996      -0.10681631
O        0.06857925      32.51905491      15.69384772      -0.62965907       0.16862075       1.55313548
H       -0.57443147      31.80001994      15.51054175       0.21814207       0.15303734       0.16198838
H       -0.12302691      33.33682494      15.37276216      -0.13809525      -0.11992655      -0.19168659
O        6.01170312      20.24432739       5.06221343      -1.10312290      -0.51852785       0.40877108
H        5.32643944      19.90525925       4.50614699       0.28661455       0.08181619       0.44248902
H        6.59863978      21.00798341       4.61668091       0.21297243       0.03100808      -0.10475003
O       -9.65523971      10.94062627      10.43355435      -0.56437835       0.74120777       1.40722044
H      -10.17946724      10.13101497      10.42222865      -0.03024035       0.01817374       0.05214898
H       -9.12298223      10.99963486      11.31500075      -0.33142701      -0.10631640      -0.56257007
O       17.17657793      17.95977392      28.10178922      -0.55479816      -0.36065725      -1.13494164
H       17.59208275      17.19191049      28.19251336       0.27754980       0.24743734      -0.04354310
H       16.32342656      18.02933854      27.70300565      -0.03745341      -0.40537707       0.10618683
O        6.73188658      18.39992006      10.90847348       0.32064172      -1.04517754       0.26525918
H        7.28580280      18.77250859      10.12335389       0.15173286       0.11449282      -0.16630485
H        6.58458112      17.48485540      10.64495467      -0.25168946      -0.01647995      -0.02677110
O        1.02807855     -13.61136610      10.41060722       0.20172009       0.03649927      -0.57923406
H        0.28532818     -14.14973253      10.55373926      -0.20243075       0.08627785       0.06648461
H        1.84435653     -14.00792622      10.30063428      -0.61382060      -0.15425290       0.25074180
O        0.03915137       9.17343729       1.90107539       0.73072760      -0.95643253       0.78921475
H        0.94218220       8.95692263       1.89098102      -0.08189860      -0.02381165       0.22556733
H       -0.35298041       9.67103457       1.08545998      -0.14826693      -0.18311751       0.00219334
O        0.49853396       0.62021377       7.83627167       0.47738874      -0.54887133       1.98029050
H        0.99832966       0.31332977       7.10832572       0.26662605      -0.17942033      -0.43170919
H        0.78813665       0.20640635       8.61510612       0.24735225       0.18099832      -0.19525233
O      -18.82312268      28.92920006     -15.95294278       0.77116135       1.33913194      -1.04968218
H      -18.01299024      28.80125110     -16.51626333      -0.42819723       0.11861596       0.42556736
H      -18.59754012      28.35792004     -15.22013316       0.43701727      -0.01818063      -0.25376132
O        4.63181567      26.38860977      -8.25293125       0.10681441      -0.50506253       0.65134158
H        5.22789989      26.89036932      -7.82135764      -0.25055507       0.26954449      -0.10126630
H        3.69510944      26.65343025      -8.00114104       0.15177699       0.10998635      -0.37745475
O      -18.25119384      21.54109430       1.49166894      -1.51847284      -0.80857237       0.33007764
H      -18.22812360      20.63935918       1.11592583      -0.00478656      -0.07040160       0.11082954
H      -19.13211689      21.73659279       1.22496655       0.06015125       0.10588980      -0.09739424
O       11.42883535      20.29060281       6.90868993       0.04040087       0.08383917       0.02974613
H       11.67549601      21.12324838       6.72576457       0.12440879      -0.02692368       0.02622470
H       10.59964890      20.09028360       6.68438031       0.20571561       0.00875743      -0.21588340
O       -9.48517972      -6.81244054       4.29623329       0.36522540      -0.31842052      -0.70013807
H       -9.03069754      -7.48628234       3.80552267      -0.39184207       0.31301984       0.62356169
H      -10.19222407      -7.28241776       4.74492250      -0.06333501      -0.54159323       0.38280422
O      -25.48003168       2.01530894      11.28646656      -1.66497499      -1.66938557       0.71433816
H      -25.55806160       1.10730018      10.71373947      -0.18403944       0.02233822      -0.57876184
H      -24.68852550       2.40250701      10.94258293       0.97841019       0.35037347      -0.18859353
O      -12.47691371      -7.46660301      19.42236734      -0.47638695      -0.79029715      -0.29116202
H      -12.24490381      -8.21734918      18.88256721       0.27423566      -0.12303823       0.16896196
H      -12.89127062      -6.96789293      18.72744479       0.07430400       0.02080448       0.00451878
O        8.10966146       8.62783893      17.35907807      -0.33466775       0.92236920      -1.16270764
H        8.74106420       7.94987579      17.69223055      -0.32801746       0.05407436      -0.11200606
H        7.99659156       8.71276216      16.38434586      -0.21006690       0.01845625      -0.05621592
O      -11.15206229      -0.74489251      18.51546312       0.54752464      -0.18514047       0.65699184
H      -10.76115833      -1.59686899      18.74622608      -0.06566267      -0.22359457       0.13608253
H      -11.85490978      -0.93837256      17.91961544      -0.23264375       0.10356055       0.01587014
O       22.61141879       4.01366710      19.03021560      -1.30649949       0.45862582      -1.14650371
H       22.34320526       3.45971923      18.35074519       0.08406186       0.16839922       0.31924905
H       22.73524564       3.64685307      19.93979884       0.12138753      -0.01662470       0.25714700
O       -4.96346208     -18.85265563      -3.82909093       0.02415423       0.04682029      -1.72953777
H       -4.21773736     -19.07606732      -3.33895013      -0.01767908      -0.04651807       0.14699896
H       -5.02027283     -19.34095897      -4.66186985      -0.16861472      -0.10881377       0.01453632
O       27.56767872      -9.94546562      -7.16553000      -0.40492338       1.62836625       0.55164540
H       28.53927251      -9.99797323      -6.94212479      -0.67009386      -0.04032568      -0.11718756
H       26.90430568     -10.57566516      -6.88340612       0.06366091      -0.10106065      -0.07191739
O        7.01228542       0.38793978       5.95137513       0.52396436       0.67494532       0.19444991
H        6.92094124       0.53860566       6.86115391      -0.15623064      -0.03709931       0.40928335
H        7.39821098      -0.49892088       5.83985412       0.16841678      -0.03030523       0.22886231
O      -18.57279499      -2.00851631      24.53143718       0.56312383       0.70858479       0.03402107
H      -18.82173791      -2.19501928      23.68097133       0.09866144       0.09378157      -0.15829225
H      -17.88597454      -2.40887636      24.96092304       0.00096903       0.21409472       0.03919297
O        4.94968803      -6.69640620      -5.55864927       0.78767606       1.03538163      -0.94744867
H        5.11057155      -6.17238508      -4.82808993       0.05392851       0.22867921      -0.00777207
H        5.38729228      -6.36158687      -6.37982443      -0.03028929      -0.06542454       0.47658512
O       12.14353531       9.77088179       6.31357154      -0.21644914      -0.66427580       0.81603266
H       11.88172884       9.95154224       7.22408706       0.18694052       0.01380598      -0.94683195
H       12.19917946      10.16939463       5.47369971       0.29022107      -0.01894315      -0.08169629
O        4.48279859      11.85405297      -5.13566204       1.01207430      -0.43090787      -0.46182228
H        3.91194880      11.71857980      -4.35984797      -0.32287327       0.31459351       0.00234258
H        4.21252338      11.27251569      -5.77784094      -0.16479493       0.02857110       0.20213892
O       13.16732392      28.99092019      15.89979486      -0.77118818      -0.56550631      -0.32652197
H       13.65332105      28.91459463      16.68767399       0.24301049      -0.19600837       0.08167977
H       12.31743866      29.28183283      16.23784087      -0.20731921       0.00993985       0.25701936
O       -4.12121408       4.02978883       1.22890027      -0.55559861       1.23164359       0.50790154
H       -4.48815114       4.95423314       1.37826274       0.05599689      -0.82788545       0.03901134
H       -4.85637652       3.52402740       1.56916814       0.31319265       0.36848634       0.00208806
O        6.58195135     -15.82092329       8.83745614       0.23938079      -0.04097147      -1.08115384
H        5.73206333     -15.49534639       8.58577684      -0.09514406      -0.41269730      -0.13167104
H        6.42053757     -16.77396169       8.87382408       0.12882858      -0.18559213      -0.09349380
O        1.54740456       8.70385798      22.74335771      -1.35946534      -0.30390689      -0.58495461
H        1.38769331       7.89834347      23.27163587      -0.12385241      -0.18283162      -0.22709852
H        1.99510224       8.61359667      21.93879239       0.28303646       0.10802304      -0.21329107
O       22.83895423      22.89087871      -0.31748960      -1.12475344       0.61145289      -0.32399563
H       23.39412155      23.62094959      -0.05498963      -0.05668574      -0.25739490       0.35053129
H       22.26677396      22.65034565       0.39668755       0.16651995      -0.01164853       0.49838190
O       12.01601762       6.00445422     -16.63956842       0.80852400       0.49105847       0.06087642
H       11.79507241       5.09483898     -16.71546436      -0.05051355       0.09191877      -0.17255317
H       12.02450811       6.42282748     -17.43993646      -0.14947620      -0.19318684       0.42498297
O       -7.77927235      22.80818800       1.74590151      -0.35055796      -0.79300155       0.13149736
H       -8.60406023      22.37788767       1.73621741      -0.09647350      -0.03871337       0.08478686
H       -7.75720402      23.44240835       2.63598879      -0.19564819      -0.22470380      -0.73470010
O        5.17876302     -15.65779316      17.47736992      -0.65581184       0.02261781      -0.29269277
H        5.79518574     -15.91807731      18.12178744       0.12930710      -0.09476845      -0.25639471
H        5.17240527     -14.79161193      17.15924038       0.33591225       0.04344143       0.05578013
O        1.67512997      18.63877658       0.59392006      -0.85198519      -1.05736584      -0.28180533
H        0.95197910      18.91548248       1.14701866      -0.67289610       0.10153141      -0.03318768
H        1.31125269      18.61427698      -0.23046539       0.22995093       0.20216893       0.34615262
O       -4.78905178      -6.58538154       6.54417588      -1.90051523      -0.45161425       0.06314309
H       -4.48072916      -7.42800011       6.51452899      -0.00735343      -0.28193718       0.21159232
H       -5.58355753      -6.46399121       5.96521423       0.08496050      -0.24755466       0.10416271
O       -3.55872447       2.31585210       8.50065362      -0.48367946       0.64147682       0.61527445
H       -2.90266763       2.67141406       9.13208549       0.00660004       0.02601940       0.05780713
H       -3.24063721       1.43656403       8.25923297       0.08129855       0.38891014      -0.19774219
O       14.33747598      -6.92592838      -2.46811127       1.19752878      -0.74047213      -0.06249580
H       13.63913148      -7.20746764      -3.10652567      -0.26993894      -0.12928722      -0.28872369
H       14.87531424      -7.65454248      -2.41949319      -0.20713145      -0.06432823       0.27828584
O       11.48444130       3.47682689      23.59273029       0.18807824      -0.23571381       0.01633386
H       10.93409208       3.25334704      24.34752411       0.08735510       0.11129662       0.21211855
H       12.34291112       2.85151487      23.56149619       0.03102184      -0.15109399      -0.31996921
O        8.01236612      13.73358904      25.49891161      -0.96858429      -0.77087957       1.47630198
H        8.89735298      14.03965508      25.37769248       0.29156179      -0.03612699      -0.15679402
H        7.92038927      12.85438598      25.34170453      -0.18264195       0.36828523       0.11993009
O       -9.09142767       5.78964870      11.50905950       0.86613166      -0.24293587       0.01360934
H       -8.30036551       5.47471516      11.55756198       0.25308653      -0.31325273      -0.16183294
H       -9.25042117       6.24043479      12.25650409       0.30235488       0.22436114       0.09523579
192
Lattice="13.062843202907132 0.0 0.0 -5.290342268026198e-07 13.062843202907132 0.0 -5.290342268026198e-07 -5.290342268026198e-07 13.062843202907132" Properties=species:S:1:pos:R:3:momenta:R:3 step=130 time_fs=13.0 phase=production pbc="T T T"
O       12.72944962      -2.80855503     -15.45521844       0.92669020       0.67477212       0.00082951
H       12.15306972      -2.49686335     -16.17694961       0.05687399      -0.15071468      -0.27584971
H       13.29012335      -3.52368832     -15.72442480      -0.08422422      -0.36836268       0.04460319
O       25.27397728      24.43602871       0.40792673       0.20673462       0.19440562       0.02393014
H       25.50222280      25.33532655       0.91164377       0.17059166       0.11231875       0.21469680
H       25.51783842      24.55207096      -0.47099502       0.03081291      -0.39433990       0.78472216
O        5.37976280       1.47224286       8.02356826       0.33320675      -0.74833955      -1.27873920
H        6.01937509       1.85019319       8.67087252       0.31140449      -0.01736213      -0.15362398
H        5.32576728       0.62714602       8.38981217       0.35859984      -0.50576545      -0.14407948
O       -2.96050534      -5.66155725      -1.97662771      -0.46054812       0.24131256       0.89490498
H       -2.19468190      -5.52646967      -2.51074226      -0.05300332       0.33036897      -0.11072169
H       -2.91303182      -4.77355434      -1.81856210       0.02614794       0.34255003       0.01091112
O        3.41661264      16.33944030      10.63058464      -0.25562502       0.81305465      -0.64344731
H        3.88184357      17.08297835      11.10281053      -0.00335412       0.08350660       0.09912238
H        3.05377719      16.26083549       9.74796006       0.06565488      -0.02507407      -0.09477685
O       -2.01490667       4.34946123       2.98228834      -0.21456587      -0.54989056       0.00408348
H       -2.61716542       4.38565771       3.76587487      -0.51118152      -0.23813545       0.52169751
H       -2.52518450       4.26257496       2.23014401       0.07094994      -0.01489066      -0.17634651
O       23.88145400      13.35613577       7.31070264       0.38067038       0.20129755      -0.52908104
H       24.81123937      13.38659650       7.26549892       0.11044201      -0.28978196       0.19473911
H       23.70933562      13.03912031       6.33785724       0.06140336      -0.38858487       0.20409548
O       -0.74672299     -14.99357341       3.88638050      -0.93410169      -0.19876307      -0.06802962
H       -0.66290598     -15.70969452       3.29740151      -0.19095259      -0.23185066      -0.17496560
H       -1.43777605     -14.30268554       3.99876234      -0.31678074      -0.07048338       0.36510357
O       18.44780283     -18.41896792       9.83285569       0.30650574      -0.60161430      -0.58194337
H       19.40424336     -18.74747234      10.06925491      -0.00291397      -0.10715932       0.16638751
H       17.84857421     -18.79504110      10.48534930       0.17813001       0.14964797       0.17718799
O        4.88798171     -14.20815409     -13.61968934       0.38402325      -0.17660470      -1.11523951
H        5.78456926     -13.83675292     -13.51325234       0.18828837       0.43582863       0.19759990
H        4.67088102     -14.73693861     -12.87695196       0.24100865      -0.15436373       0.43202784
O       -4.80813082       2.25749898       4.35531967      -0.20478882       0.77197049       0.69967620
H       -4.86313514       2.07131798       3.42387691      -0.06125233      -0.05052636       0.01843100
H       -5.68215658       1.94805987       4.75866985       0.22812650       0.17900816      -0.23674029
O       -5.85345730      15.26470351      27.66727766      -0.53218337       0.08096942      -1.21649718
H       -6.95269900      15.41563196      27.60071346       0.37618266       0.23710754      -0.21608154
H       -5.52976459      14.68637031      27.05637668      -0.14515910      -0.27046566       0.08493678
O        7.51823789     -15.51547564      -6.79096165       1.29972616       0.82772626       0.98795054
H        7.97741955     -16.31158984      -7.04275248       0.06340740       0.01331804       0.05198712
H        7.10876927     -15.48023474      -5.93684744      -0.40771418       0.24088024       0.84754458
O       15.44365398       7.47825968      20.55170233       0.45858965       0.12676948       0.21233035
H       14.72027212       6.96532744      20.18353691       0.15712801      -0.08203488       0.08018693
H       16.31989383       7.21481942      20.63861050      -0.16476593       0.21037062       0.05149181
O       -0.26755520       1.09932928       1.00225480      -0.55165747       0.90964626       0.50326096
H       -0.11716993       1.37961481       1.92529284       0.06188518       0.46046959      -0.05704892
H        0.34850851       1.40998553       0.28738509       0.13613105       0.14396185       0.11063596
O      -16.11821946      12.58390206      17.76339339       1.10379630       0.58018352       0.83512290
H      -16.44755647      13.08261379      16.96761842       0.06749773       0.12870730      -0.57172417
H      -16.76339013      11.88194962      17.94971164      -0.43699100      -0.57249559      -0.29394211
O      -17.73836496       6.30645004      12.94520827       1.25008753       0.33947300      -0.71471523
H      -18.44258140       5.69895540      12.56388657       0.68860739       0.39530522       0.13065035
H      -17.06112034       6.90348992      12.56609985      -0.14760426       0.28985567       0.04431969
O       -9.97875496      34.27578459     -11.48591080       0.36798537       0.63060621       0.00619311
H       -9.51571972      33.90400243     -10.73680693       0.18621862       0.07518222       0.25625663
H      -10.22119990      33.44785162     -11.78619123      -0.19768433       0.06519972      -0.26681826
O       36.58724600      10.88444301      21.73756398       1.41917032      -0.31349818      -0.97122619
H       36.70431013      11.72384741      21.25745009      -0.10894697       0.34365381      -0.14037239
H       35.63530480      10.86212151      22.07259508      -0.14343319       0.00116446       0.17090638
O       30.53869052     -10.98751051       2.34883426       0.23347143       0.71534271      -1.00485308
H       30.49192059     -11.44599953       3.21810232      -0.27265516      -0.22007436       0.27739008
H       30.05711986     -11.24736398       1.63370655       0.20168208       0.04058851      -0.13907332
O       16.37443014       9.72098915      -6.90370269       0.03752167      -0.82495890      -0.48200015
H       16.70280310       9.75948576      -7.81587965      -0.10472912      -0.15843284       0.13960398
H       15.89862040       8.94247562      -6.59209503      -0.11325707      -0.04880759      -0.21520728
O       -9.25157149       3.47724652      33.46478798       0.67733232      -0.14943513       0.32203088
H       -8.96106338       4.40587056      33.46406514      -0.14348607      -0.40048605      -0.12380646
H       -8.54468689       2.90248707      33.77372239       0.08118529      -0.04016848      -0.18030776
O        3.30148049       1.18972369       0.11030406       1.51407750       0.65492831       0.80333637
H        3.28943491       1.90538901      -0.53927682       0.21580743       0.32855182      -0.41627459
H        3.75698768       0.48154381      -0.29643630       0.07221406      -0.24819458      -0.17703606
O       23.45620231       1.96041195      12.99574561      -0.56672470       0.03478619       0.29706605
H       23.32466998       2.72400628      13.56444848       0.22583042      -0.09591734      -0.19754062
H       24.16468984       1.39030320      13.25915501      -0.37163364       0.09539543      -0.08084092
O        0.06488262      32.51760197      15.70312148      -0.55490221      -0.23425234       1.63880546
H       -0.55134135      31.82037383      15.52780119       0.22894949       0.25505081       0.19556476
H       -0.14393950      33.33959842      15.34793696      -0.28420184       0.18288205      -0.29969968
O        6.00562414      20.24136421       5.06454271      -0.77662173      -0.20838613       0.43361501
H        5.34677155      19.90972825       4.54462573       0.09914256       0.00488330       0.32342895
H        6.60826032      20.99733556       4.61364949      -0.01271025      -0.23608565       0.04623024
O       -9.65815376      10.94485703      10.44235097      -0.51874320       0.75881105       1.51785753
H      -10.17959770      10.13402537      10.42791864       0.01402980       0.04363124       0.06986984
H       -9.16114704      10.98766267      11.25099295      -0.42228703      -0.12464131      -0.68457390
O       17.17219015      17.95862022      28.09404559      -0.67680429       0.16087095      -1.07800444
H       17.63008208      17.19180264      28.18887838       0.50405061      -0.21637916      -0.01418879
H       16.31318981      17.98737613      27.70925317      -0.16322731      -0.44531203       0.04045163
O        6.73400406      18.39298026      10.90907224       0.44113282      -1.01273968       0.04585031
H        7.29394893      18.77895103      10.11675980       0.01885380       0.02709934       0.03941187
H        6.56240702      17.48409509      10.64355592      -0.19728960       0.01410810       0.00424067
O        1.02889127     -13.60924654      10.40661864       0.01223367       0.48899871      -0.59965921
H        0.25537377     -14.15200593      10.56224273      -0.37458562      -0.11065459       0.10837400
H        1.80199307     -14.03424524      10.32341944      -0.23038438      -0.40699818       0.22255389
O        0.04271243       9.16804989       1.90538866       0.41810525      -0.70222302       0.63484166
H        0.94071780       8.95534974       1.91030988       0.06320463      -0.00494795       0.17166877
H       -0.36036881       9.64823021       1.09697564      -0.00172492      -0.27642155       0.23628951
O        0.50106005       0.61716536       7.84739386       0.38202194      -0.45504239       1.66457150
H        1.02463389       0.29570108       7.06384305       0.23753497      -0.16105490      -0.41806997
H        0.81657566       0.21776361       8.60974147       0.34262631       0.04857241       0.09638440
O      -18.81740359      28.93633451     -15.95898547       0.82645510       1.30485176      -1.04637255
H      -18.05540935      28.81464960     -16.47710999      -0.38763034       0.17046936       0.31323453
H      -18.55786517      28.35457004     -15.24047729       0.35884417      -0.03180790      -0.16788419
O        4.63076473      26.38397947      -8.24910849      -0.36126656      -0.71458925       0.50460545
H        5.21800384      26.92750110      -7.82080990       0.04067307       0.50324182       0.09856299
H        3.72097036      26.65980276      -8.04015715       0.35418498       0.04539634      -0.42129139
O      -18.25992989      21.53475985       1.49363455      -1.52453455      -1.01324005       0.32675279
H      -18.22251106      20.63443045       1.12909567       0.10684687      -0.02176240       0.15748537
H      -19.13387275      21.75374381       1.21629779      -0.10585351       0.25991765      -0.07967869
O       11.43023443      20.28932868       6.90942135       0.51715805      -0.25739126       0.27460223
H       11.69399679      21.14635233       6.72356819       0.25157011       0.48129316      -0.06035175
H       10.58887205      20.08416226       6.65497946      -0.38687020      -0.11140326      -0.37759249
O       -9.48309660      -6.81399388       4.29231004       0.13775529      -0.22911792      -0.46599876
H       -9.06302148      -7.46217887       3.85801619      -0.23282988       0.11834271       0.41077489
H      -10.19408906      -7.33025299       4.78119589       0.04624011      -0.41801231       0.34682971
O      -25.48911091       2.00445240      11.28962796      -1.50586716      -1.81404171       0.40636745
H      -25.57336672       1.12172465      10.66590409      -0.14472208       0.27505461      -0.39099979
H      -24.59926653       2.43356512      10.92749449       0.77111171       0.25627390      -0.08796952
O      -12.47932539      -7.47120569      19.41976673      -0.44359987      -0.79352059      -0.34737767
H      -12.21426833      -8.23319099      18.90219648       0.34169178      -0.19703647       0.24950356
H      -12.88705598      -6.95992302      18.72798531       0.00594564       0.13311836       0.01949316
O        8.10740680       8.63322424      17.35124036      -0.32800422       0.94383827      -1.20550940
H        8.70569963       7.95931490      17.67555520      -0.37478765       0.12733006      -0.21042638
H        7.98067027       8.71130039      16.38151026      -0.10995747      -0.04131516       0.00602497
O      -11.14811774      -0.74615006      18.51907223       0.59821043      -0.25271020       0.70591053
H      -10.76811245      -1.61661600      18.75816237      -0.09315785      -0.16629021       0.11500959
H      -11.87980225      -0.92847620      17.91819169      -0.26052245       0.10299344      -0.01212188
O       22.60304240       4.01718651      19.02394513      -1.16731400       0.73579648      -0.65546104
H       22.34425395       3.46223738      18.37023791      -0.05288180      -0.12689352       0.07643194
H       22.74409480       3.64612463      19.95408538       0.07317047       0.01215820       0.03258965
O       -4.96384261     -18.85172669      -3.83993960      -0.17886613       0.04462179      -1.82573245
H       -4.21016878     -19.08148287      -3.31901645       0.14413416      -0.07057737       0.24049043
H       -5.03427357     -19.34998526      -4.66032752      -0.12024745      -0.09109766       0.01235622
O       27.56426509      -9.93488339      -7.16206447      -0.47880131       1.71586095       0.47731551
H       28.47078787     -10.00306829      -6.94971675      -0.64531879      -0.07908505      -0.02434329
H       26.91467808     -10.58628940      -6.88737634       0.16996496      -0.12525115      -0.01132105
O        7.01536181       0.39176552       5.95196130       0.55289641       0.57584919       0.11432317
H        6.90347982       0.53652303       6.90626614      -0.19256974      -0.01428447       0.46791613
H        7.41240335      -0.49859863       5.86297668       0.12384870       0.04261746       0.25149172
O      -18.56948327      -2.00302086      24.53147499       0.31691779       1.04200208       0.21565376
H      -18.81314275      -2.19119751      23.64745405       0.07753563      -0.00784665      -0.47085972
H      -17.86933079      -2.39883025      24.97126699       0.31211052       0.00015612       0.17892407
O        4.95412885      -6.69003188      -5.56507643       0.69383663       0.96805673      -1.13900117
H        5.11794406      -6.14283659      -4.81841944       0.09431078       0.35651840       0.18186575
H        5.38256998      -6.36854579      -6.33076071      -0.03794074      -0.06465593       0.47738221
O       12.14200897       9.76547739       6.31828974      -0.12064227      -0.99246349       0.69174324
H       11.89612468       9.95949140       7.13970371       0.09188232       0.17348349      -0.70272297
H       12.22638091      10.17489724       5.45859456       0.27408652       0.13008505      -0.20433523
O        4.48913112      11.85159282      -5.13719126       1.08615213      -0.25015124      -0.08846601
H        3.88333933      11.74967258      -4.36264654      -0.25023134       0.33277420      -0.07503145
H        4.19051514      11.26272402      -5.77217982      -0.28078578      -0.21419638      -0.08171829
O       13.16168934      28.98657473      15.89705119      -0.91720983      -0.53007080      -0.34325601
H       13.68383948      28.89150606      16.70081440       0.36200261      -0.25211054       0.15709690
H       12.29581730      29.28266729      16.25839936      -0.20107457       0.01830262       0.16824338
O       -4.12436948       4.03786546       1.23202279      -0.44191808       1.36964056       0.48789828
H       -4.47842163       4.87129493       1.37838299       0.10045878      -0.76837679      -0.01884933
H       -4.82979756       3.55293679       1.57085500       0.19030188       0.19833122       0.05214479
O        6.58343593     -15.82108860       8.83036426       0.30210867      -0.19591256      -1.13409978
H        5.71567889     -15.52887239       8.57048345      -0.22808871      -0.28809232      -0.17326674
H        6.43610333     -16.78880999       8.86546881       0.19793425      -0.11700846      -0.07166105
O        1.53883851       8.70148985      22.73965150      -1.38936953      -0.38247685      -0.41596635
H        1.37689088       7.88346199      23.24433441      -0.09689322      -0.11578192      -0.31598634
H        2.02452410       8.62095459      21.91188439       0.29864583       0.05643700      -0.28006482
O       22.83115202      22.89387031      -0.31968149      -1.19249140       0.60137811      -0.36507037
H       23.39041702      23.59649060      -0.01956705       0.00161688      -0.22378212       0.37554108
H       22.28172358      22.64816705       0.44795947       0.17096628      -0.01305352       0.52743209
O       12.02068869       6.00710194     -16.63713699       0.84079219       0.41795260       0.56459379
H       11.78744984       5.09433666     -16.73163193      -0.09639775      -0.09054381      -0.16847794
H       12.00900984       6.41523733     -17.42162642      -0.16160147       0.05313553      -0.07974524
O       -7.78072536      22.80325689       1.74740085      -0.23729830      -0.58487875       0.36880426
H       -8.62057821      22.36960338       1.74488327      -0.22429150      -0.10308838       0.09273820
H       -7.77741256      23.40884669       2.55194535      -0.22180838      -0.44033523      -0.97563989
O        5.17384017     -15.65767624      17.47459752      -0.88004685      -0.14000397      -0.41007779
H        5.81749728     -15.92720307      18.10373419       0.32032630      -0.09961403      -0.11506094
H        5.20641152     -14.77560168      17.16463416       0.36614416       0.25231536       0.06864756
O        1.67027425      18.63169786       0.59365601      -0.74751346      -1.03133834       0.24823993
H        0.88744590      18.92366524       1.14681975      -0.60935507       0.06388438       0.00145795
H        1.32518379      18.63214445      -0.22258463       0.05268071       0.17817884      -0.20277908
O       -4.80114304      -6.58688738       6.54431585      -2.05065040      -0.16720535       0.06737780
H       -4.47450912      -7.47288891       6.53348714       0.11040277      -0.58953231       0.18295091
H       -5.57248800      -6.48884891       5.97808947       0.11811795      -0.26510220       0.14961606
O       -3.56145450       2.31991008       8.50448611      -0.45646778       0.72857885       0.73083700
H       -2.90441043       2.67287041       9.13403175      -0.04126873       0.00883354      -0.00833165
H       -3.23208067       1.47424629       8.23878794       0.10044315       0.36014394      -0.22355196
O       14.34319209      -6.92949687      -2.46896960       0.81735079      -0.51048120      -0.25521464
H       13.61687676      -7.21497690      -3.12872819      -0.15915723      -0.02759905      -0.15731672
H       14.86813260      -7.67500974      -2.39043119       0.05806042      -0.35051221       0.31625240
O       11.48577330       3.47467760      23.59203893       0.36692169      -0.42787357       0.01866397
H       10.94535816       3.26531826      24.36473411       0.15486469       0.13674060       0.15207498
H       12.33411143       2.84489826      23.53207698      -0.20119213       0.01672940      -0.26496741
O        8.00611516      13.72989325      25.50743258      -0.93056489      -0.25830390       1.57289811
H        8.93006618      14.03837677      25.36228409       0.33671300       0.00203766      -0.13496956
H        7.89939587      12.86460083      25.34885718      -0.24600991      -0.15901919       0.04144400
O       -9.08735587       5.78801521      11.50730527       0.42626522      -0.22329229      -0.40278874
H       -8.24182810       5.43349749      11.54265703       0.86962267      -0.49640590      -0.14061891
H       -9.22591616       6.27466989      12.28750591       0.20731043       0.45343806       0.49691912
192
Lattice="13.062431157438192 0.0 0.0 -5.290175393056727e-07 13.062431157438192 0.0 -5.290175393056727e-07 -5.290175393056727e-07 13.062431157438192" Properties=species:S:1:pos:R:3:momenta:R:3 step=140 time_fs=14.0 phase=production pbc="T T T"
O       12.73445357      -2.80401220     -15.45509060       0.84211349       0.75640519      -0.13330305
H       12.16157203      -2.51680870     -16.19951867       0.12955233      -0.25997534      -0.19031262
H       13.27908334      -3.55910999     -15.72083270      -0.14659804      -0.34117017       0.02613637
O       25.27426134      24.43700441       0.40995204       0.11983450       0.36886656       0.72427767
H       25.51491526      25.33227532       0.92468991       0.10580617      -0.15899649       0.05371987
H       25.52670273      24.51432268      -0.41530518       0.19527236      -0.35898272       0.27464917
O        5.38218682       1.46811770       8.01572552       0.51647259      -0.63833195      -1.16273216
H        6.04596099       1.84811468       8.65077234       0.22913057      -0.02868936      -0.25955597
H        5.35683099       0.56650196       8.37765620       0.28625124      -0.67498924      -0.12652103
O       -2.96345433      -5.66074895      -1.97125218      -0.51302156       0.02552834       0.83587129
H       -2.19854653      -5.49509906      -2.52142807      -0.04264076       0.30595945      -0.09908663
H       -2.90961545      -4.72694201      -1.81495436       0.03858793       0.55260676       0.05227393
O        3.41472753      16.34404796      10.62669623      -0.32629110       0.85270467      -0.51491853
H        3.87621656      17.08195458      11.10319756      -0.10895505      -0.09046123      -0.08285535
H        3.06499960      16.26060440       9.73837697       0.16624769       0.03138178      -0.09549920
O       -2.01616566       4.34603690       2.98361624      -0.25446400      -0.52521883       0.45017118
H       -2.65794014       4.36146223       3.80641765      -0.30869663      -0.25556443       0.28467343
H       -2.52715292       4.26041724       2.20082581      -0.09288857      -0.02237566      -0.38568417
O       23.88246921      13.35647649       7.30641779       0.22151064       0.04607762      -0.78627440
H       24.83351604      13.36070701       7.28768256       0.33634243      -0.23385023       0.26483881
H       23.71295035      13.00489624       6.36698922       0.02929501      -0.30290131       0.39353243
O       -0.75244690     -14.99376277       3.88650529      -0.94684930      -0.04127647       0.12192980
H       -0.68298962     -15.73828334       3.27260234      -0.22154939      -0.33305813      -0.30322320
H       -1.46709951     -14.31539282       4.03080528      -0.27674852      -0.20341631       0.29422492
O       18.44989227     -18.42244551       9.82918566       0.56639284      -0.71719752      -0.51053498
H       19.38953967     -18.75193270      10.08074923      -0.28223258       0.00352881       0.07451027
H       17.86671918     -18.77878465      10.50105031       0.19964062       0.17182463       0.15521063
O        4.89057713     -14.20840116     -13.62617337       0.51204510      -0.07926146      -1.08093408
H        5.79547688     -13.79872708     -13.49522323       0.02019101       0.32872298       0.15927116
H        4.69509378     -14.75364419     -12.83313462       0.27249064      -0.16069604       0.40540199
O       -4.80983596       2.26197919       4.35991174      -0.36339407       0.72131907       0.81601493
H       -4.86845466       2.06600080       3.42328568      -0.04782152      -0.05549647      -0.02706633
H       -5.64966424       1.96816967       4.73197401       0.39427878       0.22227572      -0.28631865
O       -5.85783735      15.26557295      27.65979179      -0.94908926       0.33845578      -0.96822089
H       -6.90151135      15.43517955      27.57964808       0.67939734       0.17250547      -0.19642539
H       -5.53800102      14.64634491      27.04856198      -0.04008600      -0.51785843      -0.19961141
O        7.52587420     -15.50968557      -6.78457507       1.23878417       0.89623684       1.08087731
H        7.98243667     -16.31037222      -7.03724457       0.04436906       0.00585756       0.05480889
H        7.07083656     -15.45942835      -5.85627598      -0.33460439       0.17765987       0.73493228
O       15.44481519       7.47955223      20.55234817       0.07958983       0.37470011       0.21076731
H       14.73582616       6.95303789      20.18881488       0.16705476      -0.16878310       0.03900786
H       16.32253947       7.22536357      20.64271264       0.23210510       0.01085098       0.04604513
O       -0.27074800       1.10492528       1.00503579      -0.48801795       0.92867980       0.41450711
H       -0.10959824       1.42519214       1.91381023       0.09157462       0.47019518      -0.18028502
H        0.35750984       1.42305797       0.30703064       0.04625025       0.12394979       0.29269242
O      -16.11184241      12.58689921      17.76715167       0.76623707       0.50062007       0.55027040
H      -16.43431073      13.08553188      16.92798042       0.20179138      -0.07048911      -0.20829164
H      -16.79614108      11.83704918      17.91786120      -0.21387509      -0.30657913      -0.34799381
O      -17.73028338       6.30833104      12.94073252       1.24621724       0.37804990      -0.57837128
H      -18.37063935       5.74091708      12.57377530       0.72688673       0.42649897       0.05325956
H      -17.07646265       6.92822520      12.56695078      -0.17364860       0.22520790      -0.02300553
O       -9.97561445      34.27931170     -11.48495126       0.54838498       0.81385387       0.19178457
H       -9.49744258      33.91395108     -10.70983012       0.17150694       0.16016844       0.27539463
H      -10.24619575      33.43989757     -11.82155844      -0.31294765      -0.16430824      -0.45580720
O       36.59389363      10.88260966      21.73098461       1.11676647      -0.15358750      -0.95444193
H       36.69094143      11.75081204      21.24844135      -0.14306044       0.19857762      -0.02225432
H       35.63730281      10.86195468      22.08203085       0.21447547       0.00324293       0.03398608
O       30.53994532     -10.98244712       2.34402923       0.47358138       0.79981174      -0.52312636
H       30.46294448     -11.46475700       3.23373341      -0.29800703      -0.15732928       0.02118164
H       30.06578269     -11.25166744       1.60760201       0.00606888      -0.12918221      -0.38118265
O       16.37412924       9.71571264      -6.90652196       0.02641645      -0.79240172      -0.48596387
H       16.69336343       9.74165651      -7.79891917      -0.07030415      -0.20027210       0.18036587
H       15.88956710       8.93731568      -6.61499760      -0.06325187      -0.05331023      -0.25762548
O       -9.24712364       3.47605845      33.46577991       0.64713311      -0.24624606       0.33963928
H       -8.97532567       4.36695573      33.45107795      -0.13739473      -0.33824485      -0.12262595
H       -8.54016167       2.90351939      33.75142695       0.02038927       0.04700225      -0.24629243
O        3.31063323       1.19430943       0.11479560       1.52387665       0.84355082       0.61007354
H        3.30972990       1.93215871      -0.57321756       0.20498541       0.18663124      -0.25244888
H        3.76573130       0.45292370      -0.31337806       0.08667474      -0.29916031      -0.15082062
O       23.45144998       1.96059965      12.99677253      -0.76209375       0.04656572       0.14539988
H       23.34686435       2.71655539      13.54666122       0.24118408      -0.03202329      -0.14330790
H       24.13421602       1.39672448      13.25495762      -0.21056557       0.01315910       0.01283598
O        0.06197553      32.51497155      15.71285046      -0.37884908      -0.20633932       1.67618723
H       -0.53546472      31.84103306      15.54614199       0.06862721       0.15739457       0.18430433
H       -0.17597801      33.36387175      15.31659944      -0.35699303       0.29181834      -0.31013898
O        6.00203551      20.24058882       5.06741696      -0.32680502       0.16419113       0.56006536
H        5.34130436      19.90263911       4.56597782      -0.21307569      -0.14101876       0.11550843
H        6.59571867      20.96064646       4.62537328      -0.23729833      -0.49964532       0.19572308
O       -9.66147972      10.94927305      10.45061147      -0.70178824       0.79212758       1.21625819
H      -10.17765662      10.13700149      10.43458194       0.01314296       0.01758396       0.07000389
H       -9.19491731      10.97622484      11.19619663      -0.23053978      -0.09545225      -0.36367323
O       17.16736817      17.96005165      28.08675732      -0.69338321       0.42230686      -1.00691357
H       17.68390884      17.15752029      28.18671469       0.56998277      -0.40787556      -0.02089963
H       16.29225272      17.94095585      27.70987725      -0.23899624      -0.49585127      -0.00212713
O        6.73683386      18.38634547      10.90832749       0.54634552      -0.95321740      -0.17359158
H        7.28894828      18.77612872      10.13036687      -0.11559059      -0.07404641       0.24487462
H        6.54583015      17.48593715      10.64479778      -0.13896305       0.02854189       0.02612266
O        1.02760402     -13.60484336      10.40264238      -0.43477048       0.76531679      -0.58575993
H        0.22079868     -14.16379670      10.57257042      -0.29651368      -0.11200472       0.10295830
H        1.79966073     -14.08661353      10.34353656       0.15918588      -0.66378307       0.20039718
O        0.04427854       9.16408356       1.90876680       0.10939343      -0.51838571       0.50286128
H        0.95443464       8.95534493       1.92421710       0.20795904       0.01332141       0.11377481
H       -0.35292887       9.61686169       1.13107925       0.14823677      -0.34813808       0.44432380
O        0.50349285       0.61435153       7.85591143       0.43556112      -0.47617481       1.20220047
H        1.04024001       0.28425626       7.03398882       0.07346660      -0.06917965      -0.16887281
H        0.85442775       0.21706979       8.63031890       0.42430664      -0.04802404       0.29872334
O      -18.81240371      28.94336135     -15.96420252       0.57849366       1.27790474      -0.78443579
H      -18.07612059      28.83130293     -16.46240414      -0.01526976       0.18531858      -0.04494757
H      -18.52720636      28.35070713     -15.25246869       0.25507008      -0.02130882      -0.09808330
O        4.62786055      26.37828925      -8.24607796      -0.45171613      -0.84330639       0.41668799
H        5.23024619      26.98203759      -7.80541245       0.17401849       0.59459225       0.18423025
H        3.75669593      26.66260771      -8.08096818       0.33603074       0.04364399      -0.41218560
O      -18.26884426      21.52741358       1.49557038      -1.58505290      -1.14111262       0.31709303
H      -18.20655702      20.63253094       1.14589178       0.20355444      -0.01035831       0.18387158
H      -19.14862173      21.78474720       1.20998348      -0.18560325       0.37821798      -0.04414034
O       11.43385077      20.28664710       6.91128662       0.70894360      -0.35162206       0.36256371
H       11.71934940      21.20247526       6.71587491       0.24677647       0.59299497      -0.07707287
H       10.53737791      20.07101262       6.61380920      -0.56425917      -0.12017351      -0.43392337
O       -9.48336137      -6.81457733       4.29069591      -0.33298552      -0.02926309      -0.00303806
H       -9.07036094      -7.46945383       3.88022838       0.08382939      -0.28199001       0.04070211
H      -10.17986899      -7.36013601       4.81018151       0.24279914      -0.19166800       0.24588452
O      -25.49672574       1.99289593      11.29054909      -1.25490216      -1.94722409       0.00237018
H      -25.58434473       1.16206493      10.63867933      -0.09541760       0.56435921      -0.14767703
H      -24.53904500       2.45131668      10.92547656       0.46484480       0.11821531       0.04609862
O      -12.48154552      -7.47587851      19.41677161      -0.40834728      -0.80435644      -0.43556053
H      -12.17875553      -8.25260184      18.93045912       0.37127884      -0.19283049       0.34399108
H      -12.88819633      -6.94330876      18.73066291      -0.03018262       0.19016201       0.05335428
O        8.10487190       8.63912919      17.34311559      -0.43473486       1.09143404      -1.26353338
H        8.67124147       7.96987864      17.65201920      -0.30606571       0.06965485      -0.24906084
H        7.97455641       8.70442267      16.38317105      -0.01263424      -0.09283128       0.02864294
O      -11.14421289      -0.74811454      18.52276848       0.54356366      -0.40117932       0.67799223
H      -10.77976331      -1.62702778      18.76644488      -0.15538525      -0.04345688       0.06421372
H      -11.90046029      -0.91762356      17.91954155      -0.15366727       0.12126695       0.06434709
O       22.59562186       4.02238582      19.02099747      -1.02597167       0.98442119      -0.13061604
H       22.33172632       3.43510994      18.36461334      -0.18112938      -0.41054628      -0.16081778
H       22.74778282       3.64968004      19.94359056       0.01738760       0.06288338      -0.23235602
O       -4.96499856     -18.85096948      -3.85097381      -0.22145402       0.00204469      -1.78521082
H       -4.19513691     -19.08694375      -3.29619580       0.13365873      -0.04547424       0.20409275
H       -5.04312353     -19.35774617      -4.65952403      -0.06397590      -0.08255374      -0.00148546
O       27.55927989      -9.92369493      -7.15945750      -0.89380218       1.82810474       0.28594410
H       28.42410369     -10.01394829      -6.94327453      -0.25430246      -0.15308632       0.16044191
H       26.93494129     -10.59981463      -6.88456314       0.25479264      -0.16040509       0.06584212
O        7.01858116       0.39500940       5.95291004       0.56353152       0.48878865       0.28444879
H        6.88376032       0.53461289       6.94383627      -0.20474511      -0.02716641       0.28098771
H        7.42148961      -0.49017327       5.88859763       0.06787715       0.12792610       0.27720127
O      -18.56749030      -1.99596558      24.53206535       0.17268560       1.19590648       0.19722519
H      -18.80280778      -2.19395197      23.59832559       0.13191841      -0.03575074      -0.46740197
H      -17.82999737      -2.40508712      24.99044152       0.44168038      -0.10460190       0.20720922
O        4.95768526      -6.68400332      -5.57137683       0.50523715       0.93981464      -0.90670214
H        5.12697573      -6.10722332      -4.79833908       0.08497911       0.34343277       0.19213953
H        5.38442668      -6.37052688      -6.29544534       0.09965035       0.03270129       0.20815680
O       12.14155502       9.75816643       6.32051172       0.12020869      -1.27753763       0.00977965
H       11.89497850       9.98763237       7.09882594      -0.12503658       0.42728681      -0.07851251
H       12.25142360      10.19070505       5.43959479       0.24509916       0.18100021      -0.14704157
O        4.49561914      11.84994118      -5.13661016       1.05130725      -0.19927873       0.19211921
H        3.86455116      11.78269619      -4.37596420      -0.12765197       0.35149922      -0.20657463
H        4.15963207      11.23446206      -5.78859412      -0.33275952      -0.32327454      -0.22078781
O       13.15533587      28.98255233      15.89510588      -1.00445639      -0.48214773      -0.09309345
H       13.71693843      28.86492138      16.70954701       0.29954999      -0.26793579       0.00279538
H       12.28148522      29.28211795      16.26868722      -0.07081481      -0.01567237       0.05196741
O       -4.12563309       4.04539218       1.23445268       0.01732432       1.06627864       0.30160630
H       -4.47664551       4.82130383       1.37795095      -0.09825390      -0.20292843       0.02300270
H       -4.82307209       3.56060909       1.58152625      -0.05609946      -0.03212167       0.17019857
O        6.58497342     -15.82234137       8.82295197       0.24110465      -0.37174225      -1.18768902
H        5.69065359     -15.55150246       8.55261176      -0.26054667      -0.19341458      -0.17973294
H        6.45897389     -16.79402502       8.85933973       0.27556066       0.00188888      -0.04786516
O        1.53053089       8.69854407      22.73631483      -1.28251968      -0.48534292      -0.46672554
H        1.36858154       7.87483923      23.20925625      -0.07426014      -0.06264725      -0.38304752
H        2.04904431       8.62516110      21.88984443       0.19008659       0.03867151      -0.13370176
O       22.82261809      22.89671084      -0.32162248      -1.36125256       0.55951739      -0.24685167
H       23.39322836      23.57596955       0.01768213       0.07025895      -0.18541349       0.38430856
H       22.30090013      22.64702572       0.49475643       0.24432228       0.00627068       0.41359281
O       12.02549794       6.00902784     -16.63173565       0.84215035       0.26650407       0.97801314
H       11.77632876       5.08064007     -16.74675120      -0.11794948      -0.15932686      -0.15037442
H       11.99193333       6.43184580     -17.45247334      -0.18216111       0.27020094      -0.52420195
O       -7.78198154      22.79893780       1.74974870      -0.25820844      -0.65439656       0.33325576
H       -8.64317843      22.35836289       1.75381360      -0.23874632      -0.11297865       0.08769434
H       -7.79924256      23.36264239       2.45576627      -0.22755774      -0.42002690      -0.90654352
O        5.16789467     -15.65825119      17.47136981      -0.97479903      -0.18575992      -0.44812963
H        5.85305225     -15.93492981      18.09397901       0.38685772      -0.05930983      -0.09821036
H        5.24314389     -14.74747502      17.17281597       0.38723740       0.28167909       0.11904262
O        1.66544795      18.62498843       0.59690213      -0.84034233      -0.96023681       0.76810358
H        0.83805508      18.92495983       1.14370125      -0.38983265      -0.02964866      -0.07711205
H        1.32320353      18.64820683      -0.26616606      -0.07052630       0.16545477      -0.63299649
O       -4.81337811      -6.58780897       6.54477229      -1.94313747      -0.25978983       0.16436196
H       -4.46378194      -7.52995804       6.54973295       0.08451608      -0.52847717       0.15375721
H       -5.56433049      -6.51499526       5.99098985       0.02546351      -0.27502456       0.10465191
O       -3.56424706       2.32483353       8.50909687      -0.50039925       0.90412180       0.85606819
H       -2.90955056       2.67373172       9.13090772      -0.05962305       0.01498605      -0.04289994
H       -3.21955400       1.50293632       8.21389241       0.15821375       0.21962922      -0.28602616
O       14.34678332      -6.93212739      -2.47111738       0.52982935      -0.46284164      -0.46600166
H       13.60980993      -7.21253733      -3.13544266       0.03265679       0.07043895       0.02313941
H       14.88040351      -7.71627482      -2.35861548       0.16605978      -0.45410681       0.32631885
O       11.48819608       3.47135015      23.59141672       0.54024212      -0.61609746       0.01586703
H       10.96375346       3.27943576      24.37529757       0.22843062       0.15138159       0.08358267
H       12.30321300       2.85455030      23.50898575      -0.42048695       0.18076177      -0.18925972
O        8.00082990      13.72944058      25.51646141      -0.69236723       0.21167375       1.61721875
H        8.95495867      14.03617001      25.35093780       0.15369776      -0.04974147      -0.07661417
H        7.87263032      12.82668271      25.34851742      -0.28857669      -0.55889816      -0.02494067
O       -9.08456004       5.78656656      11.50429999       0.47269500      -0.18416013      -0.38068225
H       -8.14956296       5.38659386      11.52913059       0.92202798      -0.41627613      -0.12787193
H       -9.20590040       6.31932499      12.33809923       0.21576633       0.41477220       0.47163425
192
Lattice="13.061969006740918 0.0 0.0 -5.289988225888753e-07 13.061969006740918 0.0 -5.289988225888753e-07 -5.289988225888753e-07 13.061969006740918" Properties=species:S:1:pos:R:3:momenta:R:3 step=150 time_fs=15.0 phase=production pbc="T T T"
O       12.73903949      -2.79929538     -15.45592142       0.80731999       0.73279054      -0.31686132
H       12.17736013      -2.54670101     -16.21237218       0.19746750      -0.34863668      -0.08735713
H       13.25924015      -3.58716936     -15.71716161      -0.25275842      -0.22910784       0.04223774
O       25.27365215      24.43901463       0.41718390      -0.01758335       0.57539067       1.59585472
H       25.52052692      25.30108088       0.92086245       0.02610384      -0.46061081      -0.13482188
H       25.55640625      24.48010858      -0.42238364       0.42297392      -0.33056081      -0.37957604
O        5.38577396       1.46370519       8.00900414       0.71330536      -0.81374050      -0.92783960
H        6.06261221       1.84388647       8.61928584       0.11608810      -0.05812832      -0.37807157
H        5.38156659       0.50604163       8.36062594       0.22585517      -0.53049895      -0.22789914
O       -2.96641592      -5.66006949      -1.96622023      -0.47433550       0.18625369       0.78201175
H       -2.20529412      -5.46712486      -2.52809347      -0.10626751       0.26163727      -0.03319434
H       -2.90601062      -4.67750979      -1.81016801       0.03007414       0.40562335       0.03643773
O        3.41230195      16.34869567      10.62352115      -0.43460308       0.83220001      -0.40219550
H        3.86171520      17.06681577      11.08733177      -0.17212570      -0.18378445      -0.22142288
H        3.08558612      16.26582051       9.72816097       0.25553078       0.08694427      -0.11184824
O       -2.01826010       4.34265484       2.98720683      -0.47587281      -0.53190120       0.71367426
H       -2.67599472       4.33576603       3.81940000      -0.06217679      -0.26667149      -0.01541066
H       -2.53840747       4.25876813       2.16302330      -0.11569915      -0.00477433      -0.34953154
O       23.88301348      13.35583004       7.30071136       0.27055614      -0.09640581      -0.96447226
H       24.86828423      13.34003669       7.31646619       0.35818033      -0.18051585       0.32962553
H       23.71347017      12.97911416       6.41210504      -0.00346095      -0.22236032       0.51611343
O       -0.75837024     -14.99341953       3.88728766      -0.99455576      -0.04739483       0.15376514
H       -0.70592887     -15.76739246       3.24358610      -0.24871735      -0.24810277      -0.26401791
H       -1.49046629     -14.34146503       4.05580220      -0.20155526      -0.33946564       0.22235049
O       18.45347939     -18.42647162       9.82591313       0.79783578      -0.79666712      -0.44840427
H       19.35036480     -18.74602865      10.08321777      -0.48035063       0.09662676      -0.01207531
H       17.88456687     -18.76046258      10.51588751       0.16859718       0.18906289       0.16291594
O        4.89395288     -14.20842454     -13.63154284       0.64546647      -0.10198813      -0.80251920
H        5.78584263     -13.77269882     -13.48206962      -0.21739815       0.19306878       0.09772509
H        4.72507722     -14.76225623     -12.80469639       0.34779070      -0.01445275       0.14657559
O       -4.81165957       2.26638110       4.36466008      -0.23424490       0.75242021       0.74614609
H       -4.87154991       2.06070693       3.41882001      -0.01670356      -0.04950652      -0.05735681
H       -5.61564289       1.98782569       4.70781932       0.24126321       0.16371227      -0.17844069
O       -5.86447057      15.26741202      27.65305331      -1.22598266       0.39143638      -0.94506649
H       -6.81995909      15.44824520      27.56080767       0.95640103       0.11261582      -0.17297053
H       -5.54059099      14.59138766      27.02304744      -0.03574005      -0.55954058      -0.26538990
O        7.53282125     -15.50345207      -6.77698347       1.11108898       0.95417789       1.31112027
H        7.98556479     -16.30896978      -7.03188965       0.02459431       0.01255055       0.05013850
H        7.04616788     -15.44392090      -5.79956760      -0.15967322       0.13326002       0.41303453
O       15.44386334       7.48227510      20.55293387      -0.16116312       0.57901884       0.21994485
H       14.75169763       6.93225770      20.18993967       0.16989844      -0.24731094       0.00139672
H       16.35977989       7.21802653      20.64592090       0.49215497      -0.13829948       0.03133033
O       -0.27357008       1.11066481       1.00732628      -0.44521500       0.94945489       0.34953912
H       -0.09954193       1.47039804       1.89033031       0.11379088       0.45633224      -0.29282673
H        0.35823306       1.43447008       0.34311167      -0.02010477       0.11654162       0.43285478
O      -16.10793826      12.58906966      17.76879538       0.31801941       0.34634099       0.18512300
H      -16.40660875      13.06760327      16.92773249       0.35340516      -0.28548493       0.21525896
H      -16.80155904      11.82396759      17.88160743       0.09222504       0.04897717      -0.37801986
O      -17.72126810       6.31120568      12.93763281       1.52523460       0.66699706      -0.25741929
H      -18.30944873       5.77296535      12.56768359       0.47739969       0.20010739      -0.19389582
H      -17.09342978       6.94706151      12.56035621      -0.18659190       0.16555251      -0.10336300
O       -9.97149658      34.28270207     -11.48288208       0.66310871       0.62931489       0.33605272
H       -9.48436309      33.93347943     -10.68605158       0.07583467       0.26371720       0.18615033
H      -10.27762017      33.42452789     -11.86929647      -0.31504888      -0.07167366      -0.50101149
O       36.59856127      10.88194327      21.72433614       0.84240492       0.06428171      -0.96604337
H       36.67420790      11.76016510      21.25218383      -0.17002282       0.00289060       0.11189604
H       35.67358368      10.86187146      22.07807886       0.53450787       0.00025537      -0.09091277
O       30.54215699     -10.97718892       2.34203249       0.56639504       0.76717469      -0.14054993
H       30.43255566     -11.47441115       3.22033808      -0.29979298      -0.04570554      -0.29241577
H       30.06035153     -11.26905066       1.56538860      -0.06663549      -0.21550153      -0.43917894
O       16.37359298       9.71064510      -6.90894307      -0.01643736      -0.74285453      -0.36356845
H       16.68963245       9.72003206      -7.78490005       0.01407955      -0.23492697       0.07934908
H       15.88472765       8.93068768      -6.64113030      -0.02866626      -0.08146833      -0.27818328
O       -9.24337875       3.47360621      33.46665132       0.44050062      -0.52591925       0.32554889
H       -8.98430918       4.34884903      33.43747217      -0.04367209      -0.00159170      -0.13468206
H       -8.53644292       2.90750982      33.72548966       0.06966198       0.01767111      -0.25236121
O        3.32017182       1.19980969       0.11736632       1.63099961       0.94497707       0.20764152
H        3.32930241       1.93803015      -0.58565900       0.19850543      -0.07100109       0.00144408
H        3.77039604       0.42904526      -0.32277684       0.00178346      -0.17153470      -0.03210363
O       23.44515326       1.96080016      12.99647680      -1.01570961       0.03374601      -0.09372962
H       23.36963644       2.72079905      13.53762259       0.24267969       0.12687615      -0.02931062
H       24.12458880       1.39039774      13.26163261       0.02770572      -0.14098844       0.13260961
O        0.06025917      32.51363072      15.72244400      -0.18819252       0.17503861       1.61376655
H       -0.54109789      31.84529131      15.56205254      -0.18589142      -0.04806601       0.15394785
H       -0.21066277      33.38646962      15.29051862      -0.34364592       0.16616912      -0.19858389
O        6.00096293      20.24179743       5.07105422      -0.00616849       0.41325213       0.68240046
H        5.30715526      19.88208221       4.56863504      -0.45712727      -0.25082765      -0.03945107
H        6.56389852      20.90146909       4.64996371      -0.37986058      -0.66059711       0.29058851
O       -9.66642343      10.95381669      10.45614752      -1.03078182       0.81164856       0.69694882
H      -10.17682417      10.13657335      10.44035037      -0.00369505      -0.01730164       0.05488941
H       -9.20010191      10.96924347      11.18700038       0.12720318      -0.03880028       0.19542009
O       17.16277282      17.96179888      28.07978067      -0.59719650       0.30597624      -0.94612028
H       17.73235962      17.12322960      28.18157749       0.41030141      -0.24256578      -0.06735745
H       16.26894811      17.89021045      27.70845452      -0.21050606      -0.52691838      -0.00010277
O        6.74018868      18.38010846      10.90630822       0.61319537      -0.86570400      -0.34148207
H        7.27177774      18.76362014      10.16269535      -0.22098596      -0.16192555       0.41172984
H        6.53467375      17.48685708      10.64752086      -0.08725055      -0.00642521       0.03555614
O        1.02380332     -13.59955095      10.39872055      -0.73458629       0.74256664      -0.57461137
H        0.20222597     -14.16928567      10.58052326      -0.07304274       0.00024508       0.06392767
H        1.82335198     -14.15654892      10.36267915       0.26142257      -0.73398989       0.20454993
O        0.04445018       9.16068761       1.91189817      -0.00961191      -0.51993804       0.59130916
H        0.97799225       8.95812674       1.93204228       0.25821011       0.05393314       0.04751864
H       -0.33467612       9.58416660       1.17576452       0.20265026      -0.29213774       0.42254018
O        0.50659000       0.61102399       7.86198472       0.59526864      -0.61972050       0.90104314
H        1.03829117       0.28238407       7.03222580      -0.11260444       0.03070821       0.14056506
H        0.89620356       0.21178189       8.66010215       0.41636421      -0.04356803       0.28327166
O      -18.80906538      28.95000454     -15.96740867       0.31774997       1.21099718      -0.45477355
H      -18.05630482      28.84884572     -16.48538877       0.38476760       0.20038379      -0.42341066
H      -18.50753878      28.34976670     -15.26020283       0.13228854       0.02620186      -0.07621605
O        4.62585838      26.37215865      -8.24319949      -0.09099213      -0.83003638       0.44258564
H        5.24455157      27.03413157      -7.78932921       0.09702329       0.46356894       0.12171460
H        3.77823232      26.66913270      -8.11866782       0.07953879       0.11981757      -0.36438353
O      -18.27839641      21.51954407       1.49741381      -1.75242032      -1.15428615       0.30128940
H      -18.18294257      20.63007071       1.16402108       0.26047689      -0.02834174       0.18462883
H      -19.16389260      21.82318426       1.20877152      -0.11937825       0.41235932       0.02635442
O       11.43744589      20.28412044       6.91298835       0.55637507      -0.22232674       0.25147860
H       11.73763594      21.24734867       6.71041747       0.13023825       0.30982949      -0.02375765
H       10.49315888      20.06263912       6.57512023      -0.29306404      -0.03030062      -0.33787050
O       -9.48638595      -6.81415384       4.29185178      -0.72432357       0.04245564       0.39569599
H       -9.04851068      -7.51304880       3.86816738       0.32493044      -0.57039997      -0.25344578
H      -10.14639104      -7.36674488       4.82829917       0.43172257       0.04750753       0.12874998
O      -25.50300996       1.98033296      11.28888460      -1.09235418      -2.10307572      -0.39917196
H      -25.58992283       1.23202152      10.63755636      -0.03739336       0.85270491       0.11991145
H      -24.50440377       2.45769936      10.93444495       0.23441605       0.01610948       0.14143553
O      -12.48351573      -7.48054055      19.41306813      -0.37837479      -0.79525581      -0.54684106
H      -12.14258341      -8.26796798      18.96770110       0.35573707      -0.11963740       0.42974959
H      -12.89067178      -6.92506472      18.73821339      -0.02369399       0.16653884       0.11893793
O        8.10134095       8.64625612      17.33460085      -0.63040405       1.33725639      -1.30329103
H        8.64853643       7.96846649      17.62787841      -0.14552208      -0.10425329      -0.22671401
H        7.97685375       8.69298897      16.38364568       0.05996547      -0.13308159      -0.01953119
O      -11.14082416      -0.75099581      18.52608129       0.42674725      -0.53462009       0.61230196
H      -10.79735866      -1.62541586      18.76939263      -0.20797293       0.06518789       0.01275273
H      -11.90725880      -0.90462138      17.93064623       0.00558672       0.14448999       0.17537937
O       22.58872955       4.02868574      19.02050837      -0.98270411       1.07907932       0.12273998
H       22.31051294       3.38843335      18.34462219      -0.21612051      -0.49743797      -0.18719496
H       22.74634954       3.65734242      19.90977909      -0.02603765       0.08869392      -0.42377091
O       -4.96598712     -18.85048114      -3.86139551      -0.14511740      -0.06081319      -1.64337182
H       -4.18756631     -19.08788567      -3.28203500       0.00748549       0.01606095       0.07451774
H       -5.04635528     -19.36516683      -4.66087860      -0.00585643      -0.08576872      -0.03247010
O       27.55133692      -9.91181972      -7.15810691      -1.36503787       1.91561801       0.07867957
H       28.42211421     -10.03206426      -6.91777491       0.22380362      -0.22208663       0.35230097
H       26.96123459     -10.61647994      -6.87436966       0.30201474      -0.18345467       0.13399248
O        7.02174257       0.39782603       5.95524562       0.54005014       0.44395412       0.55228347
H        6.86341582       0.53122787       6.95806442      -0.20727434      -0.03984642       0.01229612
H        7.42572698      -0.47507334       5.91618098       0.03015057       0.16888542       0.28981681
O      -18.56571321      -1.98863147      24.53202157       0.21833072       1.14579076       0.06168211
H      -18.78532116      -2.19581497      23.56245122       0.21570377       0.00274080      -0.22588806
H      -17.78995142      -2.41410972      25.00582488       0.33259778      -0.05981271       0.10800056
O        4.95996895      -6.67790094      -5.57541245       0.30125642       0.98212287      -0.46457972
H        5.13289402      -6.07915555      -4.78543471       0.03669397       0.21715406       0.05441780
H        5.40347264      -6.36065255      -6.29259646       0.29313275       0.16353890      -0.14777770
O       12.14270105       9.74940948       6.31787129       0.37777331      -1.43278796      -0.74426459
H       11.87161995      10.04220257       7.12153621      -0.32564203       0.68364723       0.48851164
H       12.27277756      10.20685329       5.43391087       0.20023343       0.15083928       0.04230521
O        4.50151937      11.84797450      -5.13492726       0.91309368      -0.32766813       0.26351076
H        3.85833637      11.81707092      -4.40259199      -0.00177341       0.36124922      -0.33652983
H        4.12883103      11.20546179      -5.80787954      -0.28172946      -0.23871365      -0.15300428
O       13.14860939      28.97870912      15.89505695      -1.02469347      -0.43705278       0.26369101
H       13.73807428      28.83837241      16.69713593       0.13645629      -0.25247523      -0.24988918
H       12.28240725      29.27722293      16.26763451       0.09658078      -0.06264009      -0.05839160
O       -4.12394457       4.05031125       1.23567981       0.44621006       0.58573395       0.13189202
H       -4.49964593       4.83478606       1.38354593      -0.36660333       0.46423884       0.08765188
H       -4.83714506       3.54907599       1.60252752      -0.20646689      -0.18589159       0.24739213
O        6.58569011     -15.82450245       8.81524450       0.05175641      -0.50266650      -1.21539831
H        5.66794831     -15.56676812       8.53642290      -0.18825315      -0.13648726      -0.13948057
H        6.48911566     -16.78800255       8.85572741       0.34551346       0.09975937      -0.01837120
O        1.52312212       8.69505650      22.73216995      -1.10774404      -0.53649501      -0.63371450
H        1.36194387       7.86869267      23.16953783      -0.06336613      -0.07143114      -0.40680165
H        2.05984117       8.62798632      21.88645114       0.02996613       0.02403671       0.08161807
O       22.81293460      22.89926428      -0.32246309      -1.51889885       0.54313856      -0.01519357
H       23.40218754      23.55768671       0.05410756       0.12778255      -0.17929274       0.35520544
H       22.32832351      22.64784930       0.52611728       0.33328613       0.02484762       0.22424520
O       12.03012274       6.01007713     -16.62488405       0.79436693       0.15987634       0.98398196
H       11.76504915       5.06860275     -16.75949265      -0.09787961      -0.05787290      -0.12168200
H       11.97281813       6.46047736     -17.50971845      -0.19891623       0.28206527      -0.58888962
O       -7.78352465      22.79267952       1.75025642      -0.35645305      -1.19416358      -0.21390293
H       -8.66415056      22.34680604       1.76090301      -0.17988700      -0.09987849       0.05345473
H       -7.82058060      23.34155235       2.39433504      -0.21066075       0.06703063      -0.27884609
O        5.16185044     -15.65867877      17.46806183      -0.91124247      -0.11970823      -0.41948676
H        5.88812171     -15.93610044      18.07958395       0.31931462       0.02934991      -0.19833734
H        5.28067846     -14.72503540      17.18814818       0.38288285       0.14753053       0.21349689
O        1.65944773      18.61868402       0.60218495      -1.12285872      -0.87642071       0.88863216
H        0.81295746      18.91616481       1.12999336      -0.12019940      -0.13800110      -0.20880873
H        1.31663925      18.66313451      -0.33056175      -0.03857151       0.15278995      -0.61182641
O       -4.82435722      -6.59004706       6.54603584      -1.67698864      -0.55833929       0.32869382
H       -4.46020535      -7.56882949       6.56275984      -0.01926658      -0.26076929       0.11700287
H       -5.56972219      -6.54205282       5.99623154      -0.14408086      -0.28642796       0.00360853
O       -3.56742855       2.33077479       8.51433960      -0.57678508       1.04086850       0.93781894
H       -2.91450167       2.67640563       9.12642088      -0.03741170       0.04545740      -0.03618105
H       -3.20123137       1.51732446       8.18255913       0.20953639       0.09019887      -0.34619859
O       14.34910098      -6.93522511      -2.47443886       0.41594700      -0.65664343      -0.63491983
H       13.62314528      -7.20130769      -3.12353826       0.24839500       0.15188218       0.21703221
H       14.89303603      -7.75436139      -2.32845019       0.07989375      -0.29906701       0.28356157
O       11.49154229       3.46705000      23.59055096       0.65999096      -0.71657157      -0.03696098
H       10.98837909       3.29364048      24.38085220       0.27751474       0.13704163       0.06044966
H       12.25417116       2.87799692      23.49426036      -0.54616007       0.28009193      -0.09618722
O        7.99710960      13.73079222      25.52539165      -0.43336722       0.31547641       1.57009652
H        8.95677166      14.02671616      25.34632732      -0.11369706      -0.13376785       0.00278163
H        7.84476568      12.76832034      25.34440061      -0.26779823      -0.55852528      -0.02939068
O       -9.08055414       5.78550371      11.50242996       0.72358590      -0.08124347      -0.07319254
H       -8.06882381       5.35522132      11.51689489       0.73367227      -0.23004755      -0.11764418
H       -9.18193745       6.34909211      12.36972172       0.26750891       0.18771346       0.16581451
192
Lattice="13.061406187636308 0.0 0.0 -5.289760288857578e-07 13.061406187636308 0.0 -5.289760288857578e-07 -5.289760288857578e-07 13.061406187636308" Properties=species:S:1:pos:R:3:momenta:R:3 step=160 time_fs=16.0 phase=production pbc="T T T"
O       12.74347429      -2.79492841     -15.45769542       0.82500503       0.64374693      -0.46468617
H       12.19704870      -2.58275641     -16.21688459       0.20223902      -0.38198289      -0.03425082
H       13.22953506      -3.60324374     -15.71074348      -0.33558719      -0.10974742       0.07767715
O       25.27224297      24.44200040       0.42849017      -0.07125856       0.70016418       1.97730726
H       25.51897636      25.24490555       0.89992945      -0.02210268      -0.62478095      -0.27166691
H       25.60294800      24.44733956      -0.47524783       0.52504195      -0.32125973      -0.61493052
O        5.39044770       1.45781044       8.00363204       0.87182254      -1.09630814      -0.72527685
H        6.06911462       1.83691852       8.57788104       0.03538621      -0.07795803      -0.45057986
H        5.40045859       0.46622697       8.33202727       0.16668445      -0.28077637      -0.35000815
O       -2.96898923      -5.65763249      -1.96147310      -0.40774287       0.53996869       0.74034964
H       -2.21973136      -5.44384365      -2.52722265      -0.19011183       0.21288954       0.04773345
H       -2.90384968      -4.65350245      -1.80865900       0.01187752       0.06917191      -0.00971989
O        3.40896000      16.35269928      10.62080651      -0.62161489       0.67523045      -0.34658639
H        3.84585373      17.05061391      11.06243545      -0.13014347      -0.10175286      -0.26158596
H        3.11407066      16.27621374       9.71506233       0.33019626       0.14061857      -0.15004942
O       -2.02206695       4.33911375       2.99179547      -0.80248198      -0.56377558       0.80633768
H       -2.66933166       4.30968621       3.80305309       0.19876625      -0.26218529      -0.31763403
H       -2.54616161       4.25955305       2.13771101      -0.03612131       0.02524528      -0.15270275
O       23.88431046      13.35439652       7.29444133       0.51134555      -0.16527646      -0.93055982
H       24.89603309      13.32461759       7.35088668       0.21572246      -0.12332660       0.37998476
H       23.70950063      12.95825828       6.46082572      -0.06355939      -0.21165066       0.44924495
O       -0.76459754     -14.99343112       3.88788676      -1.04100083      -0.18327630       0.08558331
H       -0.73107316     -15.78188478       3.22434064      -0.26550459      -0.05407878      -0.11869070
H       -1.50657305     -14.37939356       4.07401572      -0.13588508      -0.44357583       0.15649693
O       18.45778404     -18.43059462       9.82277425       0.80692485      -0.78580699      -0.45036506
H       19.30331439     -18.73436330      10.07958291      -0.40688919       0.10630787      -0.03810889
H       17.89631168     -18.74060829      10.53277871       0.08212612       0.20263785       0.19380527
O        4.89809308     -14.20858100     -13.63487479       0.76221997      -0.14982916      -0.47997598
H        5.75383704     -13.75962354     -13.47543690      -0.41612813       0.07198497       0.02617588
H        4.76198277     -14.75503710     -12.80460881       0.40738262       0.14230030      -0.14786613
O       -4.81195802       2.27110999       4.36839100       0.07757805       0.81841151       0.51295186
H       -4.87098757       2.05668582       3.41351851       0.02499086      -0.02851171      -0.03695274
H       -5.60958305       1.99757871       4.70026064      -0.13527532       0.03451429       0.03337378
O       -5.87125404      15.26861326      27.64579155      -0.95013916       0.16944163      -1.03561282
H       -6.73065248      15.45916656      27.54198285       0.76040478       0.15098785      -0.20220658
H       -5.54703505      14.54201028      27.00001980      -0.10772552      -0.42091516      -0.16633417
O        7.53894238     -15.49677197      -6.76801235       0.98883721       1.00319003       1.51377224
H        7.98620452     -16.30633994      -7.02669325      -0.00626229       0.02854344       0.05172246
H        7.03999656     -15.43175808      -5.77637725       0.04223936       0.10372519       0.05485214
O       15.44231190       7.48577757      20.55346715      -0.08584325       0.64410114       0.24192325
H       14.76794687       6.90564868      20.18804858       0.17971306      -0.28455715      -0.01941754
H       16.40554556       7.20185483      20.64642540       0.41112294      -0.16954321      -0.00595777
O       -0.27639534       1.11638843       1.00934565      -0.49917917       0.91876616       0.33142759
H       -0.08765640       1.51392965       1.85927281       0.12817734       0.43972030      -0.32413432
H        0.35695451       1.44704481       0.38685470       0.01610793       0.15113201       0.43611913
O      -16.10654644      12.59004502      17.76822581      -0.06296270       0.12832089      -0.07138487
H      -16.36560757      13.03167277      16.96437981       0.45735425      -0.40224582       0.49209750
H      -16.77761698      11.84468323      17.84373736       0.37189212       0.36833144      -0.37519402
O      -17.70996475       6.31622244      12.93672373       1.89870019       1.04780092       0.14390394
H      -18.27961377       5.77611607      12.53235088       0.12409256      -0.12640415      -0.51939165
H      -17.11109130       6.96011479      12.54579303      -0.18642089       0.11238417      -0.18547056
O       -9.96684765      34.28396045     -11.48007645       0.69969142       0.24999679       0.40440545
H       -9.48365259      33.96157606     -10.67498669      -0.07269114       0.33318814       0.02775674
H      -10.30326309      33.42968278     -11.91350641      -0.20838936       0.22114808      -0.39963277
O       36.60180066      10.88249215      21.71730664       0.78333792       0.25510329      -1.03350109
H       36.65609958      11.75235970      21.26708050      -0.16113388      -0.13353785       0.19906028
H       35.73043223      10.86022510      22.06600864       0.59902655      -0.03105790      -0.10919628
O       30.54416859     -10.97233494       2.34159533       0.50009036       0.65584981      -0.01253359
H       30.40265205     -11.47289844       3.17808616      -0.28648692       0.05960188      -0.55413996
H       30.05542453     -11.28912435       1.52987305       0.01087786      -0.19169222      -0.25647469
O       16.37262246       9.70585349      -6.91033217      -0.06878143      -0.68263518      -0.18842206
H       16.69579347       9.69539434      -7.78523044       0.12804845      -0.26091996      -0.09248455
H       15.88198990       8.92002651      -6.66781526      -0.01571120      -0.13063777      -0.27239124
O       -9.24111542       3.46940789      33.46713476       0.17476054      -0.76783305       0.30304284
H       -8.98280494       4.36638821      33.42195906       0.06024832       0.33696328      -0.15401331
H       -8.52370829       2.90496127      33.70039642       0.18389878      -0.06434414      -0.23406343
O        3.33043202       1.20563875       0.11723711       1.75530232       0.95457598      -0.24147996
H        3.34791385       1.91883047      -0.57340822       0.18512984      -0.30606348       0.23732261
H        3.76496990       0.42114734      -0.31867553      -0.10911921       0.00977316       0.11635687
O       23.43733961       1.96075506      12.99475841      -1.17208626      -0.02948734      -0.25786925
H       23.39249063       2.73964964      13.53883006       0.24824786       0.24348708       0.05312839
H       24.13410649       1.37207900      13.27839079       0.15691071      -0.20631907       0.21047923
O        0.05941764      32.51455776      15.73126020      -0.11538928       0.55870367       1.46587314
H       -0.56877131      31.83246609      15.57568549      -0.35416313      -0.15527854       0.14652726
H       -0.24155960      33.39028394      15.27836537      -0.28651420      -0.06672192      -0.03322910
O        6.00050577      20.24311430       5.07551707      -0.13515850       0.23222025       0.84546493
H        5.25788383      19.85629886       4.56202056      -0.51665050      -0.23874384      -0.06655877
H        6.53127040      20.84276423       4.67400587      -0.24109655      -0.47382893       0.17272241
O       -9.67328340      10.95836389      10.45857301      -1.31486643       0.82168003       0.28473189
H      -10.17728604      10.13338766      10.44457114      -0.01114298      -0.03468523       0.04266618
H       -9.17166677      10.96731353      11.22966942       0.41719973       0.00431889       0.64213106
O       17.15864930      17.96210941      28.07288296      -0.51380016       0.03729481      -0.91060114
H       17.76016028      17.11217369      28.17126092       0.17256779       0.03485654      -0.11899988
H       16.25275571      17.83796756      27.70875369      -0.09515792      -0.52401789       0.03536452
O        6.74360335      18.37417701      10.90364401       0.56588145      -0.82652038      -0.33071621
H        7.24928659      18.74596197      10.20438591      -0.20333046      -0.16143368       0.41079175
H        6.52799191      17.48160377      10.65056362      -0.04447978      -0.09348170       0.03464233
O        1.01908758     -13.59522148      10.39475653      -0.76124720       0.45162272      -0.57031521
H        0.20724458     -14.16152217      10.58373569       0.17494107       0.14831586       0.01043939
H        1.84078478     -14.22082978      10.38296198       0.07432125      -0.57470882       0.22029266
O        0.04470572       9.15656071       1.91646530       0.13537797      -0.72169883       0.95896876
H        1.00099340       8.96570939       1.93349433       0.19342653       0.11219253      -0.01414032
H       -0.31792224       9.56335502       1.20414898       0.12182589      -0.10865982       0.12478229
O        0.51088952       0.60654434       7.86669323       0.81425740      -0.83503882       0.76769671
H        1.01860403       0.29003054       7.06061218      -0.28412536       0.12311685       0.43962957
H        0.93290560       0.21068475       8.68016436       0.32876084       0.02684907       0.12297571
O      -18.80641525      28.95585764     -15.96892718       0.34797785       1.09563900      -0.31196013
H      -18.00955998      28.86940566     -16.53673477       0.48789344       0.25336089      -0.59136958
H      -18.50012209      28.35387858     -15.26663917       0.00566569       0.08397265      -0.07290274
O        4.62663877      26.36620386      -8.23985894       0.39926246      -0.72603594       0.53773354
H        5.24592108      27.06672547      -7.78298691      -0.07116251       0.21986758      -0.00257045
H        3.77073643      26.68443481      -8.15148295      -0.21186515       0.21259945      -0.31972726
O      -18.28903887      21.51174212       1.49917381      -1.97354186      -1.07443262       0.29515596
H      -18.15583197      20.62519795       1.18111186       0.27266390      -0.05310660       0.16428677
H      -19.16752079      21.86073167       1.21574296       0.03506086       0.36435457       0.11773374
O       11.43959494      20.28239804       6.91372927       0.30089539      -0.05179820       0.08432988
H       11.74337374      21.25799688       6.71150196      -0.00272591      -0.08029209       0.05507531
H       10.48279040      20.06390092       6.54905618       0.09413977       0.07401609      -0.18804702
O       -9.49086088      -6.81421207       4.29463787      -0.80649759      -0.20025808       0.51925185
H       -9.01495540      -7.56765379       3.83849903       0.31352027      -0.49734254      -0.31476529
H      -10.09691785      -7.35199984       4.83563276       0.55467310       0.23111840       0.03953378
O      -25.50808549       1.96754014      11.28530878      -0.90529662      -1.94903760      -0.52541867
H      -25.59040337       1.31849697      10.65309604      -0.00629949       0.83625940       0.12830824
H      -24.49109571       2.45408931      10.95158907       0.01731560      -0.08839114       0.21854978
O      -12.48522179      -7.48498014      19.40861236      -0.35308521      -0.74900635      -0.61898398
H      -12.10922473      -8.27450845      19.01133738       0.31719183      -0.02329412       0.47317021
H      -12.89110373      -6.91186496      18.75234021       0.00404042       0.09543954       0.18290440
O        8.09650784       8.65479654      17.32586587      -0.81885649       1.54683529      -1.28954774
H        8.64175745       7.94927540      17.60664812       0.00191306      -0.26738353      -0.19778872
H        7.98472004       8.67812596      16.37645200       0.10587688      -0.16318183      -0.11620136
O      -11.13808913      -0.75438998      18.52885264       0.31502881      -0.55658504       0.55635229
H      -10.81780648      -1.61756592      18.76853400      -0.21073938       0.07108384      -0.00603974
H      -11.90006807      -0.88967761      17.95079634       0.11462116       0.15906338       0.23989082
O       22.58152792       4.03505534      19.02022239      -1.06080100       1.05222257      -0.00350389
H       22.29127367       3.34520690      18.33374485      -0.14987064      -0.36806692      -0.00528071
H       22.74210083       3.66421837      19.86619530      -0.03301663       0.03874186      -0.40833909
O       -4.96631523     -18.85022360      -3.87079465      -0.03092106      -0.11797109      -1.47371319
H       -4.19420143     -19.08203057      -3.28226289      -0.14619594       0.08660085      -0.08227681
H       -5.04379160     -19.37316712      -4.66575327       0.05459238      -0.09558463      -0.07140193
O       27.54091237      -9.89962808      -7.15766189      -1.56453032       1.89033898      -0.00041019
H       28.45628956     -10.05457590      -6.87725488       0.42222578      -0.23273568       0.44665549
H       26.99185684     -10.63287556      -6.85931992       0.35140024      -0.15162337       0.16056289
O        7.02457041       0.40057941       5.95924837       0.47276778       0.47067937       0.83183073
H        6.84281393       0.52742629       6.94606116      -0.21026512      -0.03352234      -0.24496485
H        7.42817636      -0.46013187       5.94383670       0.03458280       0.12176414       0.27865138
O      -18.56321143      -1.98187465      24.53082389       0.34018311       1.02444445      -0.10918346
H      -18.75895518      -2.19272628      23.55528028       0.30808624       0.05926552       0.10345461
H      -17.76757013      -2.41401302      25.00733193       0.10454311       0.06415814      -0.05841618
O        4.96118007      -6.67126302      -5.57683558       0.18838742       1.10244865      -0.11374584
H        5.13365821      -6.06555829      -4.78892699      -0.01319813       0.05404409      -0.13356121
H        5.43833138      -6.33992675      -6.31870019       0.40177602       0.24055564      -0.35372450
O       12.14492135       9.74027233       6.31183105       0.48117511      -1.35518784      -1.04037471
H       11.83603584      10.11427193       7.17816964      -0.35995280       0.76076701       0.58667126
H       12.28967502      10.21824501       5.44741781       0.15995231       0.08392219       0.23883454
O        4.50651292      11.84484270      -5.13332085       0.79110299      -0.53099158       0.15966839
H        3.86165229      11.85208367      -4.43838244       0.05387556       0.36821745      -0.37861937
H        4.10615077      11.18958421      -5.81544850      -0.17510946      -0.07257150      -0.00378827
O       13.14185977      28.97488186      15.89697736      -0.97689549      -0.40665077       0.56018448
H       13.74261568      28.81370722      16.66057286      -0.02075436      -0.22962871      -0.46921953
H       12.29711102      29.26849088      16.25725155       0.19331258      -0.08200390      -0.13005658
O       -4.12058594       4.05272539       1.23633655       0.50978537       0.33206956       0.13621967
H       -4.54176358       4.90109983       1.39238733      -0.45184897       0.80929266       0.07537116
H       -4.85645102       3.52716697       1.62624228      -0.16087256      -0.24346037       0.22276336
O        6.58498010     -15.82707476       8.80738852      -0.19388471      -0.53682583      -1.21881696
H        5.65507395     -15.57761459       8.52564714      -0.06650069      -0.10280611      -0.07150587
H        6.52530002     -16.77610124       8.85536552       0.39994531       0.11096509       0.02003637
O        1.51681769       8.69145593      22.72667427      -0.93084672      -0.50050314      -0.83421312
H        1.35567190       7.85780279      23.12969746      -0.06633306      -0.15542150      -0.38355220
H        2.05489909       8.62886572      21.90321645      -0.12292958       0.00048290       0.26943896
O       22.80236036      22.90167460      -0.32165294      -1.58998307       0.57237715       0.27894558
H       23.41536537      23.53783312       0.08524158       0.15695922      -0.21398841       0.27559432
H       22.36336600      22.64942713       0.53815833       0.39961108       0.02382387       0.02634062
O       12.03424012       6.01063143     -16.61894827       0.71421836       0.10841085       0.69669533
H       11.75733894       5.07206003     -16.76884616      -0.04683648       0.13952916      -0.08425450
H       11.95280108       6.48173130     -17.55701539      -0.19886908       0.15194391      -0.38021762
O       -7.78583616      22.78229121       1.74688967      -0.50414895      -1.82706611      -0.80639249
H       -8.67561444      22.33823865       1.76374949      -0.05503927      -0.04952761       0.00845190
H       -7.83955299      23.37633437       2.40295243      -0.18940319       0.62649890       0.40302247
O        5.15650491     -15.65838513      17.46492366      -0.74747085      -0.00056026      -0.35377896
H        5.91252623     -15.92761312      18.05250869       0.18025321       0.12875511      -0.34202567
H        5.31647859     -14.71980830      17.21334387       0.35139162      -0.05588324       0.31572500
O        1.65135178      18.61279086       0.60724221      -1.49182378      -0.78177471       0.74841755
H        0.81485412      18.89666325       1.10278676       0.15619376      -0.24321540      -0.34354317
H        1.31811719      18.67617613      -0.37660228       0.07357911       0.13005390      -0.31706721
O       -4.83360390      -6.59419174       6.54828265      -1.41464294      -0.88424172       0.48727829
H       -4.46738289      -7.57937192       6.57186892      -0.13155168       0.03791356       0.07550886
H       -5.59036368      -6.57082659       5.99207135      -0.26676946      -0.31363526      -0.07192174
O       -3.57097383       2.33715704       8.51976886      -0.61658646       1.04634047       0.93524764
H       -2.91574261       2.68281507       9.12393916       0.01133726       0.08896713      -0.00481487
H       -3.18030155       1.52440365       8.14739118       0.20569889       0.08080845      -0.35737234
O       14.35103290      -6.93980373      -2.47854919       0.44238616      -0.92922972      -0.71440452
H       13.65459235      -7.18320668      -3.09480444       0.37930915       0.20518136       0.34664675
H       14.89253831      -7.77045602      -2.30404253      -0.07912648      -0.03269376       0.21343219
O       11.49490666       3.46278664      23.58901328       0.54558193      -0.57572894      -0.13531041
H       11.01496585       3.30516792      24.38797140       0.26632703       0.10116873       0.12122520
H       12.20529578       2.90179657      23.48702455      -0.38651473       0.16501138      -0.04395630
O        7.99476701      13.73165781      25.53360857      -0.23208952       0.13529428       1.46014005
H        8.93281275      14.00964609      25.34963353      -0.35815659      -0.19920695       0.08592516
H        7.82099683      12.72540317      25.34223430      -0.20946103      -0.29200433       0.01061940
O       -9.07506350       5.78522120      11.50262235       0.93996522       0.06959564       0.29870228
H       -8.00480128       5.33966462      11.50501716       0.56417772      -0.08651653      -0.11503747
H       -9.15359254       6.35429988      12.36768664       0.30422661      -0.07691555      -0.19847863
192
Lattice="13.060743027863436 0.0 0.0 -5.289491714694788e-07 13.060743027863436 0.0 -5.289491714694788e-07 -5.289491714694788e-07 13.060743027863436" Properties=species:S:1:pos:R:3:momenta:R:3 step=170 time_fs=17.0 phase=production pbc="T T T"
O       12.74805575      -2.79114167     -15.45997662       0.88138560       0.54847569      -0.51808573
H       12.21252425      -2.61864843     -16.22075320       0.11368351      -0.34685133      -0.07742433
H       13.19521933      -3.61046474     -15.70041867      -0.33882052      -0.05840064       0.11725810
O       25.27050284      24.44459260       0.44005164      -0.08204181       0.47928512       1.70931784
H       25.51748456      25.18877916       0.87446066       0.04050227      -0.43106825      -0.20946160
H       25.65095622      24.41541412      -0.52738377       0.46834096      -0.30607364      -0.41043975
O        5.39574720       1.44997659       7.99910403       0.92155450      -1.44333361      -0.63937989
H        6.07257374       1.83023027       8.53404320       0.06470791      -0.04618985      -0.42089048
H        5.41353677       0.45159751       8.29222554       0.10733818      -0.01887767      -0.45435751
O       -2.97124310      -5.65292670      -1.95686875      -0.38941984       0.88524121       0.73601337
H       -2.24083124      -5.42432184      -2.51937732      -0.23372831       0.18871411       0.10315341
H       -2.90309943      -4.66421762      -1.81219957       0.00339788      -0.28683709      -0.06541855
O        3.40420217      16.35521624      10.61811888      -0.87859437       0.40568042      -0.36216035
H        3.83889705      17.04983558      11.03786798      -0.00014596       0.11509284      -0.22432790
H        3.14949643      16.29162806       9.69821922       0.39979545       0.19192474      -0.18218316
O       -2.02787864       4.33530556       2.99664500      -1.09935054      -0.60425496       0.79462443
H       -2.63818687       4.28449902       3.75856967       0.41434934      -0.25084214      -0.56358842
H       -2.54466059       4.26324329       2.13432760       0.06267920       0.05441518       0.08583894
O       23.88723797      13.35274859       7.28907161       0.84540980      -0.13899684      -0.67245373
H       24.90612274      13.31477084       7.38900827       0.01226403      -0.06565043       0.40471813
H       23.69792399      12.93341311       6.49275217      -0.15074590      -0.29678172       0.19516013
O       -0.77099126     -14.99442239       3.88789859      -1.04340003      -0.39909389      -0.02098174
H       -0.75711626     -15.77584742       3.22086170      -0.26744834       0.16076785       0.05075536
H       -1.51845860     -14.42474022       4.08632265      -0.12107008      -0.49188235       0.10295041
O       18.46100907     -18.43421370       9.81933948       0.51050321      -0.69167460      -0.50874503
H       19.27925913     -18.72689545      10.07757852      -0.03486591       0.01654541       0.01675268
H       17.89881821     -18.71875652      10.55183986      -0.00735332       0.22963703       0.19939905
O        4.90257935     -14.20896609     -13.63638957       0.74381705      -0.21471886      -0.27429914
H        5.71070959     -13.75384498     -13.47534437      -0.41341500       0.06036493      -0.03333854
H        4.80225398     -14.73618020     -12.82848337       0.41303368       0.20405952      -0.32244442
O       -4.81044254       2.27611842       4.37050398       0.29633882       0.83520497       0.25780347
H       -4.86624136       2.05530222       3.41318347       0.06613355       0.00293417       0.04133738
H       -5.63891000       1.99533460       4.71252704      -0.43181564      -0.06519902       0.20391879
O       -5.87450965      15.26762218      27.63776933      -0.14458867      -0.26835295      -1.11477602
H       -6.68806885      15.48094769      27.51665091       0.04251445       0.33351632      -0.29910723
H       -5.56145705      14.51043051      26.99023871      -0.19431851      -0.20425356       0.00069570
O        7.54424959     -15.48967930      -6.75775548       0.86356681       1.05228322       1.71870265
H        7.98351778     -16.30173198      -7.02106225      -0.03945790       0.04891224       0.05581571
H        7.05381678     -15.42229093      -5.78828057       0.24685897       0.07314925      -0.30266221
O       15.44157898       7.48927778      20.55393816       0.10698672       0.60708241       0.24737696
H       14.78632809       6.87771308      20.18486990       0.21864582      -0.27371257      -0.02134687
H       16.43278083       7.18633762      20.64256072       0.15065769      -0.13543749      -0.05175405
O       -0.27987173       1.12172149       1.01138186      -0.64577470       0.83198151       0.35090934
H       -0.07502223       1.55626521       1.83022715       0.12798414       0.43138748      -0.25778032
H        0.36478364       1.46500471       0.42327183       0.15464724       0.22070045       0.29580435
O      -16.10654946      12.58925238      17.76723882      -0.12554595      -0.16877460       0.12873078
H      -16.32034469      12.99986380      17.00331959       0.43281819      -0.17065637       0.22012188
H      -16.73368694      11.88618112      17.80948302       0.45250318       0.42074050      -0.29171122
O      -17.69666903       6.32312360      12.93801783       2.09200583       1.25927411       0.46048081
H      -18.27848273       5.75242149      12.46856855      -0.07560929      -0.31189462      -0.74275042
H      -17.12712252       6.96931910      12.52279517      -0.15653575       0.08766835      -0.27304454
O       -9.96210641      34.28259000     -11.47701545       0.66910585      -0.11243365       0.38527217
H       -9.49697249      33.99324734     -10.67846373      -0.20042672       0.34215994      -0.09369772
H      -10.31605685      33.46499403     -11.94416659      -0.06373764       0.53158101      -0.23885099
O       36.60547816      10.88381710      21.70943414       1.06836528       0.33044796      -1.18001260
H       36.64077457      11.73808199      21.28568401      -0.10981592      -0.11593761       0.18606433
H       35.77403171      10.85360952      22.06048733       0.27999495      -0.09818721       0.04338610
O       30.54537411     -10.96798378       2.34110004       0.40379214       0.60365978      -0.16180590
H       30.37320089     -11.46490567       3.11808512      -0.29439101       0.06553597      -0.62760821
H       30.06157651     -11.30369234       1.51881426       0.14989029      -0.11531916       0.03759541
O       16.37125696       9.70129931      -6.91077986      -0.09919334      -0.64803886      -0.09547051
H       16.71220503       9.66852364      -7.79953114       0.21746955      -0.27891679      -0.18452217
H       15.88016502       8.90485046      -6.69334414      -0.00340196      -0.16580929      -0.25849454
O       -9.24008887       3.46432346      33.46725589       0.03841213      -0.78563147       0.29170032
H       -8.97412171       4.40435688      33.40472652       0.09289256       0.38480966      -0.16092621
H       -8.50192352       2.89716905      33.67575868       0.23666947      -0.07444978      -0.24318588
O        3.34132796       1.21115059       0.11471371       1.83735593       0.83231282      -0.52917579
H        3.36491092       1.88434323      -0.54439434       0.16673549      -0.34956063       0.31495239
H        3.74987759       0.42904247      -0.30080904      -0.18570895       0.13191313       0.24144911
O       23.42894421       1.96019325      12.99245770      -1.14579921      -0.12146513      -0.24691239
H       23.41591535       2.76337782      13.54359380       0.25603543       0.22184644       0.04226697
H       24.14642573       1.35568049      13.29864139       0.09181800      -0.10372178       0.20534492
O        0.05844804      32.51706012      15.73883776      -0.22818782       0.76376575       1.25569253
H       -0.60411365      31.81848033      15.59057145      -0.34418379      -0.07012732       0.18185148
H       -0.26597277      33.36968078      15.28298387      -0.21329878      -0.32070180       0.14430101
O        5.99807993      20.24230229       5.08081661      -0.59310539      -0.18533978       0.95469641
H        5.21304365      19.83747255       4.56059970      -0.36807241      -0.11150667       0.06185512
H        6.52008445      20.81116396       4.68023056       0.02929917      -0.14235570      -0.04979192
O       -9.68117394      10.96281004      10.45951484      -1.37099187       0.79978645       0.27230721
H      -10.17682148      10.13034816      10.44806036       0.01779460      -0.00770606       0.04196605
H       -9.12724700      10.96823323      11.29680483       0.43123314       0.02234258       0.66637917
O       17.15477576      17.96050747      28.06593363      -0.46654857      -0.26402576      -0.88994609
H       17.76414589      17.12860292      28.15580550      -0.07265595       0.32012007      -0.16870872
H       16.25051496      17.78727497      27.71339566       0.07057929      -0.49473620       0.09071506
O        6.74616870      18.36796672      10.90169978       0.36013988      -0.91463886      -0.09628794
H        7.23719439      18.73461732      10.23399704      -0.01611787      -0.03586496       0.17871601
H        6.52566664      17.46642068      10.65305861       0.00646790      -0.19610743       0.02766919
O        1.01452024     -13.59277647      10.39073842      -0.69248687       0.13368261      -0.56963171
H        0.23465725     -14.13989938      10.58175572       0.36614941       0.26638511      -0.03593966
H        1.83679329     -14.26560315      10.40432271      -0.15037419      -0.35768690       0.22719472
O        0.04640050       9.15085565       1.92363631       0.41980039      -0.97619595       1.39433052
H        1.01242596       8.97946299       1.92943927       0.03323457       0.17985404      -0.06574561
H       -0.31220681       9.56316492       1.19768195       0.00249157       0.10550567      -0.24091371
O        0.51638256       0.60080376       7.87108366       0.95263365      -1.00434113       0.84495174
H        0.98615405       0.30442598       7.11182122      -0.34850883       0.15335821       0.56220597
H        0.95927515       0.21738445       8.68257769       0.21210605       0.11018068      -0.05877403
O      -18.80247145      28.96073513     -15.97020834       0.64204866       0.97883790      -0.39357343
H      -17.96990277      28.89584104     -16.59037758       0.27959419       0.31692206      -0.49875479
H      -18.50378494      28.36333977     -15.27360691      -0.09311253       0.13593879      -0.08608756
O        4.62992771      26.36096631      -8.23575327       0.70264278      -0.52543831       0.66733624
H        5.22956500      27.07352571      -7.78941669      -0.25983232      -0.05390223      -0.13773883
H        3.74353147      26.70568131      -8.18097101      -0.29628778       0.23391752      -0.29731522
O      -18.30083607      21.50440524       1.50093285      -2.15611795      -0.95847908       0.30749071
H      -18.12903347      20.61787645       1.19552618       0.25546031      -0.07504651       0.13154906
H      -19.15568492      21.89087003       1.23111455       0.17641093       0.27810099       0.19475769
O       11.44008671      20.28156713       6.91337473       0.05449495       0.11096853      -0.08252711
H       11.73631919      21.23062280       6.72054785      -0.12639615      -0.44368649       0.13439565
H       10.51024520      20.07502478       6.53794740       0.47346898       0.17419238      -0.03527681
O       -9.49476582      -6.81600091       4.29725420      -0.57875588      -0.46565129       0.36145846
H       -8.99089444      -7.60354251       3.80994381       0.16436929      -0.24117185      -0.26436998
H      -10.04366520      -7.32653742       4.84083087       0.48649226       0.24701846       0.11042631
O      -25.51154314       1.95721065      11.28233565      -0.63191435      -1.33798368      -0.20695766
H      -25.59132248       1.37905568      10.64585517      -0.04974634       0.36073598      -0.31859345
H      -24.49900226       2.44040870      10.97621403      -0.20552594      -0.18765917       0.30040573
O      -12.48668132      -7.48895850      19.40386770      -0.32894606      -0.66564719      -0.58334731
H      -12.07918223      -8.27293575      19.05620427       0.29188227       0.03691695       0.45710517
H      -12.88911384      -6.90541958      18.77038207       0.01864369       0.03570798       0.19436462
O        8.09074937       8.66409541      17.31720225      -0.90114850       1.59253077      -1.24662619
H        8.64450970       7.92032127      17.58624662       0.04161591      -0.28879835      -0.21106165
H        7.99643292       8.66064062      16.36036244       0.14111492      -0.18438111      -0.18614564
O      -11.13575516      -0.75746638      18.53128850       0.27832635      -0.43890463       0.55589362
H      -10.83566334      -1.61574180      18.76789122      -0.16079747      -0.05273430       0.01814089
H      -11.88806756      -0.87412118      17.97242744       0.09482568       0.15600979       0.20499967
O       22.57346203       4.04132010      19.01816051      -1.19969970       1.06158948      -0.38107140
H       22.28001194       3.31812838      18.34252782      -0.05637206      -0.17891915       0.20362538
H       22.73935113       3.66154138      19.83617644       0.00672865      -0.10033716      -0.15891388
O       -4.96597022     -18.85013245      -3.87920749       0.04787302      -0.16094372      -1.34373442
H       -4.21435420     -19.06976488      -3.29695077      -0.25817676       0.13995019      -0.21288840
H       -5.03515884     -19.38176778      -4.67402086       0.11753996      -0.09922053      -0.10021157
O       27.53038238      -9.88793842      -7.15710950      -1.36709211       1.74250983       0.07752954
H       28.48888234     -10.07353261      -6.83442563       0.23954725      -0.15572082       0.41149591
H       27.02688991     -10.64385305      -6.84345863       0.39081504      -0.08464507       0.15553271
O        7.02684376       0.40365703       5.96475432       0.38552762       0.53910195       1.03617880
H        6.82135702       0.52554797       6.91264765      -0.22766035       0.00089709      -0.40702722
H        7.43297606      -0.45358957       5.96921363       0.07534453       0.00564880       0.24558278
O      -18.55974690      -1.97585512      24.52847198       0.48545103       0.90891178      -0.23076427
H      -18.72433688      -2.18422132      23.57871538       0.37658593       0.10957441       0.37955955
H      -17.76761551      -2.40167820      24.99260865      -0.11775996       0.18089419      -0.21193427
O        4.96215245      -6.66355831      -5.57683317       0.23366840       1.30561050      -0.02354664
H        5.13088916      -6.06782654      -4.81050435      -0.03187680      -0.10023337      -0.30350044
H        5.47589764      -6.31660561      -6.35291545       0.34921463       0.21505057      -0.31699547
O       12.14716389       9.73224491       6.30534098       0.43851244      -1.09734237      -0.93350063
H       11.80456837      10.18315085       7.22354796      -0.26833004       0.64977918       0.33574006
H       12.30328592      10.22170608       5.47841358       0.13549293       0.00356185       0.38423648
O        4.51104537      11.84031739      -5.13280137       0.77929184      -0.74818122      -0.09632856
H        3.86417246      11.88800563      -4.47093770      -0.01894895       0.38399558      -0.27055548
H        4.09485661      11.19038297      -5.80820588      -0.05094115       0.09882341       0.14322793
O       13.13550794      28.97095489      15.89995054      -0.86890788      -0.39494047       0.61748132
H       13.73680124      28.78993611      16.60971761      -0.05361209      -0.23721648      -0.51721002
H       12.31281209      29.26076043      16.24339892       0.10508584      -0.03285901      -0.12126426
O       -4.11808644       4.05485761       1.23758586       0.20318607       0.46283011       0.30546979
H       -4.57888744       4.97508430       1.39514377      -0.29383454       0.66357585      -0.02324383
H       -4.86334452       3.50481892       1.64318779       0.02925520      -0.19320622       0.11808537
O        6.58270569     -15.82936099       8.79943126      -0.43261000      -0.45278841      -1.23148821
H        5.65479866     -15.58582431       8.52182738       0.06573576      -0.08415221       0.00081694
H        6.56586672     -16.76819712       8.85889969       0.43637851       0.02042968       0.06141249
O        1.51136093       8.68820104      22.72001430      -0.84654136      -0.41386575      -0.92597086
H        1.34853508       7.83668502      23.09349733      -0.08000414      -0.26893256      -0.33313872
H        2.03860995       8.62711411      21.93225356      -0.18522670      -0.02810188       0.31296151
O       22.79143866      22.90426556      -0.31907797      -1.57731741       0.66147676       0.53633976
H       23.42927664      23.51291096       0.10662055       0.14664775      -0.27507149       0.15952660
H       22.40230397      22.64961558       0.53306103       0.40945630      -0.00147372      -0.11134113
O       12.03778785       6.01090295     -16.61478777       0.64572339       0.09137326       0.39149247
H       11.75482129       5.09457471     -16.77444070       0.00371691       0.31285641      -0.05012625
H       11.93324117       6.48947311     -17.58189189      -0.18903229       0.01686430      -0.15386705
O       -7.78902837      22.76905711       1.74124181      -0.67585377      -2.02873096      -0.92021167
H       -8.67271888      22.33650826       1.76294814       0.11307571       0.04576394      -0.01983995
H       -7.85671864      23.44578232       2.45479079      -0.16748164       0.73274118       0.56889083
O        5.15221876     -15.65724302      17.46208963      -0.56945398       0.10464804      -0.28296996
H        5.92286976     -15.91075862      18.01242072       0.04809791       0.18848116      -0.44819188
H        5.34787400     -14.73288422      17.24691245       0.29583239      -0.20681726       0.38253109
O        1.64117468      18.60728282       0.61115835      -1.75821943      -0.71578280       0.51634019
H        0.84001622      18.86825220       1.06571310       0.32285076      -0.30715854      -0.38869249
H        1.33083287      18.68652738      -0.39221601       0.18854660       0.10081837      -0.00973676
O       -4.84148760      -6.60027501       6.55125568      -1.25533650      -1.20302070       0.57466469
H       -4.48526609      -7.56093127       6.57686664      -0.23766746       0.32806098       0.03451164
H       -5.61775300      -6.60283934       5.98412793      -0.28253863      -0.34932541      -0.07144593
O       -3.57449160       2.34316360       8.52487631      -0.57271923       0.93560792       0.86086654
H       -2.91216088       2.69323599       9.12450150       0.05588313       0.12485566       0.02278499
H       -3.16279539       1.53693890       8.11422668       0.14237839       0.19365612      -0.30533197
O       14.35363141      -6.94578813      -2.48254355       0.67920818      -1.10816665      -0.58836401
H       13.68703017      -7.16298327      -3.06292256       0.24837347       0.18916766       0.26037962
H       14.87721508      -7.76081792      -2.28641322      -0.20735641       0.20829042       0.15044884
O       11.49671419       3.46003639      23.58671192       0.21553490      -0.25200766      -0.21636768
H       11.03792664       3.31315638      24.40360501       0.21611634       0.06816971       0.22315966
H       12.18580569       2.90343674      23.48178042       0.01654774      -0.14336079      -0.04304405
O        7.99318294      13.73100518      25.54093213      -0.19594643      -0.13232452       1.35377686
H        8.89099808      13.98790430      25.35972616      -0.44841697      -0.22226462       0.13853110
H        7.80383717      12.71132473      25.34437460      -0.13095674       0.01690352       0.06084063
O       -9.06799354       5.78567757      11.50490294       1.23064839       0.15223344       0.60781010
H       -7.96226715       5.33886058      11.49391267       0.27634049       0.08368242      -0.09711030
H       -9.12202225       6.33427735      12.33134840       0.33303096      -0.31325971      -0.51103849
192
Lattice="13.06001860383881 0.0 0.0 -5.289198329022318e-07 13.06001860383881 0.0 -5.289198329022318e-07 -5.289198329022318e-07 13.06001860383881" Properties=species:S:1:pos:R:3:momenta:R:3 step=180 time_fs=18.0 phase=production pbc="T T T"
O       12.75291426      -2.78778678     -15.46230006       0.92394696       0.50483060      -0.51754370
H       12.21637030      -2.64867537     -16.23182132      -0.02117144      -0.26843575      -0.16736001
H       13.16493726      -3.61738684     -15.68646015      -0.25587489      -0.10167970       0.15009607
O       25.26843219      24.44464074       0.44885285      -0.14486360      -0.05204842       1.14979000
H       25.52763238      25.16812825       0.86457896       0.20791887       0.06220775       0.02105945
H       25.68976391      24.38564142      -0.55153767       0.35452577      -0.27470321      -0.08265613
O        5.40096497       1.43985035       7.99470729       0.86456643      -1.82434321      -0.66194208
H        6.08471669       1.82952299       8.49782168       0.20220029       0.03884460      -0.30501717
H        5.42085642       0.46198658       8.24350027       0.04987660       0.22300237      -0.52956132
O       -2.97366200      -5.64655523      -1.95212953      -0.47061439       1.03258997       0.77720818
H       -2.26248446      -5.40489971      -2.50853339      -0.20177221       0.21423450       0.10946109
H       -2.90197846      -4.70425878      -1.82100065       0.02448952      -0.49475362      -0.11509166
O        3.39781936      16.35597078      10.61518391      -1.13027102       0.15046079      -0.40112166
H        3.84551513      17.07091264      11.01753070       0.13235901       0.32172262      -0.18710050
H        3.19162961      16.31168680       9.67939366       0.46855374       0.23695269      -0.18755261
O       -2.03472291       4.33129443       3.00060818      -1.09610544      -0.61468283       0.48728203
H       -2.59738118       4.25958762       3.70421919       0.35718126      -0.26327491      -0.46506623
H       -2.53461039       4.26957362       2.15275032       0.13172219       0.07928582       0.27554920
O       23.89215409      13.35130645       7.28548409       1.17849194      -0.09547532      -0.37718331
H       24.89539574      13.31010822       7.42788666      -0.20254306      -0.01695927       0.39622152
H       23.67825939      12.89854107       6.49869662      -0.21755474      -0.39649516      -0.04421270
O       -0.77717142     -14.99682786       3.88721677      -0.97052663      -0.65490649      -0.12483070
H       -0.78281120     -15.74981769       3.23312394      -0.26048360       0.34448097       0.19449859
H       -1.53245547     -14.47202502       4.09412072      -0.18089182      -0.48863852       0.06355453
O       18.46191179     -18.43716069       9.81554605       0.12725140      -0.61204166      -0.53733953
H       19.29560528     -18.72955899      10.08215386       0.37225093      -0.08604565       0.08318711
H       17.89435421     -18.69331369      10.56852142      -0.05504787       0.27323460       0.14465159
O        4.90627178     -14.20967951     -13.63735341       0.52357593      -0.26195170      -0.33501284
H        5.68176723     -13.74086893     -13.47941485      -0.14101411       0.21232977      -0.06176888
H        4.83995925     -14.71969593     -12.85756452       0.35850942       0.08447855      -0.24025589
O       -4.80847127       2.28089313       4.37133866       0.20345433       0.74400916       0.12000461
H       -4.85795822       2.05699720       3.42214682       0.09548074       0.03309312       0.14664092
H       -5.68217765       1.98804435       4.73451134      -0.40345876      -0.06444231       0.22593366
O       -5.87255684      15.26365141      27.62918089       0.59592842      -0.72767100      -1.18916950
H       -6.71945779      15.52291824      27.48054313      -0.61616615       0.52704899      -0.40169524
H       -5.58401712      14.50101878      26.99751009      -0.27244592       0.02455024       0.17569429
O        7.54872635     -15.48217860      -6.74613850       0.73321919       1.11375939       1.94013269
H        7.97800603     -16.29516960      -7.01522350      -0.06327705       0.06649754       0.05618727
H        7.08669778     -15.41638831      -5.83388680       0.42799329       0.02647838      -0.62596922
O       15.44198800       7.49231870      20.55428149       0.30398740       0.51215108       0.23379176
H       14.80976409       6.85281845      20.18232816       0.28105314      -0.22477811      -0.00550401
H       16.43202016       7.17545252      20.63428984      -0.14721562      -0.07726446      -0.09340745
O       -0.28423156       1.12652620       1.01350817      -0.76118863       0.76598560       0.35184932
H       -0.06342714       1.59748585       1.80998731       0.10542430       0.41174293      -0.15583931
H        0.38664252       1.48894108       0.44380179       0.28046899       0.26075024       0.13400972
O      -16.10543484      12.58721488      17.76843504       0.25149540      -0.20192105       0.57761379
H      -16.28140682      13.00404227      16.99440473       0.34979812       0.27041730      -0.38485786
H      -16.70122093      11.90947461      17.78742682       0.13776629       0.00701840      -0.13786605
O      -17.68300328       6.33042482      12.94046830       2.00143675       1.19467805       0.52714528
H      -18.28288539       5.72399056      12.39466996       0.00401422      -0.22526168      -0.71906248
H      -17.13963771       6.97657034      12.49200131      -0.12125910       0.06772639      -0.33828332
O       -9.95766842      34.27930721     -11.47434294       0.59547359      -0.28948682       0.26436438
H       -9.51876253      34.02236922     -10.68722107      -0.23863138       0.28157524      -0.06565677
H      -10.31559743      33.52587294     -11.95997649       0.04777919       0.71865537      -0.11825393
O       36.61124323      10.88508308      21.70054545       1.45611031       0.25885032      -1.31043622
H       36.63131711      11.73393169      21.29807944      -0.04230411       0.06336755       0.08312554
H       35.77744621      10.83948368      22.07408971      -0.15329546      -0.17906081       0.25551125
O       30.54602383     -10.96342224       2.33881373       0.37461968       0.70896977      -0.56714833
H       30.34008895     -11.46457288       3.06507108      -0.35999224      -0.09625710      -0.41367329
H       30.08105444     -11.31030311       1.53590605       0.27693738      -0.03577803       0.29547891
O       16.36974496       9.69675335      -6.91108762      -0.09141724      -0.66752254      -0.15455520
H       16.73440532       9.64041329      -7.81514207       0.24672613      -0.28433749      -0.11943124
H       15.88014269       8.88813296      -6.71755955       0.02385104      -0.15980424      -0.24641971
O       -9.23932785       3.45981655      33.46717239       0.06193411      -0.59949861       0.28592150
H       -8.96620582       4.43142725      33.38779276       0.05122564       0.14546503      -0.14559221
H       -8.47986675       2.89312076      33.64836500       0.19375237       0.00493483      -0.28409555
O        3.35243826       1.21543665       0.11147295       1.82241108       0.57721540      -0.46339655
H        3.38009768       1.86100095      -0.52129701       0.14998510      -0.08247306       0.11620459
H        3.73124944       0.44117293      -0.27411339      -0.17473178       0.08273030       0.28876291
O       23.42103198       1.95909579      12.99061522      -0.99660812      -0.19454646      -0.10467308
H       23.43945584       2.77908355      13.54326199       0.25051539       0.09236933      -0.04135199
H       24.14577434       1.35465570      13.31516829      -0.08662440       0.08999064       0.14370621
O        0.05638975      32.52015408      15.74499937      -0.44635217       0.80234635       1.04427777
H       -0.63217997      31.81868857      15.61034514      -0.22238176       0.11572043       0.24435680
H       -0.28334868      33.32581406      15.30423430      -0.14994285      -0.52034197       0.29892960
O        5.99246780      20.23864252       5.08658236      -1.11167556      -0.62573240       1.00129949
H        5.18849548      19.83405482       4.57509069      -0.12608638       0.06670090       0.24049670
H        6.53570057      20.81231616       4.66363939       0.28011874       0.17239463      -0.27488994
O       -9.68879396      10.96696878      10.46129654      -1.27995640       0.75443568       0.50408031
H      -10.17178998      10.13175512      10.45204356       0.07490984       0.04739039       0.05353663
H       -9.09260002      10.96989612      11.34973916       0.25974743       0.02128619       0.42122187
O       17.15109678      17.95703308      28.05898003      -0.42469189      -0.52101880      -0.86627126
H       17.74450990      17.17184478      28.13550601      -0.29883877       0.56921818      -0.21380434
H       16.26473375      17.73977711      27.72350602       0.23248420      -0.46185630       0.14591127
O        6.74718794      18.36078523      10.90139986       0.09508681      -1.10428906       0.18807922
H        7.24683369      18.73808373      10.23603412       0.21681378       0.12372595      -0.11964530
H        6.52922320      17.44371121      10.65507822       0.07764227      -0.23242251       0.02809090
O        1.01088203     -13.59183808      10.38657739      -0.42734420      -0.04377214      -0.60747937
H        0.27111954     -14.11301181      10.57722624       0.32978472       0.23619974      -0.03282462
H        1.81227623     -14.28885367      10.42579887      -0.34464860      -0.13392687       0.22314095
O        0.04964713       9.14392001       1.93292762       0.60713016      -1.07859310       1.61469221
H        1.00694657       8.99965970       1.92066190      -0.13965085       0.24288707      -0.11143954
H       -0.31390687       9.57884753       1.16450621      -0.01382855       0.19896064      -0.38501710
O        0.52202226       0.59450060       7.87696640       0.85208224      -1.00823999       1.26293321
H        0.95831354       0.31514227       7.15513672      -0.18548297       0.04402825       0.26490879
H        0.97455566       0.23142883       8.67052285       0.10860611       0.17157296      -0.15823406
O      -18.79655011      28.96493849     -15.97226276       0.93834834       0.92814564      -0.57895896
H      -17.95539209      28.92751099     -16.62923987      -0.00629193       0.36323810      -0.30941031
H      -18.51473420      28.37588946     -15.28081738      -0.14399981       0.14322573      -0.06979178
O        4.63422579      26.35710485      -8.23079889       0.73848114      -0.25721492       0.78934910
H        5.19553227      27.05405360      -7.80848906      -0.41896860      -0.30045210      -0.25377781
H        3.72036477      26.72399078      -8.20891832      -0.14662267       0.15894755      -0.28625335
O      -18.31328755      21.49761861       1.50286564      -2.20075523      -0.87578781       0.35663780
H      -18.10485145      20.60867435       1.20644924       0.21557662      -0.08779035       0.09314674
H      -19.13476577      21.91331008       1.25211565       0.20515725       0.21423923       0.22719836
O       11.43924610      20.28139717       6.91212280      -0.08464835       0.16042387      -0.17168912
H       11.71894396      21.17527780       6.73557548      -0.19881486      -0.60753174       0.16893673
H       10.56983365      20.09512824       6.53987222       0.70793351       0.25084176       0.06104768
O       -9.49660632      -6.81881568       4.29822788      -0.17998863      -0.55317123       0.01483722
H       -8.98204395      -7.61440668       3.78618585       0.00764572       0.00477035      -0.22071321
H      -10.00724683      -7.30892096       4.86297407       0.23389650       0.08891069       0.36838219
O      -25.51312282       1.95086546      11.28166847      -0.35049232      -0.73816484       0.15892827
H      -25.59827392       1.38826224      10.58831925      -0.11981807      -0.13120621      -0.81303544
H      -24.52767451       2.41810249      11.00905432      -0.40552237      -0.26311884       0.38520684
O      -12.48793559      -7.49232162      19.39965426      -0.30543824      -0.56439162      -0.41899223
H      -12.04992442      -8.26836143      19.09661818       0.30041947       0.03944674       0.38650673
H      -12.88716751      -6.90269674      18.78564177       0.00120635       0.02002352       0.12747610
O        8.08482426       8.67307349      17.30865276      -0.86658623       1.46529038      -1.23455999
H        8.64531651       7.89725101      17.56243718      -0.02909978      -0.15521894      -0.26063733
H        8.01105194       8.64170218      16.34104520       0.16648140      -0.19174288      -0.17748829
O      -11.13328658      -0.75960294      18.53385146       0.33761137      -0.27565385       0.62305320
H      -10.84765670      -1.62892792      18.77050081      -0.10041049      -0.21421214       0.05523641
H      -11.88403657      -0.85967055      17.98623810      -0.03631310       0.13810080       0.09168229
O       22.56438266       4.04764329      19.01347636      -1.34583294       1.06121044      -0.78058701
H       22.27788221       3.31051102      18.37085347       0.03596356       0.02635461       0.39290759
H       22.74141205       3.64415885      19.83426903       0.05870992      -0.24211730       0.12545890
O       -4.96545196     -18.85014234      -3.88711009       0.00401228      -0.17713930      -1.32470187
H       -4.24008064     -19.05412757      -3.32033658      -0.24741564       0.15067312      -0.24893998
H       -5.02040078     -19.39004394      -4.68418087       0.17876162      -0.09065339      -0.11083156
O       27.52143710      -9.87720635      -7.15588745      -1.04279142       1.57855805       0.19038224
H       28.49792508     -10.08263036      -6.79743718      -0.01741041      -0.03872679       0.33838471
H       27.06364778     -10.64916099      -6.82826905       0.38439295      -0.04436673       0.15010455
O        7.02866226       0.40706230       5.97090561       0.34912175       0.56187897       1.03302411
H        6.79624920       0.52866425       6.87308132      -0.29002122       0.06961493      -0.35452828
H        7.44206530      -0.45871757       5.99072849       0.11605828      -0.10200279       0.20168956
O      -18.55528396      -1.97034875      24.52580883       0.62173810       0.87263040      -0.14628255
H      -18.68472858      -2.17268221      23.61941531       0.40847574       0.11211394       0.42615184
H      -17.78654990      -2.38011483      24.96458846      -0.26954351       0.24538135      -0.32322741
O        4.96365818      -6.65459021      -5.57701745       0.34684918       1.47595697      -0.17569349
H        5.12817439      -6.08148067      -4.84333429      -0.01138739      -0.16179441      -0.34201075
H        5.50261290      -6.29932785      -6.37520869       0.19679200       0.12736199      -0.13631463
O       12.14896120       9.72550909       6.29994209       0.36022409      -0.94820163      -0.68392307
H       11.78158803      10.23985214       7.24466726      -0.19435356       0.52668392       0.11493260
H       12.31570413      10.22049393       5.51620632       0.13969319       0.00224115       0.36270512
O        4.51574609      11.83441769      -5.13404914       0.83653514      -0.95263450      -0.39265439
H        3.85532635      11.92613983      -4.48815952      -0.15788164       0.41347802      -0.08807368
H        4.09572954      11.20684605      -5.78793980       0.06999321       0.24331867       0.25681239
O       13.12978033      28.96697955      15.90227494      -0.76908791      -0.37074549       0.39463228
H       13.73643842      28.76247928      16.56531509       0.08325808      -0.30187694      -0.34780818
H       12.31090183      29.26089057      16.23446581      -0.14108087       0.07259322      -0.03615172
O       -4.11775138       4.05796457       1.24000043      -0.16297132       0.60764539       0.50137845
H       -4.59829862       5.02712933       1.38788630      -0.11738202       0.41360014      -0.12046756
H       -4.84867586       3.49225096       1.64800201       0.26830510      -0.04899733      -0.02016468
O        6.57909598     -15.83085700       8.79127746      -0.60768835      -0.32317185      -1.27013021
H        5.66637829     -15.59263496       8.52427825       0.16884518      -0.07370976       0.05367262
H        6.60906595     -16.77116651       8.86616212       0.45436697      -0.09483765       0.09557523
O        1.50592198       8.68538131      22.71336710      -0.92442682      -0.36166935      -0.79148750
H        1.33994623       7.80615034      23.06218452      -0.09309541      -0.33273398      -0.28702820
H        2.02370606       8.62240692      21.95434644      -0.09442927      -0.05847502       0.13129356
O       22.78073282      22.90748122      -0.31538219      -1.48661553       0.80705930       0.62637748
H       23.44075356      23.48178734       0.11622227       0.11496223      -0.33453670       0.04037474
H       22.43802887      22.64544519       0.52163090       0.33610498      -0.06580988      -0.09092867
O       12.04097992       6.01138007     -16.61226655       0.62015278       0.20374049       0.13773283
H       11.75543974       5.12755358     -16.77748431       0.01223437       0.33465662      -0.03548267
H       11.91495299       6.48492379     -17.58600497      -0.17061891      -0.09999956       0.04744126
O       -7.79335209      22.75572342       1.73616495      -0.85341079      -1.87277010      -0.68336355
H       -8.65220375      22.34530253       1.75999396       0.27825178       0.14870670      -0.03812579
H       -7.87084571      23.50393639       2.50079530      -0.13089432       0.46812748       0.36288522
O        5.14878205     -15.65559737      17.45949469      -0.48002858       0.13284251      -0.25990499
H        5.92474202     -15.89223929      17.96678644       0.02155472       0.15585089      -0.44767372
H        5.37314388     -14.75280320      17.28390217       0.22788612      -0.18403834       0.38440367
O        1.63026008      18.60182933       0.61312633      -1.70605084      -0.74179641       0.10064424
H        0.86673767      18.83831543       1.03421844       0.16305598      -0.26629176      -0.21573162
H        1.35495708      18.69361346      -0.37965721       0.30981101       0.06466653       0.26050791
O       -4.84879390      -6.60808355       6.55447766      -1.23965747      -1.42459169       0.58202864
H       -4.51169007      -7.51794153       6.57822147      -0.29233816       0.50648057       0.00401191
H       -5.64162260      -6.63777432       5.97979954      -0.20156579      -0.37166844      -0.00172016
O       -3.57744620       2.34831581       8.52937850      -0.44216463       0.78488390       0.75965483
H       -2.90545791       2.70619377       9.12656391       0.07248390       0.14042798       0.02478297
H       -3.15311392       1.56367833       8.08829699       0.05161650       0.35871593      -0.21453747
O       14.35806253      -6.95226161      -2.48521257       1.01466596      -1.08434788      -0.32142403
H       13.69418485      -7.14724025      -3.04987616      -0.10381459       0.12256552      -0.01076600
H       14.85427274      -7.73405826      -2.27301315      -0.21995814       0.29216824       0.13297139
O       11.49634398       3.45922422      23.58397636      -0.10583525       0.02161846      -0.23786048
H       11.05699300       3.31859015      24.42675292       0.19771197       0.04980863       0.26174013
H       12.20556574       2.87462350      23.47622058       0.36783867      -0.41742178      -0.03911813
O        7.99084632      13.72841285      25.54762891      -0.47426532      -0.47593424       1.29950778
H        8.85451809      13.96727117      25.37172147      -0.23901046      -0.17235367       0.12492462
H        7.79531063      12.72744920      25.35166510      -0.03303647       0.32799462       0.11912393
O       -9.05886926       5.78604870      11.50821644       1.57675488       0.02599787       0.59942682
H       -7.95246646       5.35627731      11.48553966      -0.08151751       0.27887650      -0.05936248
H       -9.08793663       6.29868882      12.27633518       0.35497679      -0.35983721      -0.52698972
192
Lattice="13.059290964991886 0.0 0.0 -5.288903641373699e-07 13.059290964991886 0.0 -5.288903641373699e-07 -5.288903641373699e-07 13.059290964991886" Properties=species:S:1:pos:R:3:momenta:R:3 step=190 time_fs=19.0 phase=production pbc="T T T"
O       12.75785011      -2.78454563     -15.46472481       0.90294897       0.50159257      -0.57073365
H       12.20841754      -2.67047700     -16.24967727      -0.11481826      -0.18332884      -0.20058130
H       13.14511973      -3.63125031     -15.66951501      -0.13500417      -0.18620927       0.18029839
O       25.26592382      24.44129313       0.45424452      -0.19918105      -0.55373863       0.64601325
H       25.55500180      25.19648078       0.87733623       0.36844468       0.50448735       0.21681904
H       25.71718054      24.35944332      -0.54409639       0.23808791      -0.23471716       0.22945216
O        5.40575847       1.42774742       7.98998180       0.80470379      -2.03770821      -0.73780504
H        6.11110100       1.83730226       8.47345890       0.33401305       0.11481052      -0.19392376
H        5.42297260       0.49021893       8.19006815       0.00230132       0.31213363      -0.54338015
O       -2.97687484      -5.64041935      -1.94710580      -0.64096829       0.80270075       0.82182214
H       -2.27914256      -5.37947730      -2.49795777      -0.14577162       0.31573831       0.10923351
H       -2.89554236      -4.74980700      -1.83449504       0.12026643      -0.39823365      -0.16836463
O        3.39014738      16.35556510      10.61207066      -1.28477512       0.04885047      -0.41420164
H        3.86121820      17.10551247      10.99794813       0.17300674       0.37349671      -0.21632500
H        3.24041924      16.33564053       9.66182617       0.53579921       0.27090141      -0.15479346
O       -2.04039731       4.32740244       3.00186017      -0.74852264      -0.56476956      -0.02464477
H       -2.57747415       4.23109824       3.68020228       0.02283995      -0.32384974       0.01430796
H       -2.52131609       4.27794943       2.18208116       0.11959720       0.09578982       0.29115293
O       23.89881259      13.34994327       7.28331848       1.39298008      -0.12209030      -0.22909166
H       24.86536874      13.30959537       7.46464596      -0.36824240       0.01962767       0.36497712
H       23.65506857      12.85777477       6.48941016      -0.21952419      -0.40509858      -0.10786698
O       -0.78269061     -15.00061699       3.88612687      -0.83390724      -0.82067773      -0.13225636
H       -0.80807126     -15.71086626       3.25481425      -0.26147983       0.40559790       0.22622621
H       -1.55551061     -14.51760744       4.09845212      -0.30075152      -0.45989798       0.03160796
O       18.46093299     -18.43988068       9.81186388      -0.05900483      -0.62873890      -0.46379336
H       19.34113187     -18.73890725      10.09036647       0.52160928      -0.10816489       0.08048906
H       17.88805517     -18.66324149      10.57709851      -0.04248641       0.32250489       0.03590951
O        4.90842609     -14.21039814     -13.63933338       0.28738624      -0.21291207      -0.55659439
H        5.68395692     -13.70973860     -13.48587905       0.17178854       0.39955092      -0.09084521
H        4.87097301     -14.72224128     -12.86761369       0.28462326      -0.15767398       0.02593356
O       -4.80784597       2.28489763       4.37183089      -0.10247854       0.60245886       0.14841517
H       -4.84771643       2.06099880       3.43986426       0.10629009       0.04678414       0.20446965
H       -5.70911506       1.98481418       4.75239464      -0.13527037       0.00594435       0.13597933
O       -5.86777650      15.25742479      27.61995597       0.73960572      -0.97436822      -1.32698844
H       -6.78796980      15.57614358      27.43845735      -0.68670090       0.54600720      -0.40865324
H       -5.61335530      14.51255041      27.02045507      -0.33038377       0.21738711       0.31630686
O        7.55259756     -15.47425190      -6.73357145       0.69881416       1.19063591       1.95967340
H        7.97031278     -16.28745641      -7.00900768      -0.08505996       0.06635249       0.06505266
H        7.13247468     -15.41610139      -5.90168671       0.48020999      -0.03970626      -0.69200580
O       15.44357017       7.49469908      20.55451349       0.48721576       0.40108208       0.21484471
H       14.83944436       6.83354837      20.18180756       0.34338107      -0.16339396       0.01813020
H       16.40328362       7.17061079      20.62232271      -0.41296665      -0.01572837      -0.12673070
O       -0.28886769       1.13122993       1.01546586      -0.72425877       0.80899996       0.29432546
H       -0.05537019       1.63501825       1.79858956       0.05507942       0.35197297      -0.08527487
H        0.41522967       1.51274611       0.45220336       0.28102116       0.21298606       0.05672156
O      -16.10164978      12.58594707      17.77173012       0.63299860       0.02832624       0.72400530
H      -16.24817817      13.04387151      16.93752330       0.33052676       0.49374836      -0.65264268
H      -16.70736342      11.88433444      17.77913614      -0.24153420      -0.45285730      -0.02582229
O      -17.67032505       6.33688151      12.94270644       1.80816572       1.02364659       0.42245395
H      -18.27232081       5.71148565      12.33142768       0.19250564      -0.02240388      -0.55746704
H      -17.14938572       6.98126217      12.45681640      -0.10250196       0.03277127      -0.36224165
O       -9.95356641      34.27596948     -11.47247909       0.57984029      -0.11198848       0.15103622
H       -9.53903603      34.04240474     -10.68412887      -0.17635808       0.16236097       0.13880228
H      -10.30993755      33.59130607     -11.97204068       0.02983064       0.60661373      -0.18165561
O       36.61875570      10.88571107      21.69116233       1.59065310       0.15170035      -1.32999065
H       36.62820209      11.74949407      21.29958077       0.01742361       0.25286349      -0.01823708
H       35.74922389      10.81815347      22.10392146      -0.31520741      -0.23947667       0.34947035
O       30.54676889     -10.95787212       2.33396231       0.43890028       0.90544044      -0.92617140
H       30.29881405     -11.48433965       3.04133723      -0.45022762      -0.31579665      -0.07301931
H       30.10962037     -11.31082384       1.56984422       0.32287068      -0.00162150       0.35621755
O       16.36837017       9.69192222      -6.91213202      -0.05608898      -0.73634386      -0.32243399
H       16.75687149       9.61259647      -7.81846957       0.22850189      -0.27226976       0.05207932
H       15.88344720       8.87382699      -6.74054148       0.06281723      -0.12012688      -0.23147335
O       -9.23818518       3.45668316      33.46703645       0.14380756      -0.35690324       0.27563726
H       -8.96384868       4.42973352      33.37301075      -0.01362824      -0.17582347      -0.11852568
H       -8.46445738       2.89852785      33.61649915       0.11243620       0.10713456      -0.32996426
O        3.36312854       1.21826746       0.10948823       1.71179011       0.39667076      -0.16975277
H        3.39404908       1.87169391      -0.52553388       0.14142619       0.29553735      -0.19938645
H        3.71839239       0.43914412      -0.24769437      -0.07493488      -0.14420174       0.24091746
O       23.41413268       1.95768445      12.98978957      -0.83295001      -0.21936667       0.06781747
H       23.46148014       2.78022543      13.53338595       0.22482569      -0.06318693      -0.14524753
H       24.12706865       1.37246606      13.32491349      -0.25828687       0.26460603       0.07413501
O        0.05309064      32.52282882      15.75015043      -0.60126809       0.60990829       0.95054603
H       -0.64696709      31.83629385      15.63670699      -0.08625970       0.26712859       0.31480196
H       -0.29784826      33.27228689      15.33547973      -0.17026131      -0.48193902       0.32804549
O        5.98412001      20.23267766       5.09235221      -1.45425410      -0.91134850       0.95300206
H        5.18704002      19.84808443       4.60571667       0.09000778       0.23786759       0.38074883
H        6.56884904      20.83780042       4.62949369       0.37331366       0.34096609      -0.39438926
O       -9.69580761      10.97092839      10.46447934      -1.18042389       0.74457482       0.71503238
H      -10.16156508      10.13746794      10.45758331       0.11823812       0.07260018       0.07302101
H       -9.07584258      10.97068925      11.37780251       0.07510250       0.00589002       0.17167582
O       17.14747760      17.95272832      28.05220568      -0.47118970      -0.47742604      -0.82901301
H       17.71075969      17.22896940      28.11205214      -0.31086408       0.55059279      -0.22639562
H       16.29012646      17.69459467      27.73748407       0.27318958      -0.44967792       0.16196800
O        6.74675749      18.35234801      10.90252573      -0.08520756      -1.30059803       0.33831662
H        7.27512499      18.75381166      10.21378535       0.34106759       0.19633219      -0.28642102
H        6.54070574      17.42289286      10.65779568       0.16777402      -0.15717540       0.04220508
O        1.00966842     -13.59152169      10.38203236       0.07608307      -0.08706935      -0.68814650
H        0.28958582     -14.09762444      10.57631578       0.01549533       0.04761907       0.03337327
H        1.77082015     -14.28963553      10.44606309      -0.49510737       0.10339951       0.20109619
O        0.05341036       9.13705502       1.94268053       0.58234236      -0.96383410       1.56587418
H        0.98794087       9.02514438       1.90762937      -0.22256509       0.28561827      -0.15334427
H       -0.31119632       9.59620270       1.13152910       0.07877176       0.15346838      -0.26094163
O        0.52646195       0.58860936       7.88587177       0.59216556      -0.88885775       1.75624573
H        0.95322112       0.31076384       7.15575794       0.07982290      -0.13296629      -0.24388768
H        0.98224468       0.24903941       8.65523416       0.06413168       0.17901169      -0.11943740
O      -18.78895100      28.96907703     -15.97571610       1.19153865       0.95709003      -0.84869881
H      -17.96934238      28.96285900     -16.64783670      -0.29934466       0.39139337      -0.08791057
H      -18.52836705      28.38609432     -15.28357244      -0.15141935       0.09066425       0.00352430
O        4.63797440      26.35458022      -8.22538624       0.52284301      -0.13460029       0.79367600
H        5.15303521      27.01833259      -7.83423462      -0.40152057      -0.34933733      -0.25272016
H        3.71680262      26.73214984      -8.23588404       0.07582527       0.03539809      -0.27698451
O      -18.32545382      21.49108722       1.50523523      -2.06737984      -0.87584642       0.44887246
H      -18.08590609      20.59911782       1.21353044       0.14843005      -0.08126325       0.05384506
H      -19.11862020      21.93190895       1.27336850       0.08087774       0.20226863       0.20240764
O       11.43849573      20.28061367       6.91102041       0.11216006      -0.09703349      -0.01905408
H       11.70167282      21.12573159       6.75001354      -0.11562224      -0.30978359       0.12475354
H       10.63022075      20.11785338       6.54250252       0.45206531       0.21745036      -0.03622663
O       -9.49598495      -6.82201602       4.29696591       0.18881200      -0.63110744      -0.32703017
H       -8.98867996      -7.60225983       3.76682539      -0.15784442       0.23573477      -0.16666335
H       -9.99585312      -7.30824231       4.91135093       0.01412709      -0.06516186       0.60239580
O      -25.51306486       1.94719065      11.28219843      -0.09124761      -0.48498617       0.12977634
H      -25.61003757       1.36536293      10.49962604      -0.13700197      -0.26686058      -0.90891218
H      -24.57641148       2.38840140      11.05004131      -0.64157064      -0.35390834       0.47028954
O      -12.48904759      -7.49506144      19.39672766      -0.28401468      -0.46515720      -0.17625831
H      -12.01863291      -8.26510705      19.12847703       0.32871519       0.01822285       0.28705718
H      -12.88819552      -6.89977580      18.79147163      -0.03879418       0.03338111       0.01015950
O        8.07933787       8.68094076      17.29999993      -0.76836585       1.24769990      -1.27964003
H        8.63645229       7.89143518      17.53367045      -0.14445423       0.04799188      -0.30485441
H        8.02746519       8.62298372      16.32599486       0.17578135      -0.17815860      -0.10664883
O      -11.13030946      -0.76096192      18.53692428       0.42661587      -0.20525652       0.71208661
H      -10.85521401      -1.65425592      18.77565994      -0.07576323      -0.28395550       0.06499680
H      -11.89359852      -0.84719436      17.98851460      -0.16083299       0.11721122      -0.01503462
O       22.55454606       4.05372734      19.00694987      -1.43387309       0.98289664      -0.94483915
H       22.28371152       3.32197552      18.41525841       0.10082929       0.19901788       0.52327330
H       22.74696370       3.61749960      19.85196920       0.07231077      -0.27722152       0.21790687
O       -4.96568936     -18.85015179      -3.89532479      -0.19256244      -0.16533917      -1.44107419
H       -4.25690486     -19.03972263      -3.34080596      -0.08053296       0.11811132      -0.15627754
H       -5.00001026     -19.39692482      -4.69471927       0.23231496      -0.07096219      -0.10938603
O       27.51455599      -9.86740540      -7.15399790      -0.69706666       1.43733997       0.29472328
H       28.48372413     -10.07938249      -6.76787191      -0.23465011       0.09683309       0.25932555
H       27.09687947     -10.65284386      -6.81310668       0.31968575      -0.04967479       0.15414032
O        7.03055589       0.41028043       5.97636120       0.41064368       0.47483551       0.83268050
H        6.76230564       0.53989939       6.84925459      -0.40509932       0.16333719      -0.10822547
H        7.45362058      -0.47046767       6.00777029       0.12207547      -0.12035057       0.15578231
O      -18.55039582      -1.96454303      24.52443129       0.59082835       1.01610459       0.16242676
H      -18.64420132      -2.16451537      23.64713840       0.39393941       0.04449228       0.11662322
H      -17.81073000      -2.35759312      24.93142382      -0.19539563       0.18834590      -0.29498045
O        4.96579530      -6.64498764      -5.57879430       0.43189584       1.50912394      -0.53276822
H        5.12905037      -6.09331757      -4.86960290       0.03816628      -0.06275408      -0.16968629
H        5.51297110      -6.29146635      -6.37785062       0.02226738       0.02634114       0.07601110
O       12.15012381       9.71927531       6.29664766       0.22977499      -0.91704166      -0.24724032
H       11.76527637      10.28398818       7.24509515      -0.12538590       0.38456342      -0.10234559
H       12.33034412      10.22446727       5.54256552       0.17966149       0.10377729       0.16457770
O        4.52077390      11.82751591      -5.13668205       0.87751210      -1.05113923      -0.50905916
H        3.83540261      11.96698271      -4.49000181      -0.22423906       0.43392223       0.02346956
H        4.10621475      11.23342452      -5.76075574       0.13304686       0.28907169       0.26802538
O       13.12439783      28.96328359      15.90295530      -0.76691639      -0.29817265       0.13325758
H       13.75248166      28.72737619      16.54192011       0.24991600      -0.38202413      -0.12059450
H       12.28653800      29.27068367      16.23437843      -0.31042578       0.14876827       0.04531848
O       -4.11946750       4.06177110       1.24353020      -0.44784690       0.71106246       0.65950799
H       -4.60261388       5.05625571       1.37210741       0.01856301       0.19478257      -0.19961474
H       -4.81179352       3.49530840       1.63954516       0.46456020       0.10573008      -0.14219010
O        6.57479119     -15.83171888       8.78282990      -0.64592519      -0.26485146      -1.32233922
H        5.68408864     -15.59827530       8.52999888       0.17928494      -0.05779976       0.06565605
H        6.65291410     -16.78218111       8.87602713       0.44831807      -0.13101432       0.11409432
O        1.49964302       8.68257162      22.70804673      -1.09751574      -0.41554967      -0.52527176
H        1.33077871       7.77477127      23.03393318      -0.09012102      -0.28252285      -0.27210704
H        2.02247629       8.61492671      21.95203263       0.07134549      -0.08358150      -0.15164984
O       22.77071784      22.91165348      -0.31172999      -1.36516272       0.96378648       0.53558475
H       23.44963657      23.44596043       0.11549326       0.10108406      -0.36702830      -0.04781044
H       22.46367222      22.63315083       0.52022454       0.21274021      -0.16362856       0.07746344
O       12.04414051       6.01312306     -16.61119734       0.63019138       0.49967640      -0.09170855
H       11.75390457       5.15234045     -16.78007109      -0.03888219       0.15023731      -0.03803240
H       11.89923388       6.46979718     -17.57037126      -0.13486613      -0.20003931       0.25763711
O       -7.79802177      22.74373423       1.73253383      -0.75029150      -1.60352493      -0.48146722
H       -8.62674047      22.35818286       1.75580098       0.17631333       0.11168809      -0.04281503
H       -7.88189721      23.53568824       2.52696485      -0.10716709       0.21931758       0.18791989
O        5.14546797     -15.65403341      17.45682050      -0.52454296       0.08453755      -0.30179871
H        5.93088104     -15.88146321      17.92635393       0.12796117       0.03817185      -0.35197564
H        5.39180021     -14.76154179      17.31843466       0.16307334       0.00471058       0.34119287
O        1.62057643      18.59597258       0.61212941      -1.39810678      -0.83251472      -0.39930579
H        0.86341693      18.81665259       1.02878670      -0.24522901      -0.15329813       0.11427442
H        1.39091192      18.69699024      -0.34357922       0.42365830       0.02787853       0.45577421
O       -4.85652030      -6.61634816       6.55757712      -1.39211529      -1.32220246       0.54156612
H       -4.53658275      -7.47308290       6.57780956      -0.19297160       0.33616009       0.00022222
H       -5.65537379      -6.67364376       5.98393166      -0.08864232      -0.36648557       0.09276592
O       -3.57946838       2.35263338       8.53332572      -0.28624056       0.68070941       0.69326452
H       -2.89880727       2.71967228       9.12741053       0.05602710       0.13669921      -0.00052921
H       -3.15169993       1.60536708       8.07107622      -0.01747395       0.48268659      -0.13784588
O       14.36414117      -6.95784236      -2.48637596       1.18375789      -0.83299634      -0.13213016
H       13.66602284      -7.13808434      -3.06411963      -0.43198250       0.06256232      -0.26382110
H       14.83778517      -7.71126574      -2.25805576      -0.08291559       0.13349472       0.18002991
O       11.49465083       3.45937197      23.58127574      -0.18772853       0.03828676      -0.20544162
H       11.07727596       3.32294682      24.44814056       0.24001547       0.04573418       0.18703980
H       12.24574582       2.83016543      23.47332134       0.41262570      -0.44396715       0.01595172
O        7.98612705      13.72366387      25.55415400      -0.91736246      -0.79412613       1.29801002
H        8.84917834      13.95441462      25.37986233       0.14553100      -0.07260876       0.06902735
H        7.79620617      12.77190014      25.36469010       0.05349675       0.56897842       0.17259010
O       -9.04776233       5.78485133      11.51007385       1.86121572      -0.33633297       0.16452160
H       -7.97421720       5.39136356      11.48100297      -0.34949722       0.43642794      -0.02460172
H       -9.05222542       6.27294369      12.24170983       0.36332314      -0.12406407      -0.11573098
192
Lattice="13.058586121907181 0.0 0.0 -5.288618185818166e-07 13.058586121907181 0.0 -5.288618185818166e-07 -5.288618185818166e-07 13.058586121907181" Properties=species:S:1:pos:R:3:momenta:R:3 step=200 time_fs=20.0 phase=production pbc="T T T"
O       12.76247548      -2.78139436     -15.46785653       0.82093499       0.46389314      -0.74044391
H       12.19556876      -2.68460533     -16.26551476      -0.12056179      -0.11286423      -0.12503928
H       13.13642624      -3.65165600     -15.64936789      -0.03623168      -0.22194169       0.21711416
O       25.26355612      24.43597240       0.45721455      -0.09173368      -0.67351636       0.36626708
H       25.59165625      25.25065289       0.89959593       0.38118123       0.56058308       0.20108287
H       25.73307896      24.33717052      -0.50715354       0.11254826      -0.19558168       0.53083940
O        5.41045711       1.41550265       7.98475611       0.84317296      -1.85937191      -0.81956116
H        6.14529949       1.84931642       8.45659997       0.34926309       0.11864013      -0.15812080
H        5.42116551       0.51241184       8.13946168      -0.03213344       0.09537592      -0.47510988
O       -2.98128155      -5.63654127      -1.94184659      -0.84894600       0.34584575       0.85560333
H       -2.29162158      -5.34070865      -2.48591483      -0.11594000       0.47757597       0.13806133
H       -2.87567901      -4.77598568      -1.85468708       0.29090047      -0.13145578      -0.25051441
O        3.38193448      16.35516104      10.60897615      -1.31253489       0.13243125      -0.40701392
H        3.87504397      17.13575048      10.97208316       0.09983457       0.24099347      -0.30837126
H        3.29540224      16.36215849       9.64945683       0.59345890       0.28862469      -0.08316919
O       -2.04348990       4.32395409       3.00038873      -0.30537499      -0.48293960      -0.34210630
H       -2.59260756       4.19541013       3.70698846      -0.31093532      -0.40105925       0.50576464
H       -2.51488389       4.28742906       2.20238435      -0.00765195       0.10211895       0.10183066
O       23.90614950      13.34817549       7.28149981       1.37000995      -0.22908084      -0.26173465
H       24.82627232      13.31208252       7.49853631      -0.36874687       0.04410274       0.34464444
H       23.63470946      12.82158359       6.48140234      -0.16447740      -0.30986296      -0.03190692
O       -0.78729781     -15.00477368       3.88557276      -0.68597105      -0.75509446       0.05401811
H       -0.83409559     -15.67623714       3.27065654      -0.27405302       0.24983165       0.07043733
H       -1.59121200     -14.55939415       4.10035934      -0.42838957      -0.41244197       0.01456041
O       18.45973305     -18.44303748       9.80894184       0.02718008      -0.73033200      -0.31185091
H       19.38464067     -18.74548099      10.09408909       0.35642345      -0.03733393      -0.00158746
H       17.88571368     -18.62873010      10.57371701       0.01710102       0.36181734      -0.09097390
O        4.90971195     -14.21056642     -13.64236502       0.26009866      -0.08444445      -0.62807537
H        5.70673452     -13.66644515     -13.49695085       0.25315431       0.44120047      -0.15711971
H        4.89557875     -14.74620971     -12.85470001       0.23068623      -0.32379441       0.18810344
O       -4.80922103       2.28811936       4.37301199      -0.42360329       0.49653986       0.33719372
H       -4.83705441       2.06490551       3.45749928       0.10647447       0.03061814       0.13858727
H       -5.70663903       1.98925814       4.75965713       0.17747641       0.08629852       0.01826822
O       -5.86375579      15.25065952      27.60995363       0.43491752      -0.90511649      -1.41333708
H       -6.83964984      15.62292766      27.40079264      -0.36311856       0.42253157      -0.32842764
H       -5.64570405      14.53660996      27.05188947      -0.32443114       0.24751004       0.32180630
O        7.55693543     -15.46582132      -6.72228363       0.86998858       1.28691969       1.55263765
H        7.96123794     -16.28252684      -7.00226166      -0.08625194       0.00551012       0.05866726
H        7.17116364     -15.42210080      -5.95129604       0.29255551      -0.09769125      -0.27535103
O       15.44613082       7.49652461      20.55466945       0.59243631       0.34284280       0.19784972
H       14.87416979       6.81954543      20.18334154       0.37578576      -0.12356025       0.03154670
H       16.35388555       7.17048792      20.60785277      -0.54177613       0.00964316      -0.14303014
O       -0.29278446       1.13656655       1.01693084      -0.53823258       0.96247417       0.19773868
H       -0.05347012       1.66435971       1.79130740      -0.01918237       0.24552865      -0.07014720
H        0.43719965       1.52772884       0.45752061       0.15514708       0.08736281       0.06192532
O      -16.09686959      12.58586374      17.77431381       0.57082366       0.12228704       0.37675843
H      -16.21311466      13.08625001      16.88538679       0.37238941       0.34736332      -0.33493603
H      -16.73288302      11.83749891      17.77832482      -0.23296484      -0.40823435       0.02309064
O      -17.65879241       6.34237228      12.94413655       1.64422639       0.88305050       0.26453411
H      -18.24420795       5.71848479      12.28495126       0.35977867       0.16948312      -0.38216713
H      -17.15861524       6.98135364      12.42139707      -0.11031063      -0.02746863      -0.34452651
O       -9.94921447      34.27465728     -11.47095014       0.67804481       0.29684658       0.16971611
H       -9.55187686      34.04993805     -10.65838876      -0.10760876       0.03195905       0.36065570
H      -10.31228444      33.63353486     -11.99911364      -0.09589362       0.28747579      -0.39398266
O       36.62604650      10.88596853      21.68203867       1.38788875       0.14552730      -1.25242564
H       36.62982440      11.77642101      21.29503471       0.05069791       0.27925476      -0.03500668
H       35.72449542      10.79345668      22.13352411      -0.10629173      -0.24473276       0.25673565
O       30.54817594     -10.95121960       2.32805212       0.55322542       1.04195806      -0.87446766
H       30.25126206     -11.52008969       3.04515777      -0.47094479      -0.39050593       0.10829338
H       30.13627149     -11.31253552       1.59596588       0.23825364      -0.06042615       0.14172861
O       16.36728557       9.68661850      -6.91433643      -0.00858699      -0.81987543      -0.51428867
H       16.77686072       9.58694760      -7.80390375       0.20290678      -0.24025957       0.23106555
H       15.89038461       8.86380602      -6.76141125       0.09369834      -0.07873954      -0.20044070
O       -9.23662816       3.45499912      33.46686624       0.18626973      -0.14524269       0.25672828
H       -8.96745987       4.39865510      33.36099225      -0.06492102      -0.43226918      -0.09326149
H       -8.45593147       2.91220846      33.58095575       0.06464404       0.16393169      -0.35821309
O        3.37311677       1.22060401       0.10911416       1.61362035       0.42221271       0.00021462
H        3.40727630       1.91145331      -0.55466060       0.13303407       0.46264336      -0.35116317
H        3.71624845       0.41312420      -0.22794659       0.02578779      -0.36647589       0.16746472
O       23.40801979       1.95633485      12.98986414      -0.77548359      -0.17259669       0.16210389
H       23.48003760       2.76856673      13.51442108       0.17861575      -0.15306695      -0.21942320
H       24.09710900       1.40164550      13.32961513      -0.29687129       0.30231605       0.05024821
O        0.04940129      32.52356802      15.75531995      -0.56654041       0.18391379       1.03271711
H       -0.65061848      31.86401531      15.66971560      -0.00312201       0.31912675       0.37682669
H       -0.32092322      33.23889803      15.36058958      -0.32041742      -0.12954575       0.18403358
O        5.97469639      20.22590039       5.09748382      -1.44572243      -0.88848152       0.80008979
H        5.20151579      19.87585922       4.64586384       0.17956682       0.33651450       0.42872874
H        6.59956984      20.86786312       4.59307946       0.22958424       0.26212849      -0.31791674
O       -9.70219076      10.97504672      10.46887602      -1.06455709       0.80102187       0.90028244
H      -10.14879356      10.14274671      10.46524861       0.12635941       0.03575781       0.09610625
H       -9.07686139      10.96979645      11.38239975      -0.10600676      -0.01064591      -0.06341055
O       17.14311789      17.95004473      28.04575198      -0.66275508      -0.03871043      -0.77807645
H       17.69358688      17.26482258      28.08985130       0.01783198       0.16568295      -0.19332185
H       16.30962201      17.64931592      27.75003585       0.12053379      -0.46389160       0.11920328
O        6.74577301      18.34301893      10.90387408      -0.09152389      -1.39563716       0.26260226
H        7.30627701      18.76957567      10.18699901       0.28127073       0.12958904      -0.22014525
H        6.56123150      17.41313038      10.66240573       0.25880004      -0.02287434       0.06405316
O        1.01166720     -13.59135428      10.37700568       0.55347425      -0.09272503      -0.76161371
H        0.27213607     -14.10226354      10.58278606      -0.35890914      -0.14401977       0.10619568
H        1.71833240     -14.26801844      10.46336641      -0.55444502       0.30617795       0.16555876
O        0.05634775       9.13121151       1.95175670       0.33921970      -0.77794385       1.41566044
H        0.97056136       9.05323740       1.89064992      -0.09240869       0.29529922      -0.19237587
H       -0.29830608       9.60676247       1.11561732       0.18369753       0.07166297      -0.05969005
O        0.52930580       0.58350943       7.89700142       0.36877849      -0.77776177       1.93038488
H        0.96996894       0.29147746       7.11339961       0.22925294      -0.24006876      -0.55032074
H        0.98963362       0.26437304       8.65056560       0.09883243       0.12978770       0.04451767
O      -18.77989905      28.97359821     -15.98100058       1.41905433       1.02813062      -1.14760702
H      -18.01087632      28.99963334     -16.64430654      -0.56135312       0.38945460       0.13806895
H      -18.54157792      28.38988656     -15.27815808      -0.13852675       0.02076608       0.08548019
O        4.63971988      26.35194789      -8.22050971       0.11143638      -0.30023215       0.62934978
H        5.12524613      26.99294559      -7.85105754      -0.13132744      -0.10397411      -0.07918021
H        3.73284283      26.72795317      -8.26219824       0.24181890      -0.08801157      -0.27390074
O      -18.33645478      21.48439471       1.50825028      -1.83385995      -0.92904470       0.55950065
H      -18.07456340      20.59115629       1.21683123       0.06187833      -0.05704660       0.01513318
H      -19.11957222      21.95147445       1.29053515      -0.12378815       0.22387239       0.15042945
O       11.43979241      20.27767051       6.91142514       0.51759446      -0.51043657       0.27899222
H       11.69785661      21.12014982       6.75830840       0.05396255       0.22699291       0.05245588
H       10.64722053      20.13315919       6.52798069      -0.10197304       0.11691357      -0.26151011
O       -9.49359241      -6.82617392       4.29415745       0.39428082      -0.87442819      -0.47275795
H       -9.01272267      -7.56727953       3.75490107      -0.34907821       0.47544712      -0.06527978
H       -9.99662696      -7.31546488       4.97161650      -0.00531978      -0.06137180       0.59281583
O      -25.51149766       1.94418614      11.28132538       0.11707893      -0.49055767      -0.22661642
H      -25.62016325       1.34428298      10.42108920      -0.09473936      -0.15361773      -0.67329782
H      -24.65127992       2.34795367      11.09957701      -0.89102102      -0.45861132       0.55171012
O      -12.49005925      -7.49722129      19.39534181      -0.26551994      -0.37058180       0.05757058
H      -11.98499613      -8.26305777      19.15050427       0.34329765       0.02241088       0.18821623
H      -12.89308036      -6.89601342      18.78589115      -0.07181381       0.02932744      -0.09787613
O        8.07450980       8.68745747      17.29094701      -0.66771657       1.03864508      -1.37153596
H        8.61702832       7.90467519      17.50265034      -0.23425709       0.21787278      -0.30164158
H        8.04370395       8.60699696      16.31861275       0.16300404      -0.13505508      -0.03073456
O      -11.12696037      -0.76234512      18.54047360       0.45250633      -0.28110096       0.75955396
H      -10.86288638      -1.67939920      18.77968312      -0.10097638      -0.21199358       0.03173220
H      -11.91015118      -0.83666710      17.98413611      -0.16762034       0.09821986      -0.03795819
O       22.54454643       4.05936517      19.00053915      -1.40297155       0.95601022      -0.74521151
H       22.29205503       3.34278997      18.46504179       0.07254928       0.18079907       0.47483115
H       22.75162182       3.59384323      19.86769223       0.04393193      -0.18790893       0.10321652
O       -4.96738991     -18.85011388      -3.90449595      -0.44608783      -0.15788298      -1.61436016
H       -4.25325025     -19.02931649      -3.34859506       0.14849936       0.07618421      -0.00806270
H       -4.97493953     -19.40141277      -4.70471619       0.27482976      -0.04094757      -0.09932311
O       27.50987906      -9.85849717      -7.15146021      -0.34310203       1.28486714       0.41022181
H       28.44993904     -10.06208500      -6.74658978      -0.42377009       0.24967066       0.16722850
H       27.12177095     -10.65812045      -6.79767146       0.21762694      -0.06831001       0.15219098
O        7.03303620       0.41268574       5.98045628       0.52124475       0.30964760       0.62283285
H        6.71651894       0.56002871       6.85099728      -0.51965265       0.24415238       0.13074713
H        7.46352411      -0.47843776       6.02088757       0.08213413      -0.02724667       0.12337846
O      -18.54644476      -1.95738780      24.52507977       0.35175652       1.28498811       0.45859646
H      -18.60662303      -2.16421161      23.63496325       0.35733461      -0.03646503      -0.33082529
H      -17.81474982      -2.34701326      24.90955167       0.11139219       0.01753110      -0.11417003
O        4.96833305      -6.63549195      -5.58311420       0.47538583       1.46369685      -0.96802558
H        5.13513496      -6.09017749      -4.87210198       0.09012103       0.12304197       0.11661070
H        5.50693842      -6.29335764      -6.36033622      -0.13393285      -0.06891738       0.26733514
O       12.15040301       9.71319118       6.29628657       0.07809259      -0.88151698       0.22156329
H       11.75601670      10.31270925       7.22369022      -0.05244481       0.21414656      -0.32465877
H       12.34957174      10.23982258       5.54735764       0.22532541       0.21074092      -0.04362448
O        4.52598168      11.82064057      -5.13908814       0.89674003      -0.94639601      -0.31605962
H        3.81579389      12.00817515      -4.48743466      -0.15229247       0.41746146       0.00386018
H        4.11724814      11.25621138      -5.74096781       0.07758676       0.16322605       0.10273907
O       13.11875831      28.96021268      15.90255695      -0.84189917      -0.19217128       0.05648966
H       13.77893345      28.68666702      16.53624350       0.27640389      -0.40838063      -0.00500046
H       12.25666195      29.28369152      16.23959327      -0.25361488       0.13630575       0.06944285
O       -4.12238928       4.06650688       1.24774017      -0.53403809       0.93918995       0.70922470
H       -4.59467914       5.06499491       1.34913251       0.13875432      -0.01016160      -0.26925733
H       -4.76392865       3.50770553       1.62347870       0.46821428       0.11490905      -0.16118759
O        6.57080175     -15.83263201       8.77409962      -0.51228137      -0.33033391      -1.36457804
H        5.69622457     -15.60172455       8.53480940       0.05601633      -0.02824488       0.03714947
H        6.69473040     -16.79112528       8.88686116       0.41221647      -0.05402064       0.11513339
O        1.49240147       8.67913017      22.70423586      -1.21362511      -0.56501194      -0.34909201
H        1.32287443       7.75318959      23.00586048      -0.06774673      -0.14189180      -0.28068597
H        2.03478331       8.60565471      21.92647227       0.15887428      -0.09366873      -0.31176138
O       22.76134311      22.91668119      -0.30886280      -1.30506133       1.06184235       0.40060422
H       23.45968787      23.40934854       0.10835864       0.14133281      -0.34915958      -0.09161212
H       22.47740557      22.61130147       0.53655031       0.10015225      -0.25418268       0.24246796
O       12.04735008       6.01698873     -16.61162725       0.61729201       0.85681434      -0.34436565
H       11.74588240       5.15367786     -16.78278329      -0.11044370      -0.11256591      -0.03203462
H       11.88800749       6.44584148     -17.53321868      -0.07957571      -0.28041075       0.48457142
O       -7.80121895      22.73371097       1.72999729      -0.41310933      -1.25500838      -0.31463701
H       -8.62489113      22.36068561       1.75188331      -0.16364986      -0.04259404      -0.03443133
H       -7.89101430      23.54450836       2.53794960      -0.08875939      -0.01395753       0.04049330
O        5.14171190     -15.65282519      17.45384890      -0.59862654       0.04466579      -0.35604560
H        5.94992300     -15.88348017      17.89644588       0.26169981      -0.09471626      -0.24818083
H        5.40443181     -14.75013402      17.34863624       0.09947275       0.19960610       0.30054774
O        1.61285534      18.58958269       0.60883565      -1.11843893      -0.91697045      -0.57145397
H        0.82208939      18.80533766       1.05413803      -0.55653146      -0.07071225       0.37813646
H        1.43486402      18.69806303      -0.29929737       0.46242303       0.02377765       0.39116312
O       -4.86554508      -6.62304032       6.56038854      -1.63554361      -0.95549185       0.49179685
H       -4.54463551      -7.46080382       6.57823435       0.03230116      -0.11166407       0.01752520
H       -5.65951448      -6.70759362       5.99653475      -0.01123825      -0.33548039       0.16759475
O       -3.58071739       2.35668534       8.53715506      -0.20091992       0.70568036       0.72289310
H       -2.89479489       2.73224872       9.12514040       0.02187603       0.12408680      -0.03579555
H       -3.15379119       1.65329360       8.05811521      -0.01441404       0.47724166      -0.13502005
O       14.37041355      -6.96167724      -2.48707098       1.06308311      -0.55201321      -0.18194169
H       13.61803451      -7.13259521      -3.09334674      -0.47556357       0.05067300      -0.29135855
H       14.83740235      -7.70975695      -2.23719831       0.08406424      -0.10666312       0.24158911
O       11.49319615       3.45887625      23.57894863      -0.06417108      -0.15838429      -0.13616161
H       11.10324081       3.32762173      24.45843902       0.30371001       0.05598845       0.04919982
H       12.27687059       2.79424680      23.47752711       0.21899556      -0.27181357       0.09597714
O        7.97903514      13.71788958      25.56086970      -1.20204586      -0.76580619       1.34669124
H        8.87890645      13.95092614      25.38290169       0.43804582       0.00778295       0.02881215
H        7.80257935      12.82601298      25.38051582       0.07103499       0.48501618       0.16640590
O       -9.03509947       5.78123735      11.50883884       2.11241170      -0.72252638      -0.33777581
H       -8.01618930       5.43885822      11.47821286      -0.51618235       0.53898790      -0.02663461
H       -9.01732991       6.27671418      12.25573832       0.33651191       0.19877290       0.39627821
