192
Lattice="12.749513626098633 0.0 0.0 -5.291772140481044e-07 12.749513626098633 0.0 -5.291772140481044e-07 -5.291772140481044e-07 12.749513626098633" Properties=species:S:1:pos:R:3:momenta:R:3 step=0 time_fs=0.0 phase=equilibration pbc="T T T"
O       11.58024883       0.72498864     -16.52445793       1.11768299       0.20408896       0.69008038
H       11.81181717       0.78436756     -15.53965855       0.36097603       0.29840838      -0.15413935
H       10.76372814       0.18189090     -16.44460487       0.15239367      -0.02783003      -0.01289933
O       26.36344719      24.79401588       4.85561371       0.24636511       0.03920975       0.99621760
H       26.70196342      23.84678841       4.58326721       0.12184479       0.01628950       0.07550418
H       25.49327087      24.94361305       4.49529648       0.05278673       0.23805757      -0.02937182
O        4.55044222      -0.28422797       6.68408966       0.18357736      -0.60336600      -1.58355279
H        4.83529854      -1.07390165       7.11166525       0.10448683       0.13631298      -0.11614725
H        4.04536915       0.15737888       7.41435432       0.36563978      -0.23838440       0.01117406
O       -2.84938097      -4.43740463       0.99063027      -0.13847139       0.93324112       1.00592910
H       -2.61852217      -3.73749900       0.44086069       0.02390609       0.05773556      -0.13967824
H       -3.60226274      -4.18081188       1.49332213      -0.32121079      -0.05959153       0.02904448
O        4.24721289      15.84552383      10.73478317       0.77406131       0.72053872      -0.18935610
H        4.32293320      16.65563965      11.23829556      -0.04998140      -0.17280874      -0.22568214
H        5.19970036      15.68020821      10.36292934      -0.27684983       0.31185556      -0.07857528
O       -1.38442278       6.65292120       5.13221407      -0.29998804      -0.86003830       0.56052247
H       -1.16714787       6.34425259       4.30304146      -0.26192329      -0.03774898      -0.14091939
H       -0.51785862       7.04266024       5.23280573       0.06138793      -0.08591356      -0.18699957
O       22.81806755      12.30516911       5.78538847      -0.03611034       0.22222706       0.10281672
H       23.17335701      13.23964310       5.97626257       0.04774470      -0.10587278      -0.05483579
H       22.49505615      12.44190884       4.78045988      -0.10979553      -0.06147261      -0.12761717
O       -0.99380004     -15.77508926       6.81807756      -1.12930256       0.06070057      -0.19866128
H       -0.45485213     -16.08402252       6.13538647      -0.26455731       0.07140934      -0.14283130
H       -1.49262893     -14.86474609       6.47252512       0.00726189       0.11444236       0.02462237
O       15.45499039     -17.88147926       9.66319847       0.71554873      -0.84846998       0.31901162
H       16.20885658     -18.30376244      10.29202080      -0.11179112      -0.14408501      -0.08975696
H       15.70476151     -16.92102242       9.71442318      -0.05147608       0.00570373      -0.18449776
O        3.25135970     -14.66133022     -13.33013248       0.56196096       0.24625949      -0.92899846
H        4.07719374     -15.24898148     -13.27065277       0.23935606       0.30298645       0.19426001
H        2.57298112     -14.89321613     -12.72210789      -0.03020624      -0.17639601       0.17416975
O       -5.74231339       1.54765272       2.85520196      -0.27752205       0.73345619       0.19407663
H       -6.46929693       1.30210924       2.21823668       0.15668401       0.05421351       0.11795573
H       -5.43554926       2.35845280       2.31344628       0.00056469       0.28520842       0.02428775
O       -5.38575363      16.01581192      25.98963737       0.24082278       1.15880104      -0.80765703
H       -5.29129553      15.31565762      25.36113358      -0.20643089       0.15327365      -0.18578622
H       -4.35831404      16.55647278      26.03186607       0.31293957      -0.07020916      -0.11700203
O        7.41874647     -15.71936703      -8.56404495       1.21997197       0.89959466       1.26227987
H        7.76011896     -16.59404373      -8.22976398       0.14527660      -0.14253835       0.31242910
H        6.70255852     -15.71397018      -8.01100159      -0.04443893       0.12629761       0.15684724
O       13.68023586       8.54409504      17.93683052      -0.11775878       0.34180640       0.65368701
H       14.04198074       8.80058670      17.02638245       0.05969494      -0.18102529       0.05197249
H       14.22989178       7.91326284      18.49035072       0.21319994      -0.11560795      -0.02039969
O       -0.15136531       1.17568886      -1.25246716      -0.29810774       1.13698550       0.49280032
H        0.81402797       1.41365457      -1.19074392       0.06471013      -0.12778354       0.09091769
H       -0.07980151       0.32297695      -0.61002493      -0.11009807       0.00177145      -0.09896707
O      -14.19501877      12.66273403      15.80837536       0.41750254       0.31767226      -0.07410255
H      -14.08447456      12.39100170      14.93772030       0.06285908      -0.18000092      -0.23719382
H      -15.12377834      12.22245789      16.00036049       0.06986971       0.02356085       0.10639523
O      -16.50709915       5.89053583      12.35020161       1.51623836       0.55450928      -0.52765617
H      -17.07337189       5.99335480      11.63549519       0.17936770      -0.21601080      -0.07080799
H      -15.87981319       6.77748966      12.58092308      -0.01215924       0.27348859      -0.11656573
O       -9.93085670      32.95535660      -9.56657028      -0.55000669      -0.11690284      -0.36713513
H       -9.34108829      32.25430298      -9.17445087       0.18092215      -0.17787923      -0.18164064
H      -10.60434055      32.31637573     -10.11273479      -0.07187977      -0.08384961       0.31557481
O       34.72598267      11.51679993      21.45279121       0.59324470       0.00284148      -0.72890836
H       34.76889801      11.55188560      20.38697433       0.13530940      -0.16499782      -0.24584112
H       35.17197418      10.55581474      21.38193321       0.19084284       0.04784298       0.15258235
O       30.39016914     -12.69961739       2.17083836       0.18722109       0.49808324      -0.35911841
H       29.79241180     -12.15017319       2.64960074      -0.16825629       0.10676742      -0.12604383
H       30.32688141     -12.61913013       1.28064585      -0.11255702      -0.07698201       0.00660438
O       17.59328842       9.34982014      -7.42393255      -0.24585931      -0.93867906      -0.35434986
H       17.75654030       8.24436951      -7.47171736      -0.36041383       0.09765966      -0.25509811
H       17.49332619       9.50084782      -6.49755478      -0.17959036       0.00505733      -0.11572678
O       -5.19974279       2.63030171      32.17810059       0.97538472      -0.88582886       0.23191499
H       -5.76909018       2.18207788      31.62262344      -0.00747976      -0.19212541       0.08833667
H       -4.51727343       1.96271300      32.26456833      -0.02885235       0.12134229       0.13685072
O        3.72383595       0.83603644      -0.23808952       1.37466686       0.80689973      -0.17767484
H        3.50995302      -0.10580844      -0.28170851      -0.03981352       0.17432296       0.10966459
H        4.04864979       1.22581255      -0.97762311       0.10230744      -0.26465753      -0.00015098
O       23.25961304       3.22112799      11.66518211      -0.49309219       0.12668637      -0.00319194
H       22.89178276       3.69758320      12.53435612       0.14594465       0.04788751       0.13084338
H       23.95712090       2.57524610      11.70460510      -0.07650112      -0.15598604      -0.06248042
O       -1.44264293      31.80788803      14.97783184      -0.02892466       0.19056619       1.51447818
H       -1.90867865      32.56244278      14.49384594      -0.00796039      -0.15784413      -0.05212762
H       -0.63238788      31.96923447      14.54845619      -0.07604493       0.07443097      -0.24519894
O        4.83401251      19.39249229       5.20213461       0.02275903       0.04723308       0.20946672
H        4.19375563      18.92559814       5.89170027      -0.09765288      -0.04181807      -0.22633545
H        5.66431284      18.99529266       5.20644188      -0.08084804      -0.09109358       0.07100982
O      -10.11733818      10.47273445       9.45824909      -0.76228711       0.44939303       1.02210441
H      -10.56179523      10.95322704       8.62468815      -0.33562285       0.06550747       0.11316211
H      -10.49601841      10.85548878      10.17052078      -0.10413607      -0.06756761      -0.01769240
O       17.70605659      17.76738930      26.21935463      -0.20967728      -0.25245609      -1.01897234
H       18.51691628      17.23879242      26.00022125       0.18507433       0.17108451      -0.12765240
H       16.93769073      17.24535561      26.08018112      -0.23809291       0.08082729      -0.08926222
O        6.93529034      18.72588730      10.12019539       0.07341833      -0.25909691       0.50518909
H        7.17553711      19.43673134       9.56392574       0.11113316      -0.12062204      -0.21975919
H        6.77701330      17.86063004       9.62658024      -0.25692053       0.09525970      -0.18832899
O       -0.61552304     -13.79612541      13.26192093      -0.34424236      -0.43741294       0.02615325
H       -1.32075751     -13.98700047      12.60902309      -0.31401730       0.02713283       0.08843595
H       -0.07504050     -14.52363777      13.75675488       0.01315619      -0.05360847       0.01951889
O        1.14059913       6.22465849       1.06936646       0.23892814      -1.83844376       1.31915943
H        1.58913505       5.20397615       1.11494458       0.06190353      -0.10879540      -0.05939462
H        0.86076492       6.21000004       0.19304278       0.07865219      -0.02213342      -0.32436032
O        3.08428288       1.33452666       8.34316635       1.31109867      -0.12468486       0.71675497
H        2.14491916       0.71188623       8.18653011      -0.11296100       0.24489254       0.05005045
H        3.21509027       1.66781306       9.25075817       0.09725164      -0.17227556       0.19949001
O      -18.86823654      28.79443550     -16.13371277       0.42611937       0.78457256      -0.34435151
H      -18.57898712      28.67098045     -17.17761993      -0.07886164       0.36892000      -0.16750906
H      -18.02880287      28.11259079     -15.81260872      -0.02310026       0.18033927       0.01957137
O        2.89657831      26.89320755      -9.10925674       0.35732283      -0.31067644       0.29822691
H        3.39167643      26.84923363      -8.50101948      -0.21225492       0.26456683      -0.01531434
H        2.37178278      26.07023048      -8.79159164      -0.11104265       0.10430939      -0.07066824
O      -18.04356575      19.06403160       1.91016555      -0.87692777      -0.92050290       0.50662754
H      -17.35203743      18.82579613       1.07529342      -0.02691764      -0.02497704       0.17793354
H      -18.82352066      18.41457176       1.64946640      -0.18321686      -0.12144299      -0.05841319
O       11.69502831      17.57333946       7.08430672       0.04277370      -0.08067057      -0.12469572
H       12.57938862      17.40537834       6.63619947      -0.01109028      -0.02071164      -0.11250165
H       11.44980621      18.34218216       6.52200270      -0.13250432       0.04098728      -0.14018391
O       -7.21591282     -11.17987347       5.19630289      -0.76304215      -0.25456721      -0.04150717
H       -6.55555296     -11.33497524       4.52568722       0.36353407      -0.11724526       0.15620229
H       -7.33566570     -12.14186478       5.44856691       0.11960685      -0.19549482       0.12873058
O      -24.11656189       3.45878673      10.69699860      -0.78011849      -1.76542662       0.45032720
H      -24.75385094       4.16675711      10.53126049      -0.28486803       0.06949485      -0.10675007
H      -23.20468330       3.72668266      10.25629997       0.26703637       0.16928937      -0.06948314
O      -11.42477703      -8.17853928      18.47018814      -0.46077907      -0.83511270      -0.22385967
H      -10.61190796      -8.51080894      18.81251335      -0.04643492      -0.06230325       0.02910183
H      -11.33889198      -8.48281574      17.61085892       0.09235182       0.05312892      -0.11969884
O        8.64130497       7.31222343      16.93864441      -0.94357958       0.82492790      -0.38385450
H        9.65557957       7.37318468      16.82402420      -0.10653675      -0.08759155      -0.29404345
H        8.34004402       6.79352379      16.19911957      -0.07836829      -0.08088011       0.10402419
O      -11.66915131      -0.47635421      20.40851212       0.43168092      -0.05109410       0.65989409
H      -12.51255322      -0.31226641      20.80952263       0.05380325      -0.00590616       0.02978444
H      -11.54479408      -0.51122749      19.37783432      -0.03193989      -0.06717618      -0.03948341
O       24.20710564       2.47224188      16.24833298      -0.74415130       0.12701927      -0.57935209
H       23.82329369       2.48642898      17.10057259       0.13486798      -0.04368233       0.01177784
H       23.88504791       1.49528539      15.90733051       0.07866754       0.10058171      -0.25001862
O       -5.65780354     -17.97080421      -4.97955227      -0.15116650       0.51311426      -1.03320103
H       -4.91104460     -17.61366272      -4.62017727       0.06144900      -0.36785083      -0.16144795
H       -5.84719610     -18.62328148      -5.61049509       0.00511033      -0.27108224      -0.15546971
O       29.51348114      -9.01765537      -6.13924885      -0.96549591       1.00750409       0.16572019
H       30.18786430      -9.07189655      -6.90846157       0.09053696      -0.03935436      -0.05333147
H       29.35758591      -9.90000534      -5.99594784      -0.26233961      -0.05053035      -0.11927034
O        8.81016541      -0.69567221       3.37943673       0.53434142       0.68108958       1.00413937
H        8.13959217      -0.08129326       2.97969079       0.13663266      -0.10010913      -0.17653895
H        8.18504810      -1.42161870       3.76989532       0.12275381       0.05420162      -0.28199990
O      -19.77704430      -3.17595220      24.77496529       0.21088243       0.47084467       0.09792943
H      -20.24594879      -3.93345857      24.23261070      -0.03103501      -0.13388076      -0.22996701
H      -19.22686005      -3.35188770      25.64948273       0.12818889      -0.05332217      -0.03394620
O        2.33822227      -5.82634640      -6.04426193       1.09751282       0.38714205       0.29872204
H        2.60435629      -5.58678818      -5.23193264       0.02182389       0.24224533       0.28164996
H        1.84410310      -6.58979034      -6.15263700       0.14906759       0.09071014      -0.33468899
O        9.83052444       8.29157162       7.94427252       0.06168154      -0.13728112       0.12047930
H       10.55507374       8.67099094       7.39429855       0.15125569      -0.44607910      -0.08821577
H       10.27916145       7.62031031       8.47927094       0.04248208      -0.07881009      -0.22517930
O        5.33315372       9.75194168      -4.79990673       0.54144840       0.12472113      -0.56517681
H        6.11570072       9.05035877      -4.75399590       0.04973959       0.12938873       0.00463515
H        4.79601765       9.65584373      -3.99316049       0.12823201       0.00927406      -0.06008552
O       13.78490734      29.46945572      15.87139988      -0.76437171      -0.10884166       0.18507536
H       12.97367859      29.05727959      16.07074165       0.14039463      -0.02197240       0.07769412
H       14.51437759      28.85084534      15.94469070      -0.15700458      -0.12983786      -0.01405801
O       -2.79554796       3.97514725       1.67142200      -0.69690935       0.47453222       0.35814578
H       -2.09789133       3.54244971       2.37876797       0.04396733       0.05139176       0.33036224
H       -2.66680431       4.90871143       1.82570362      -0.07689622      -0.35910506       0.03598501
O        7.81044340     -14.01097202      10.98301983      -0.05054459      -0.38668680      -0.57015015
H        6.86072922     -14.50368881      11.26676464      -0.07210106       0.02593057      -0.07747072
H        8.08376408     -13.91688442       9.99806213       0.38869865      -0.15858089      -0.12438068
O       -2.40225267      10.55052280      24.40655136      -1.49132057       0.10837733      -1.23811470
H       -2.11677766      10.18962383      23.63982582      -0.08830300      -0.04791794      -0.11090571
H       -3.26164699      10.98137951      24.01273727       0.27985406       0.15731305       0.21694048
O       20.08693123      21.72748566       1.53467739      -0.58604532       0.67303738       0.37930701
H       19.91960526      22.10029221       2.53567410       0.12352020       0.16297592      -0.14306801
H       19.85652733      20.72363663       1.67248571      -0.06969790       0.13601563      -0.42534410
O       12.13112259       9.99456882     -15.93627644       0.95627332       0.30257013       0.03057169
H       12.65966415       9.41337395     -15.31909752       0.03450003      -0.16980029      -0.05276778
H       12.34766197       9.94609737     -16.98574066       0.17666397       0.20637652       0.43946529
O      -11.40509129      22.31270409       1.06221199      -0.06555812      -0.47748072      -0.27105557
H      -11.54109001      21.21931839       1.16522169      -0.16563836      -0.01595270       0.06562600
H      -10.82580090      22.41965103       1.83509648      -0.00666526       0.17378764      -0.03406725
O        2.95212603     -15.01799583      16.16424561      -0.24164693      -0.42772701      -0.99105234
H        3.49181795     -15.75963783      16.56245232      -0.25446908      -0.19391332       0.21407889
H        3.56264305     -14.31895351      16.05730057       0.14353394       0.21880966      -0.21149344
O        2.46401834      16.36612701       0.35240024      -1.28531600      -0.47844854       0.17318229
H        2.10474420      16.02274513      -0.38129756       0.07945182       0.16597073       0.04971692
H        2.72625208      15.46308708       0.61630619       0.28046748      -0.03934314      -0.14376543
O       -5.64552689      -7.28079033       5.59652519      -1.10029130      -0.62581800       0.21586385
H       -5.41443539      -8.04312229       6.03960514      -0.14474116       0.14799702       0.23199927
H       -4.82533407      -6.73557901       5.23846245      -0.38403580       0.13625095      -0.35811983
O       -2.16926670       2.36249566       6.64598942       0.24050713       0.73501765       0.10174734
H       -1.92925835       3.32724380       7.01350307      -0.20791820      -0.09797246      -0.03849963
H       -1.87211776       1.97126448       7.38212776      -0.03058112      -0.03615837      -0.01397616
O       13.16375923      -5.43200397      -1.44062662       0.11946546      -0.83156953      -0.09581129
H       13.87253857      -5.19277859      -1.97007370       0.24420524      -0.06552730      -0.06793999
H       12.83011246      -6.28154516      -1.97071934       0.17309491      -0.41691315       0.19467999
O       11.83367157       4.88765526      22.73101616      -0.42477033       0.05201119       0.12200384
H       11.19543076       4.19066000      23.06752205       0.15116230      -0.04661297      -0.10578292
H       11.82980919       5.03477716      21.78167343       0.20858811      -0.38540116       0.00706572
O        8.21489334      14.51268387      23.75709343      -0.88572619      -0.54380255       1.35478868
H        9.03183746      14.96227264      24.07449341      -0.00833823       0.02814942      -0.28410452
H        8.11122799      13.52015972      24.14614296      -0.11893903       0.02838982       0.06110553
O       -8.10852909       7.02339840      11.40487957       0.37916792      -0.04796728       0.39926609
H       -7.33910561       6.59090185      11.03143883       0.07219503      -0.29904156       0.00975969
H       -8.30591202       6.27672958      11.91421318       0.12295406       0.09194716      -0.05501639
192
Lattice="12.7494640261589 0.0 0.0 -5.291751553689504e-07 12.7494640261589 0.0 -5.291751553689504e-07 -5.291751553689504e-07 12.7494640261589" Properties=species:S:1:pos:R:3:momenta:R:3 step=10 time_fs=1.0 phase=equilibration pbc="T T T"
O       11.58700210       0.72601591     -16.51942749       1.10477969       0.13708107       0.91843967
H       11.84713600       0.81507954     -15.56286061       0.36355126       0.33006196      -0.31611475
H       10.78022243       0.18034658     -16.44762390       0.18003503      -0.00838597      -0.04719087
O       26.36540715      24.79318165       4.86163206       0.41893814      -0.27545477       0.96995608
H       26.70732584      23.86479044       4.59482143      -0.01010482       0.35203521       0.16108325
H       25.49832827      24.96615215       4.49183730       0.05850292       0.22481934      -0.03909468
O        4.55116063      -0.28740789       6.67443993       0.06502883      -0.44021700      -1.56597690
H        4.85029239      -1.06826550       7.10261432       0.20508284      -0.02358894      -0.06829815
H        4.08152699       0.13654492       7.41220448       0.36685518      -0.17993437      -0.04097036
O       -2.85002734      -4.43249418       0.99712528      -0.09817999       0.69356631       1.11266398
H       -2.61292862      -3.72170897       0.41843519       0.07893091       0.24087884      -0.29748244
H       -3.63989044      -4.18342632       1.49960321      -0.41718617      -0.00153085       0.07548462
O        4.25257183      15.84946247      10.73314746       0.96136086       0.56218652      -0.33956029
H        4.31875003      16.64514838      11.21897666      -0.03823360      -0.01317059      -0.15182468
H        5.16387820      15.71208202      10.35752034      -0.44132456       0.33533010      -0.03933599
O       -1.38635506       6.64782918       5.13632573      -0.31188174      -0.79449845       0.75839228
H       -1.19331145       6.33349759       4.27392582      -0.28341791      -0.17258552      -0.42881066
H       -0.50866811       7.03850378       5.21873411       0.11554531      -0.00387044      -0.10221000
O       22.81790279      12.30736827       5.78548832       0.00450305       0.49038835      -0.06810889
H       23.17284860      13.21696936       5.96881184      -0.04855950      -0.33922188      -0.09381542
H       22.48623899      12.43403810       4.77948381      -0.06928837      -0.09849588       0.10895113
O       -1.00168669     -15.77364644       6.81726278      -1.43365742       0.38440671      -0.07185730
H       -0.47288398     -16.08130532       6.11182949      -0.11324044      -0.01394998      -0.33113337
H       -1.48434427     -14.86560710       6.47879099       0.16139316      -0.13359549       0.10509388
O       15.46003394     -17.88637607       9.66573417       0.94136673      -0.77732155       0.51637146
H       16.18705344     -18.31224493      10.27334761      -0.33042238      -0.03215979      -0.28990520
H       15.69700850     -16.92794441       9.69494458      -0.10361824      -0.14112020      -0.21309414
O        3.25563995     -14.66008031     -13.33582213       0.80683456       0.13694792      -0.91643148
H        4.09021032     -15.21244089     -13.25264900       0.03206853       0.44056848       0.17335892
H        2.56690935     -14.91307236     -12.70279522      -0.06879087      -0.22326770       0.19828632
O       -5.74416232       1.55259364       2.85569468      -0.31650095       0.88517273      -0.01689557
H       -6.45185470       1.30549173       2.23539089       0.18598791       0.01017407       0.22075598
H       -5.43701716       2.37956109       2.32410211      -0.03174268       0.14623925       0.19476282
O       -5.38394411      16.02324856      25.98475876       0.34265994       1.28060341      -0.75188354
H       -5.30935995      15.33052913      25.34073176      -0.16493832       0.15665711      -0.22766975
H       -4.33602141      16.54434136      26.02093718       0.14365629      -0.17727563      -0.10485966
O        7.42726819     -15.71448247      -8.55666110       1.53936471       0.66302464       1.15780927
H        7.77497163     -16.60057838      -8.20464525       0.15845094       0.01377405       0.19867656
H        6.68113616     -15.69809680      -7.98598624      -0.36703187       0.19917449       0.33372931
O       13.68002498       8.54589937      17.94036603       0.06495946       0.25068576       0.53188658
H       14.04417517       8.77895276      17.04524371      -0.01021835      -0.25784831       0.32508488
H       14.24373049       7.91125730      18.48102227       0.06987599       0.07612112      -0.16858315
O       -0.15261662       1.18206774      -1.24900456      -0.11461736       0.94012591       0.63305520
H        0.81184527       1.40047326      -1.18388697      -0.10312185      -0.13922891       0.04911097
H       -0.09365688       0.33180158      -0.62602781      -0.17528713       0.17880960      -0.22918355
O      -14.19335426      12.66430134      15.80844957       0.11515031       0.19795003       0.07670926
H      -14.07167896      12.37184348      14.90259620       0.18977409      -0.19917811      -0.43756940
H      -15.10838673      12.22954591      16.01319907       0.24670801       0.12271741       0.15462957
O      -16.49642205       5.89444018      12.34818872       1.93207070       0.72807299      -0.12327769
H      -17.06298571       5.97932671      11.61716617       0.03969945      -0.07402494      -0.29506806
H      -15.89461637       6.79007726      12.56210554      -0.29173107      -0.01607746      -0.26717519
O       -9.93427365      32.95337063      -9.56889049      -0.57816768      -0.49723800      -0.40311938
H       -9.32882872      32.24709170      -9.19520084       0.07081879       0.03562885      -0.24397302
H      -10.60400371      32.31669099     -10.07634968       0.07923089       0.09909271       0.43100076
O       34.72999896      11.51574961      21.44741805       0.76088532      -0.33038586      -0.99214988
H       34.77983551      11.54015080      20.37372933       0.09114249      -0.07507074      -0.02508595
H       35.18277361      10.57369288      21.40044475       0.03289276       0.31988772       0.22882396
O       30.39186197     -12.69676767       2.16985087       0.37950619       0.43517689       0.02801658
H       29.76688740     -12.13352230       2.64074821      -0.33104484       0.21483137      -0.07207139
H       30.31193934     -12.62472499       1.25811325      -0.18924169      -0.04148337      -0.44003584
O       17.59191652       9.34314102      -7.42625976      -0.17889709      -1.23310063      -0.41304415
H       17.71907754       8.26584434      -7.49671436      -0.40605455       0.35004716      -0.25764445
H       17.47591366       9.50356731      -6.50315894      -0.17570421       0.05152249      -0.00021342
O       -5.19328533       2.62532693      32.17998596       1.09461404      -0.73555494       0.40297326
H       -5.78463849       2.15883106      31.62097452      -0.29185538      -0.27116405      -0.09978440
H       -4.51089744       1.97245485      32.28104543       0.16428770       0.07119009       0.20398757
O        3.73181317       0.84063746      -0.23775734       1.23413031       0.70544099       0.27683365
H        3.50562542      -0.09103262      -0.27425825      -0.05117594       0.12054090       0.04439572
H        4.06633755       1.20698550      -0.99643560       0.25824824      -0.12498517      -0.37850164
O       23.25584969       3.22253942      11.66565726      -0.69074471       0.32706977       0.17342986
H       22.91615858       3.69297382      12.53373647       0.35326188      -0.14056600      -0.14133109
H       23.95162953       2.55902737      11.70159783      -0.04369836      -0.16760581       0.00036531
O       -1.44349018      31.80937865      14.98686195      -0.22392979       0.33207000       1.43855973
H       -1.90891420      32.54120124      14.49376269      -0.00063141      -0.26818980       0.04831900
H       -0.62966806      31.97525257      14.52155343       0.11205430       0.04807837      -0.29495279
O        4.83287884      19.39245380       5.20409357      -0.37652214      -0.03786127       0.43076197
H        4.19362365      18.93063008       5.85902753       0.09429882       0.14529741      -0.43945268
H        5.66722116      18.98098857       5.21317448       0.13372941      -0.19608438       0.06697748
O      -10.12177444      10.47515743       9.46260125      -0.70452634       0.36137550       0.42420020
H      -10.58856584      10.95274231       8.64760282      -0.21368339      -0.07400683       0.35448222
H      -10.51427926      10.85847249      10.18768765      -0.26410124       0.12122818       0.35697379
O       17.70546914      17.76568982      26.21270525       0.02275810      -0.28560636      -1.11616896
H       18.52758675      17.25836637      25.99115164       0.03524283       0.22857503      -0.05678332
H       16.91008914      17.25079907      26.07150161      -0.30901296       0.04218894      -0.08447089
O        6.93539650      18.72324235      10.12335518      -0.02531339      -0.55729347       0.52478677
H        7.18836398      19.42862343       9.53826300       0.14646305      -0.05759645      -0.29317619
H        6.75453068      17.87963341       9.61353946      -0.20489178       0.28962863      -0.07925441
O       -0.61737742     -13.79915088      13.26230038      -0.26737436      -0.56600217       0.11001988
H       -1.34533610     -13.98835230      12.62244860      -0.18469021      -0.05449630       0.19208340
H       -0.08127650     -14.52148279      13.74704649      -0.14027200       0.09498980      -0.21640581
O        1.14242182       6.21252739       1.07798422       0.33839247      -2.10576559       1.43687329
H        1.59028278       5.20479078       1.10943672      -0.03872237       0.12706769      -0.05424946
H        0.86528010       6.21077724       0.15159369       0.03129195       0.03797261      -0.47251027
O        3.09177026       1.33323563       8.34743890       1.12976146      -0.29196677       0.69199096
H        2.14525083       0.74385067       8.19483424       0.12053554       0.40887008       0.11990530
H        3.22209258       1.64808764       9.26539297       0.04704250      -0.23315036       0.09627461
O      -18.86445812      28.79844690     -16.13656725       0.78051949       0.56013556      -0.60400770
H      -18.59200476      28.70852004     -17.17568684      -0.18863866       0.40198393       0.20129860
H      -18.04284056      28.13926612     -15.81309348      -0.26706592       0.36940462      -0.03055834
O        2.89581448      26.89010075      -9.10956910      -0.54993283      -0.65205214      -0.37522783
H        3.41450963      26.87367484      -8.45757168       0.63783807       0.25338492       0.85866182
H        2.36724998      26.09616579      -8.80721415       0.00384462       0.40378291      -0.24242281
O      -18.04884813      19.05774110       1.91237043      -0.86202077      -1.10293628       0.21190061
H      -17.36625970      18.82627638       1.10206149      -0.26671710       0.03724403       0.37367208
H      -18.83133542      18.41202825       1.64726840       0.01777732       0.06762517       0.01328925
O       11.69580583      17.57301321       7.08286939       0.21953613       0.00210988      -0.33879409
H       12.57314322      17.40124390       6.63043920      -0.11381566      -0.06236748      -0.00611871
H       11.43331329      18.34392308       6.51259728      -0.20157452      -0.01048373      -0.04682895
O       -7.22055558     -11.18225973       5.19616355      -0.73712938      -0.54379622      -0.01082720
H       -6.51784151     -11.34271283       4.53396581       0.39279519      -0.03920293       0.03047547
H       -7.32844059     -12.15090885       5.46220106       0.02932214       0.01091095       0.15021646
O      -24.12038693       3.44835358      10.69938014      -0.51447503      -1.60412807       0.33395054
H      -24.77706895       4.17138702      10.52015716      -0.17367717       0.00361413      -0.11537736
H      -23.19656459       3.73887630      10.25736201      -0.10472184       0.07954077       0.09340592
O      -11.42798333      -8.18327421      18.46942187      -0.58234437      -0.73273238      -0.02195921
H      -10.60820689      -8.52039143      18.82231499       0.10884505      -0.13056293       0.16974243
H      -11.33180300      -8.47985337      17.58250902       0.04974378       0.01710424      -0.43640422
O        8.63628643       7.31741962      16.93629600      -0.68706718       0.87323020      -0.36631033
H        9.63236796       7.36359314      16.79904780      -0.36058362      -0.10611827      -0.21450445
H        8.32986849       6.78373994      16.20411215      -0.13099477      -0.11663772       0.00243720
O      -11.66576685      -0.47669510      20.41167428       0.65281531      -0.05948788       0.39836663
H      -12.51240080      -0.31138484      20.81042739      -0.04908942       0.02334962      -0.00986485
H      -11.55406800      -0.51685093      19.38650500      -0.15712750      -0.04788319       0.21808319
O       24.20239093       2.47238602      16.24385154      -0.76671686      -0.07681561      -0.84726816
H       23.83273287       2.48297251      17.11257957       0.06721941      -0.02832769       0.22060673
H       23.89739987       1.51908966      15.88655354       0.17631459       0.38680503      -0.17251005
O       -5.66015664     -17.96735048      -4.98582848      -0.61277386       0.56777232      -1.03908196
H       -4.88414191     -17.64678275      -4.63437518       0.47375702      -0.31651816      -0.13240129
H       -5.84394040     -18.65414884      -5.62987375       0.06381909      -0.33759524      -0.21742724
O       29.50822793      -9.01070615      -6.13938443      -0.71439337       1.21324810      -0.21104975
H       30.18832646      -9.07164035      -6.90122619      -0.08100788       0.04209271       0.20299356
H       29.32609552      -9.92020798      -6.00093158      -0.37398398      -0.33124807       0.00858392
O        8.81259123      -0.69174216       3.38566662       0.27810918       0.59819033       1.02635039
H        8.15806906      -0.09264133       2.96485650       0.23648859      -0.12259579      -0.13266896
H        8.20434713      -1.41141370       3.73929551       0.26825986       0.14479607      -0.33825507
O      -19.77587818      -3.17387958      24.77561822       0.14271710       0.19993512       0.14156924
H      -20.23812855      -3.93342146      24.22357067       0.18953336       0.13498877       0.04696546
H      -19.22287383      -3.35685936      25.63191263      -0.04625819      -0.04886772      -0.32049746
O        2.34529768      -5.82320336      -6.04365937       1.22388841       0.63964693      -0.05006862
H        2.61140025      -5.56006741      -5.18433930       0.09503597       0.27851150       0.62681494
H        1.84995586      -6.59594663      -6.18324581      -0.01635937      -0.19928425      -0.28450923
O        9.83145590       8.29041475       7.94511737       0.24458484      -0.21797804       0.15444066
H       10.56472505       8.62806173       7.38799188       0.05337667      -0.42233986      -0.05161013
H       10.28163516       7.61576969       8.45409490       0.01434464      -0.03616725      -0.27157656
O        5.33695132       9.75197503      -4.80335625       0.70518182      -0.09838858      -0.57153300
H        6.10920272       9.07303825      -4.75383548      -0.17743131       0.33238826      -0.00247509
H        4.80885674       9.65624320      -4.00142440       0.12982192      -0.00136068      -0.10206973
O       13.78084425      29.46899405      15.87240752      -0.54167820      -0.00634667       0.16312608
H       12.97613898      29.04922230      16.07990005      -0.09300379      -0.13954530       0.11201048
H       14.49932582      28.83618172      15.94316326      -0.14695906      -0.16818104      -0.01720877
O       -2.79936700       3.97730241       1.67399020      -0.55738465       0.18656230       0.47411330
H       -2.10154955       3.55119947       2.40297387      -0.11837994       0.12587978       0.16556979
H       -2.67246146       4.88116992       1.83091882      -0.03406783      -0.15707944       0.07793474
O        7.80969996     -14.01350491      10.97890998      -0.17997740      -0.45526952      -0.75203496
H        6.87130089     -14.49184759      11.25109058       0.28813862       0.21409536      -0.24287100
H        8.11600965     -13.93601616      10.00119937       0.27143473      -0.23336931       0.18714282
O       -2.41245026      10.55202893      24.39951522      -1.80916590       0.37738396      -1.04340093
H       -2.11470822      10.17419530      23.61228813       0.11924170      -0.25633772      -0.42576191
H       -3.23078301      10.99599322      24.04128492       0.34070375       0.14988802       0.36421524
O       20.08286891      21.73081610       1.53799665      -0.70735669       0.45144884       0.69757086
H       19.93383207      22.11068136       2.50822420       0.16915330       0.05202233      -0.41770296
H       19.85403953      20.75034148       1.62925358       0.01648500       0.40196734      -0.45738028
O       12.13730802       9.99603214     -15.93634150       1.07330101       0.18904301      -0.07407553
H       12.65989986       9.40215606     -15.33632068      -0.02706379      -0.05986892      -0.29721389
H       12.36225760       9.96355551     -16.92702216       0.12484812       0.15338421       0.76531070
O      -11.40535915      22.30895437       1.06072925      -0.03859589      -0.71674832      -0.21311971
H      -11.55701228      21.23158636       1.16875881      -0.16065318       0.27157657       0.00711827
H      -10.82888823      22.43774276       1.82970134      -0.05604591       0.19881689      -0.07469262
O        2.95064880     -15.02127383      16.15837962      -0.21218633      -0.62445262      -0.90645298
H        3.46239217     -15.77128747      16.57955883      -0.34448965      -0.04272325       0.13758820
H        3.58025231     -14.29388176      16.03556723       0.19046577       0.25665290      -0.22628866
O        2.45692248      16.36315244       0.35481396      -1.02640942      -0.47626600       0.60391236
H        2.09926932      16.03148990      -0.40017400      -0.18764106       0.02146674      -0.42972359
H        2.75387964      15.46446497       0.60301112       0.28585214       0.06905680      -0.12766230
O       -5.65200691      -7.28319953       5.59690849      -1.02231742      -0.18387112      -0.07810130
H       -5.42202699      -8.04097535       6.06976003      -0.01367850      -0.09262693       0.38109717
H       -4.87384005      -6.73140632       5.20952847      -0.60508409      -0.05080862      -0.23319578
O       -2.16808037       2.36831534       6.64579669       0.14934943       1.15078359      -0.13891220
H       -1.95287212       3.30971916       7.00371389      -0.27516636      -0.25590256      -0.16073147
H       -1.86751111       1.95510604       7.39782006       0.11810390      -0.28597259       0.31839611
O       13.16358198      -5.43831843      -1.44130385      -0.12039290      -1.21842873      -0.15161640
H       13.90879960      -5.19184244      -1.98455999       0.46151147       0.06713968      -0.20168036
H       12.84921276      -6.30993517      -1.94247219       0.22121623      -0.16417703       0.38145032
O       11.83095123       4.88774022      22.73200930      -0.43724092      -0.01115387       0.23100254
H       11.21362870       4.19140811      23.05271664       0.21439971       0.05266293      -0.19012246
H       11.84763954       4.99594910      21.78259806       0.15988594      -0.40960926       0.00736187
O        8.20944474      14.50867367      23.76579052      -0.89077831      -0.74926885       1.50294944
H        9.02539424      14.95883948      24.04417584      -0.11256241      -0.09291677      -0.33088756
H        8.10457993      13.53452693      24.14325085      -0.01537621       0.26723636      -0.11797997
O       -8.10589709       7.02354944      11.40680602       0.48511497       0.09352911       0.23268936
H       -7.32881910       6.56367536      11.02955907       0.11961027      -0.24844153      -0.03848640
H       -8.29920769       6.27564518      11.92025566       0.01487828      -0.11131815       0.17856092
192
Lattice="12.7493069801805 0.0 0.0 -5.291686370690556e-07 12.7493069801805 0.0 -5.291686370690556e-07 -5.291686370690556e-07 12.7493069801805" Properties=species:S:1:pos:R:3:momenta:R:3 step=20 time_fs=2.0 phase=equilibration pbc="T T T"
O       11.59370545       0.72672731     -16.51310016       1.12818240       0.10192278       1.05301779
H       11.88259542       0.84842536     -15.59850727       0.37027521       0.35417754      -0.39907814
H       10.79716916       0.17926937     -16.45291502       0.16384073      -0.01820372      -0.06242513
O       26.36803103      24.79041118       4.86747253       0.52319547      -0.49130194       0.96036267
H       26.70027786      23.91230285       4.61387382      -0.11560865       0.59336480       0.22123899
H       25.50527883      24.98672228       4.48808483       0.09457946       0.20275607      -0.03477519
O        4.55130950      -0.28981129       6.66462558       0.01455662      -0.36437312      -1.60862561
H        4.87478925      -1.07733095       7.09752600       0.29362490      -0.14891944      -0.04217369
H        4.11498886       0.12395273       7.40896220       0.31323316      -0.07152001      -0.01175683
O       -2.85076375      -4.42834143       1.00419189      -0.16459825       0.67789528       1.18045278
H       -2.60581069      -3.69663028       0.38852077       0.05349892       0.24171232      -0.28780341
H       -3.67725412      -4.18217624       1.50373721      -0.32621525       0.02228304      -0.00556942
O        4.25859539      15.85208783      10.73049910       0.97789834       0.36309553      -0.46112587
H        4.31479279      16.65566231      11.21048163      -0.04473600       0.23368881      -0.01824126
H        5.11945682      15.74354529      10.35249989      -0.42773134       0.30573836      -0.07932518
O       -1.38793211       6.64296394       5.14095406      -0.18304909      -0.77363967       0.72372431
H       -1.22434987       6.31328610       4.22720125      -0.36395957      -0.22435529      -0.48307372
H       -0.49823712       7.04058113       5.21266420       0.08353718       0.04176218      -0.02117590
O       22.81760831      12.31060554       5.78435761      -0.02529849       0.57136512      -0.28793333
H       23.16625973      13.17967612       5.95936505      -0.06113854      -0.37794092      -0.08733193
H       22.48093869      12.42236595       4.80147969      -0.03619247      -0.13965499       0.34145965
O       -1.01121822     -15.77020306       6.81678071      -1.65566845       0.66397292      -0.09056627
H       -0.47967927     -16.08519422       6.07452126      -0.04566205      -0.06040299      -0.40513137
H       -1.46129485     -14.89087286       6.49329863       0.31030285      -0.39033737       0.19718544
O       15.46612439     -17.89086909       9.66926107       1.07611765      -0.76833102       0.65056211
H       16.14635083     -18.31078567      10.23693421      -0.47727619       0.04373001      -0.43588581
H       15.68517065     -16.94513117       9.67272904      -0.12979185      -0.19290454      -0.24066007
O        3.26081418     -14.65941261     -13.34091087       0.85549572       0.02939486      -0.78066452
H        4.08559133     -15.16465554     -13.23659373      -0.10364037       0.52121839       0.15448869
H        2.56369510     -14.93486299     -12.68710347       0.01865969      -0.22094866       0.10599959
O       -5.74588060       1.55857773       2.85516975      -0.24735721       1.07523491      -0.12113064
H       -6.43658287       1.30273460       2.25796486       0.10556319      -0.07434121       0.22528586
H       -5.44159451       2.38695753       2.35108334      -0.06232044       0.00908772       0.35609948
O       -5.38144604      16.03122356      25.97992994       0.45049338       1.37687227      -0.72186403
H       -5.32344099      15.34668731      25.31717036      -0.12602534       0.18247822      -0.24484329
H       -4.33023916      16.52171804      26.01112473      -0.02508827      -0.28219587      -0.08912674
O        7.43699863     -15.71098920      -8.54927182       1.61063703       0.41512449       1.25131232
H        7.79090005     -16.59088116      -8.19108167       0.16998813       0.18027902       0.07849449
H        6.63924223     -15.67505048      -7.95228101      -0.44121512       0.26622172       0.31885580
O       13.68067062       8.54698693      17.94331732       0.17608595       0.13682561       0.53232425
H       14.04144666       8.75169259      17.08461848      -0.02718483      -0.28730092       0.44443958
H       14.24385303       7.92732456      18.45830992      -0.05440464       0.24402947      -0.27967868
O       -0.15291700       1.18718649      -1.24469698      -0.00297713       0.73225673       0.76035982
H        0.79661004       1.38749701      -1.18121104      -0.18840139      -0.12036319       0.00583050
H       -0.11421242       0.35736048      -0.65438081      -0.24755203       0.34007780      -0.34883046
O      -14.19322568      12.66484460      15.80853788      -0.11195463       0.02780935      -0.01791974
H      -14.04915061      12.35449994      14.86094891       0.25985636      -0.14421100      -0.37951162
H      -15.07548823      12.24582912      16.02938573       0.41853888       0.20946039       0.17785667
O      -16.48334397       5.89944534      12.34817578       2.23270853       0.93114374       0.12821520
H      -17.06217599       5.97774120      11.58192029      -0.00382315       0.03434419      -0.39370402
H      -15.93571878       6.77403826      12.52914309      -0.54831516      -0.30984854      -0.40142741
O       -9.93788645      32.94873775      -9.57142647      -0.64169264      -0.86268117      -0.46223300
H       -9.32526195      32.25963296      -9.22071910       0.01550021       0.21780579      -0.27316303
H      -10.58918034      32.33600361     -10.02890513       0.20958123       0.30046484       0.53145061
O       34.73475586      11.51263049      21.44027976       0.92102838      -0.61943879      -1.24587691
H       34.78583492      11.53704280      20.38159307       0.03903715       0.01363964       0.19137689
H       35.17830831      10.61676819      21.42617772      -0.10599289       0.54652628       0.30405718
O       30.39397607     -12.69374884       2.17074625       0.40007170       0.52395609       0.22010679
H       29.73277642     -12.11269546       2.63140642      -0.33422196       0.18656865      -0.13872936
H       30.29021334     -12.62767882       1.20526084      -0.24368908      -0.02641693      -0.57329413
O       17.59079568       9.33445421      -7.42879721      -0.11748105      -1.55825677      -0.43061402
H       17.67723580       8.31348824      -7.52162688      -0.44704328       0.62924614      -0.25569182
H       17.45897709       9.51040649      -6.49875243      -0.16627066       0.08878712       0.07714043
O       -5.18657493       2.62096976      32.18217785       1.04452612      -0.70522885       0.40950214
H       -5.81928170       2.13347790      31.60874836      -0.37774657      -0.22362271      -0.10536551
H       -4.48644953       1.97678037      32.30330353       0.31857496       0.02715992       0.25513027
O        3.73909124       0.84487742      -0.23504224       1.17376211       0.69788655       0.55529893
H        3.49978622      -0.08292458      -0.27277061      -0.06632037       0.04843373      -0.01264289
H        4.09660052       1.19908884      -1.04597730       0.34159952      -0.05795366      -0.58817754
O       23.25094587       3.22492361      11.66707482      -0.79357297       0.44236433       0.31937432
H       22.95912495       3.67106543      12.50791360       0.52337898      -0.29653856      -0.36599175
H       23.94630036       2.54441298      11.70411985      -0.06915578      -0.12236671       0.05215958
O       -1.44499525      31.81137060      14.99516433      -0.24080662       0.43425681       1.32181396
H       -1.90991903      32.51176393      14.50186051      -0.02870571      -0.31371750       0.11310503
H       -0.61502894      31.97723250      14.49334021       0.16645178      -0.00365605      -0.26720958
O        4.82964838      19.39169537       5.20718476      -0.60257949      -0.12455460       0.56775582
H        4.21062079      18.95222342       5.80826576       0.23037291       0.28299138      -0.57234436
H        5.68688485      18.95875327       5.21924476       0.24488528      -0.24095531       0.05773755
O      -10.12606510      10.47721812       9.46376454      -0.76130517       0.37641540       0.05034847
H      -10.60315278      10.93874998       8.69282613      -0.08966493      -0.20795984       0.56870150
H      -10.54375290      10.87527731      10.23321268      -0.31550633       0.19898855       0.52839719
O       17.70571810      17.76354768      26.20521124       0.09563876      -0.34012623      -1.21929568
H       18.52485389      17.28161886      25.98831438      -0.07263624       0.24177114       0.00124338
H       16.88093599      17.25538728      26.06381082      -0.26639953       0.06646922      -0.06406168
O        6.93496866      18.71914989      10.12634137      -0.07476850      -0.65741128       0.48243226
H        7.20248504      19.42208107       9.50981825       0.13771271      -0.08699777      -0.27098170
H        6.73630804      17.91394888       9.60983356      -0.17391522       0.39501809      -0.00643425
O       -0.61887338     -13.80278745      13.26302312      -0.23143054      -0.65819163       0.17493401
H       -1.35649594     -13.99728086      12.64627726      -0.04928714      -0.13240257       0.29557992
H       -0.10184927     -14.50584814      13.71533713      -0.27416543       0.20986766      -0.41851303
O        1.14455545       6.19868311       1.08641395       0.35282367      -2.38295165       1.27923108
H        1.58145076       5.22894256       1.10440511      -0.14355715       0.37331602      -0.04705470
H        0.86960317       6.21717693       0.11020163       0.06667865       0.09448223      -0.34376440
O        3.09804850       1.33091144       8.35151381       0.92033850      -0.46332457       0.66072687
H        2.16868934       0.79114153       8.20948040       0.36460777       0.56045092       0.18102124
H        3.22450654       1.62274233       9.26979410       0.00593645      -0.28238637       0.00531669
O      -18.85838982      28.80088040     -16.14081562       1.11189840       0.35351236      -0.83721625
H      -18.61536475      28.74885019     -17.14031382      -0.29522811       0.43455673       0.50136517
H      -18.08000165      28.18351328     -15.81757321      -0.49292889       0.53879290      -0.05830351
O        2.89095432      26.88515574      -9.11285503      -0.88032596      -0.80377158      -0.61963667
H        3.50061718      26.90030846      -8.35065428       1.01946162       0.30437984       1.20299994
H        2.36796136      26.14101931      -8.83591404      -0.02157526       0.47608779      -0.33107178
O      -18.05379838      19.05020366       1.91273109      -0.82148703      -1.27287725      -0.08145952
H      -17.40325072      18.83298856       1.14841352      -0.48741642       0.10632015       0.57500097
H      -18.82096798      18.42657937       1.65214296       0.18036266       0.22974566       0.08890338
O       11.69741953      17.57312134       7.08003484       0.33913267       0.10552541      -0.55102622
H       12.55815797      17.39282961       6.63423780      -0.17947441      -0.10720020       0.07949852
H       11.41085056      18.33912435       6.51335422      -0.25456151      -0.08419989       0.06469086
O       -7.22457816     -11.18640517       5.19593228      -0.58499339      -0.84905312      -0.05460210
H       -6.48223207     -11.34204626       4.53440948       0.32062539       0.04992721      -0.00953840
H       -7.32951369     -12.13982310       5.47755768      -0.05214979       0.20895245       0.16516311
O      -24.12261921       3.43920787      10.70090485      -0.31587041      -1.35713721       0.20636254
H      -24.78542599       4.16498813      10.50928520      -0.00385635      -0.13724273      -0.10267688
H      -23.22447484       3.74185948      10.27420264      -0.46752668      -0.01773229       0.25118742
O      -11.43143314      -8.18767614      18.46926128      -0.55746396      -0.75841353       0.01077452
H      -10.59454610      -8.53485252      18.84370345       0.14242769      -0.16028930       0.26021395
H      -11.32973967      -8.47662200      17.53302265      -0.01241005       0.06298057      -0.52505714
O        8.63251792       7.32273473      16.93374258      -0.53836470       0.87684498      -0.40950626
H        9.58856828       7.35299670      16.78220423      -0.50436316      -0.10572184      -0.12798025
H        8.31447647       6.77190273      16.20085148      -0.18094235      -0.11565115      -0.05346265
O      -11.66105418      -0.47704455      20.41316172       0.82145328      -0.05229239       0.18374803
H      -12.52046882      -0.30802792      20.80690103      -0.10822807       0.04302125      -0.06006545
H      -11.57455960      -0.52047685      19.41930830      -0.26128746      -0.02651793       0.44932673
O       24.19717941       2.47128223      16.23796790      -0.84389445      -0.26491502      -0.97054252
H       23.83809905       2.48064620      17.13812950       0.06152314      -0.01991597       0.27562625
H       23.91884970       1.56985024      15.87372754       0.26718328       0.64300804      -0.08852265
O       -5.66480918     -17.96370110      -4.99233784      -0.87575566       0.53945907      -1.10262208
H       -4.82642920     -17.67714231      -4.64819747       0.65720906      -0.32434455      -0.16888992
H       -5.83436289     -18.68403190      -5.64850209       0.13208989      -0.25865974      -0.14779138
O       29.50404434      -9.00316537      -6.14156266      -0.55715324       1.15415072      -0.49728473
H       30.17210784      -9.06411199      -6.86963602      -0.23221361       0.10591385       0.42849771
H       29.28652711      -9.95510850      -5.99609359      -0.41600388      -0.33166596       0.07776811
O        8.81368007      -0.68826371       3.39193919       0.14283461       0.54377028       1.02540763
H        8.18369137      -0.10275429       2.95241659       0.27939155      -0.07098129      -0.13052748
H        8.23499525      -1.39663328       3.70589684       0.34375385       0.13280371      -0.33262741
O      -19.77498580      -3.17334962      24.77623175       0.06713509      -0.01932044       0.15138920
H      -20.20972491      -3.90833007      24.24013960       0.37616111       0.36188924       0.28376233
H      -19.23423219      -3.36151010      25.58895170      -0.17841575      -0.05000273      -0.53263356
O        2.35324913      -5.81844357      -6.04403564       1.36475472       0.86558605      -0.05035343
H        2.61795092      -5.53707391      -5.12218059       0.02380194       0.17761377       0.60297334
H        1.84479924      -6.62224697      -6.20579638      -0.06437855      -0.30054241      -0.17110220
O        9.83322395       8.28889248       7.94593522       0.35902564      -0.23597324       0.13853153
H       10.56662448       8.59045035       7.38227629      -0.00484750      -0.34017061      -0.07112342
H       10.28305055       7.60912319       8.42940805       0.02311947      -0.11515134      -0.22088255
O        5.34169026       9.75067668      -4.80694244       0.84616318      -0.26695460      -0.62439345
H        6.08332878       9.11307858      -4.75459997      -0.32793002       0.47217140      -0.01555041
H        4.81971199       9.65514011      -4.01130745       0.08446087      -0.01970186      -0.09180939
O       13.77789637      29.46876734      15.87318063      -0.38520243       0.03088445       0.15769148
H       12.95723306      29.03115085      16.09172797      -0.26872906      -0.20986827       0.12808311
H       14.48555025      28.81800757      15.94083174      -0.13511877      -0.19377706      -0.02825293
O       -2.80238505       3.97712208       1.67718149      -0.43667088      -0.22270598       0.57293591
H       -2.12076489       3.56641954       2.41086448      -0.27546211       0.18470573      -0.00312065
H       -2.67306115       4.88259163       1.84143750       0.01890083       0.18398061       0.13687523
O        7.80812210     -14.01632491      10.97375087      -0.29813740      -0.51678899      -0.86406002
H        6.91581830     -14.46241801      11.21956813       0.61604998       0.37966618      -0.39818747
H        8.13665307     -13.96154968      10.03195172       0.15783688      -0.29012740       0.42339883
O       -2.42393726      10.55459769      24.39296133      -1.88717965       0.45712114      -1.03375585
H       -2.09676469      10.14325402      23.56455724       0.22543741      -0.34843593      -0.49337016
H       -3.19939539      11.01260588      24.08129153       0.27382869       0.20895983       0.44838894
O       20.07803136      21.73297002       1.54307210      -0.77169374       0.37505821       0.93655614
H       19.95190395      22.11065933       2.45567713       0.20272128      -0.03771528      -0.63948774
H       19.85790826      20.79656618       1.58419768       0.05486927       0.50637002      -0.46278181
O       12.14394920       9.99682275     -15.93660340       1.10815355       0.12475294      -0.00891405
H       12.65495529       9.40069945     -15.37485359      -0.06286667       0.02000364      -0.47787665
H       12.37347259       9.97583449     -16.84281212       0.12801270       0.10127186       0.87449429
O      -11.40542325      22.30351186       1.05952304      -0.03149445      -0.96980212      -0.18083557
H      -11.57205292      21.27219922       1.16648886      -0.15064084       0.56711695      -0.05459954
H      -10.83578381      22.45827950       1.82139876      -0.08243201       0.23119003      -0.08873603
O        2.94965806     -15.02501324      16.15273718      -0.09515356      -0.62686038      -0.87740239
H        3.42608512     -15.76820677      16.58947244      -0.39033525       0.09365991       0.07517533
H        3.59542784     -14.27459880      16.01409225       0.10925727       0.11650151      -0.20597248
O        2.45116982      16.35986869       0.35936152      -0.86869888      -0.54688924       0.81315046
H        2.07120109      16.03012187      -0.45877481      -0.35950147      -0.01637326      -0.71263223
H        2.78211830      15.47536046       0.59197682       0.29747719       0.14984170      -0.09389891
O       -5.65804145      -7.28337364       5.59572010      -0.97411479       0.04715671      -0.25536126
H       -5.41845481      -8.05580493       6.11063806       0.07505069      -0.17793043       0.43683674
H       -4.94080207      -6.74432999       5.19267012      -0.75113140      -0.20440873      -0.11751994
O       -2.16726691       2.37625205       6.64452786       0.12220641       1.39713667      -0.20658401
H       -1.98235816       3.27974344       6.98271447      -0.32625867      -0.33566486      -0.26172384
H       -1.85142476       1.91878159       7.43791363       0.19311341      -0.43323460       0.45898535
O       13.16265557      -5.44666788      -1.44282886      -0.08416309      -1.50459712      -0.37468701
H       13.95333939      -5.18339999      -2.00316433       0.41650420       0.08712329      -0.15416627
H       12.87316157      -6.31325898      -1.89710396       0.27271180       0.09128744       0.54332063
O       11.82825188       4.88757977      22.73345080      -0.38167474      -0.00631637       0.32422243
H       11.23462641       4.19816610      23.03176108       0.20416206       0.06972596      -0.22345009
H       11.86113475       4.95521668      21.78166221       0.12240671      -0.42277955      -0.02642861
O        8.20362099      14.50317905      23.77507087      -0.99187240      -0.98225879       1.60508527
H        9.01295346      14.94558161      24.01088741      -0.11903067      -0.16275135      -0.33942467
H        8.10818445      13.57149520      24.12328757       0.08954112       0.48319572      -0.27850047
O       -8.10232056       7.02412163      11.40756426       0.64878445       0.08507019       0.07222184
H       -7.31864572       6.54417777      11.02508222       0.07706869      -0.14334868      -0.04657657
H       -8.30204133       6.25812297      11.94669167      -0.06772986      -0.21771566       0.34724407
192
Lattice="12.74905600385903 0.0 0.0 -5.291582201265368e-07 12.74905600385903 0.0 -5.291582201265368e-07 -5.291582201265368e-07 12.74905600385903" Properties=species:S:1:pos:R:3:momenta:R:3 step=30 time_fs=3.0 phase=equilibration pbc="T T T"
O       11.60044888       0.72726449     -16.50632738       1.13550801       0.07684373       1.01516589
H       11.91994542       0.88425523     -15.63523979       0.40775259       0.38335242      -0.33406085
H       10.81117509       0.17631994     -16.45876077       0.12793898      -0.04292190      -0.06201049
O       26.37067817      24.78709680       4.87346265       0.48097718      -0.35887572       1.04108509
H       26.68837968      23.96785378       4.63444295      -0.08951042       0.48528088       0.18239961
H       25.51606689      25.00497412       4.48497700       0.13531194       0.18351782      -0.02804891
O        4.55132769      -0.29213343       6.65452048       0.02921269      -0.41414283      -1.62918182
H        4.90590744      -1.09375282       7.09221494       0.33789465      -0.16856804      -0.07528132
H        4.14160448       0.12325680       7.41095986       0.23384414       0.05687928       0.05643296
O       -2.85203109      -4.42373919       1.01145298      -0.26945059       0.80616843       1.18300915
H       -2.60397446      -3.67858866       0.36602113      -0.02093054       0.11411482      -0.16295908
H       -3.70056895      -4.17940522       1.49708226      -0.14544799       0.03117125      -0.13216305
O        4.26402278      15.85365871      10.72747124       0.79366350       0.28512522      -0.42325266
H        4.30948864      16.68709375      11.21343126      -0.06414162       0.38526379       0.06476170
H        5.08739390      15.77005770      10.33854126      -0.20178268       0.24184331      -0.21555357
O       -1.38835941       6.63802291       5.14464063       0.04302000      -0.79811145       0.49227264
H       -1.26514851       6.29205580       4.18640170      -0.47274524      -0.19921902      -0.33011348
H       -0.49452355       7.04525722       5.21430774      -0.01589335       0.05111189       0.05425166
O       22.81668477      12.31352722       5.78167909      -0.13767490       0.43024652      -0.54361628
H       23.16369804      13.15073158       5.95371724       0.03162283      -0.18062329      -0.01736440
H       22.47782484      12.40608508       4.84486708      -0.02436525      -0.19022643       0.53763351
O       -1.02167021     -15.76525298       6.81561164      -1.71891643       0.79878234      -0.25546310
H       -0.48529780     -16.09081856       6.03800700      -0.08356539      -0.05535353      -0.31971415
H       -1.42529565     -14.93899358       6.51675465       0.40498172      -0.56148572       0.27480060
O       15.47224519     -17.89525636       9.67304477       0.96561510      -0.76266526       0.60620569
H       16.10076561     -18.30770295      10.19427337      -0.40224800      -0.01980446      -0.39250213
H       15.67220738     -16.96058497       9.64794576      -0.12579516      -0.11369481      -0.26246453
O        3.26557673     -14.65907048     -13.34492145       0.67887966       0.00652859      -0.61383876
H        4.07596842     -15.11416168     -13.22148391      -0.05680249       0.48844983       0.15510275
H        2.57197479     -14.95476324     -12.68329895       0.15387189      -0.19042632      -0.03604381
O       -5.74686855       1.56572135       2.85435952      -0.10895338       1.24941546      -0.10629190
H       -6.43393600       1.28973673       2.27665357      -0.06163320      -0.19581893       0.15205354
H       -5.44839837       2.38282743       2.39207789      -0.07388341      -0.07704523       0.47424860
O       -5.37823046      16.03959248      25.97501183       0.56403521       1.44878423      -0.71717092
H       -5.33393893      15.36597727      25.29298699      -0.09283848       0.21931762      -0.23844961
H       -4.34043214      16.48900105      26.00287606      -0.18437910      -0.38187166      -0.06954104
O        7.44640930     -15.70880224      -8.54075198       1.48541503       0.20900705       1.47630426
H        7.80744173     -16.56519598      -8.18866992       0.17071408       0.33434961      -0.02782700
H        6.60165933     -15.64682563      -7.92823335      -0.30847267       0.30014624       0.16069422
O       13.68132936       8.54737841      17.94670220       0.08654348       0.06018629       0.70659259
H       14.04180946       8.72552960      17.12103345       0.05616848      -0.23116292       0.25705645
H       14.23605418       7.95384725      18.43053746      -0.07446426       0.26847262      -0.24919510
O       -0.15292945       1.19113326      -1.23976451      -0.02725668       0.58595797       0.81682837
H        0.77970788       1.37811921      -1.18246249      -0.13353564      -0.06657803      -0.02982661
H       -0.14182254       0.39529840      -0.69197898      -0.31729628       0.40949670      -0.40234090
O      -14.19393422      12.66435366      15.80746941      -0.17013460      -0.08688533      -0.24421706
H      -14.02194363      12.34419048      14.83147814       0.28696768      -0.06104372      -0.21168781
H      -15.02986475      12.26788988      16.04726384       0.47912023       0.23106579       0.19942449
O      -16.46893410       5.90555946      12.34881591       2.30732434       1.05507025       0.11700119
H      -17.05901242       5.98404355      11.54612730       0.07584597       0.08891747      -0.31282850
H      -15.99748221       6.73284312      12.48523648      -0.68939143      -0.48263210      -0.47900454
O       -9.94168525      32.94217153      -9.57413569      -0.63432860      -1.00911382      -0.46298311
H       -9.32242844      32.28563256      -9.24645760       0.05539586       0.31065400      -0.25025433
H      -10.56848524      32.36985544      -9.97623358       0.16758088       0.36921237       0.51753393
O       34.73995391      11.50832644      21.43145140       0.96344386      -0.64138012      -1.48996305
H       34.78602993      11.54209715      20.41044975      -0.02185599       0.09192634       0.40756043
H       35.16532233      10.67122702      21.45878647      -0.11255009       0.50974025       0.37344144
O       30.39549840     -12.68968546       2.17184772       0.27278452       0.73185889       0.11272679
H       29.70443824     -12.09978889       2.61166582      -0.22450009       0.06430513      -0.26733593
H       30.26465672     -12.63010362       1.15843781      -0.26312943      -0.03015241      -0.34397720
O       17.58987189       9.32399992      -7.43112695      -0.07600538      -1.72853344      -0.35923821
H       17.63199383       8.38350980      -7.54693571      -0.46938154       0.74978454      -0.27410478
H       17.44322383       9.52021969      -6.49049729      -0.14859009       0.11492024       0.07776650
O       -5.18043432       2.61626416      32.18374884       0.92342460      -0.82868051       0.29979157
H       -5.85134494       2.11826788      31.60504040      -0.25961728      -0.08037002       0.05985237
H       -4.45303677       1.98011826      32.32823441       0.34274864       0.05538202       0.26207475
O        3.74641243       0.84938732      -0.23164857       1.25633696       0.78628354       0.49862106
H        3.49311991      -0.08041251      -0.27659929      -0.06607367       0.01122046      -0.06578662
H        4.12770423       1.19110986      -1.09968510       0.27595186      -0.12383787      -0.46406935
O       23.24565534       3.22749926      11.66871785      -0.75436221       0.37740324       0.22597463
H       23.01383175       3.63977002      12.47060515       0.58360990      -0.30702180      -0.32466408
H       23.93605225       2.53635850      11.71097252      -0.13501023      -0.03913297       0.09074013
O       -1.44608482      31.81353700      15.00261823      -0.10152253       0.46058438       1.20712824
H       -1.91630043      32.48196946      14.51349239      -0.11382232      -0.26818428       0.12069999
H       -0.60024959      31.97290674      14.47092602       0.12545097      -0.07422113      -0.17970436
O        4.82621296      19.39055158       5.21036201      -0.41153210      -0.09723306       0.45667377
H        4.22955488      18.97888242       5.75602116       0.10986379       0.23718216      -0.45114411
H        5.70960709      18.93612097       5.22405246       0.19968439      -0.20389520       0.04247146
O      -10.13102303      10.47964858       9.46373512      -0.91534824       0.48024565       0.07625368
H      -10.60747626      10.91380466       8.75449714      -0.02658962      -0.27672532       0.66032401
H      -10.57021553      10.89187668      10.28093068      -0.21200600       0.12675294       0.41992487
O       17.70567717      17.76101487      26.19692211      -0.02476309      -0.36165970      -1.30933485
H       18.51624003      17.30243577      25.98965493      -0.07782685       0.17905942       0.03174154
H       16.86039086      17.26454873      26.05860111      -0.13875530       0.13217057      -0.03091039
O        6.93438956      18.71504602      10.12897421      -0.06083617      -0.53175517       0.44693087
H        7.21404604      19.40947037       9.48745705       0.10052191      -0.16438965      -0.17852238
H        6.71884651      17.95074753       9.60912529      -0.18971755       0.34261787      -0.01794018
O       -0.62038487     -13.80639475      13.26391788      -0.28467488      -0.55871381       0.18763066
H       -1.35723761     -14.01384105      12.67770272       0.01435873      -0.21404327       0.33929959
H       -0.13123124     -14.48517897      13.66958549      -0.30002155       0.16871742      -0.48212134
O        1.14670047       6.18303953       1.09348153       0.35119151      -2.66186598       1.02918592
H        1.56208871       5.27784104       1.10083920      -0.24782616       0.62112711      -0.02142573
H        0.87872681       6.22895070       0.08697861       0.11900183       0.14981677      -0.13486794
O        3.10288432       1.32745325       8.35514492       0.67855640      -0.65331619       0.56504644
H        2.21693360       0.85282768       8.22948181       0.62023336       0.70059524       0.22933051
H        3.22375169       1.59392490       9.26853107      -0.01647060      -0.30373124      -0.01357694
O      -18.85048159      28.80203821     -16.14616329       1.29445893       0.23842994      -0.97995099
H      -18.64847269      28.79269682     -17.08321691      -0.38347745       0.47842458       0.61278710
H      -18.13480057      28.24037040     -15.82178184      -0.60058293       0.60880826      -0.01592970
O        2.88642932      26.87997958      -9.11573788      -0.51695572      -0.66097965      -0.37000860
H        3.59506181      26.93117236      -8.24463526       0.88784066       0.32664027       0.93763316
H        2.35701591      26.17970603      -8.86805518      -0.22605604       0.29028085      -0.30997281
O      -18.05851462      19.04162809       1.91163293      -0.86231812      -1.37434098      -0.20446104
H      -17.45515313      18.84573313       1.20960621      -0.53055109       0.15083216       0.62746823
H      -18.79847955      18.45457139       1.66492571       0.25189292       0.33821389       0.17371645
O       11.69938491      17.57375617       7.07599509       0.35673446       0.21332611      -0.70574659
H       12.54091154      17.37956578       6.64407431      -0.14961647      -0.15945340       0.11469613
H       11.38360380      18.32738466       6.52464694      -0.29925983      -0.14374262       0.16524514
O       -7.22738274     -11.19219301       5.19521956      -0.36838687      -1.08611100      -0.15245391
H       -6.45720554     -11.33303718       4.53304939       0.18409325       0.12693273      -0.01380192
H       -7.33845663     -12.11184487       5.49417431      -0.13611865       0.34093079       0.17991228
O      -24.12364023       3.43150208      10.70163678      -0.19970976      -1.15037069       0.11582302
H      -24.77852266       4.14526970      10.50014398       0.12007259      -0.25532775      -0.07948257
H      -23.28316180       3.73592774      10.30397550      -0.70345534      -0.09243001       0.34242482
O      -11.43416670      -8.19253398      18.46868323      -0.38920490      -0.88626568      -0.09212942
H      -10.58493525      -8.54973946      18.86904527       0.02992966      -0.14131757       0.24908602
H      -11.33334994      -8.46495864      17.48855289      -0.06029047       0.17974017      -0.34376909
O        8.62884489       7.32781703      16.93061512      -0.65448862       0.81574116      -0.50672034
H        9.54217738       7.34344674      16.77277280      -0.39477058      -0.08440289      -0.06523613
H        8.29483662       6.76276005      16.19551560      -0.21568932      -0.06049600      -0.03860337
O      -11.65550682      -0.47727622      20.41364616       0.89355913      -0.02405200       0.15198105
H      -12.53088196      -0.30347916      20.79766436      -0.10131360       0.04800595      -0.12123378
H      -11.60331714      -0.52218143      19.46835151      -0.32541302      -0.01111900       0.51912536
O       24.19123837       2.46940749      16.23188305      -0.92513335      -0.26868472      -0.86098676
H       23.84586437       2.47886593      17.16048357       0.11430672      -0.01580073       0.16978491
H       23.94696436       1.63745603      15.86650495       0.30141575       0.67698722      -0.08017067
O       -5.67014910     -17.96024950      -4.99919386      -0.85955914       0.46344439      -1.16068560
H       -4.76497137     -17.71126521      -4.66980095       0.56497830      -0.38786809      -0.28571943
H       -5.81811591     -18.70088783      -5.65603576       0.19679924      -0.08520889      -0.00215322
O       29.49997699      -8.99669577      -6.14482397      -0.62622861       0.87852235      -0.55481632
H       30.14716409      -9.05154269      -6.82336226      -0.22802756       0.14376409       0.47440235
H       29.24630400      -9.97654197      -5.98730255      -0.39063185      -0.08952866       0.09426664
O        8.81449762      -0.68482516       3.39807716       0.21317597       0.59185726       0.99060918
H        8.21002949      -0.10414008       2.93778092       0.25535295       0.05105677      -0.17474512
H        8.26659206      -1.39120935       3.67708388       0.28591081      -0.05010181      -0.24545050
O      -19.77441385      -3.17352785      24.77663483      -0.00378083      -0.00101127       0.13487440
H      -20.16823692      -3.86930315      24.27278761       0.43691321       0.38698288       0.35632945
H      -19.25316485      -3.36750957      25.53341368      -0.19016427      -0.08215157      -0.55478679
O        2.36175600      -5.81273887      -6.04381861       1.40255105       0.92977721       0.08886770
H        2.61462364      -5.52645130      -5.07133528      -0.09252183       0.03539766       0.42188635
H        1.84146640      -6.64721223      -6.21552215       0.01308156      -0.18649582      -0.02928998
O        9.83546220       8.28728357       7.94656330       0.43194494      -0.23996502       0.12238215
H       10.56453256       8.56231621       7.37297650      -0.02926100      -0.23155000      -0.11977535
H       10.28617446       7.59149252       8.41163213       0.04192516      -0.24214714      -0.14417803
O        5.34683110       9.74876285      -4.81096062       0.82150065      -0.25383534      -0.72029802
H        6.05257986       9.15879439      -4.75685692      -0.25138115       0.43032763      -0.03228183
H        4.82345132       9.65225737      -4.01730014      -0.01140228      -0.03368425      -0.02641502
O       13.77534008      29.46813513      15.87390355      -0.38756112      -0.07276821       0.18412084
H       12.92918641      29.01065482      16.10265104      -0.26979171      -0.18237542       0.09350967
H       14.47164867      28.79839011      15.93681533      -0.14940118      -0.19175570      -0.04891208
O       -2.80460176       3.97483423       1.68101528      -0.29860735      -0.44359836       0.69204080
H       -2.15483184       3.58652770       2.40253406      -0.42167360       0.22573593      -0.16353334
H       -2.66979230       4.91119456       1.85633742       0.03866113       0.35479089       0.15959449
O        7.80606076     -14.01924535      10.96824373      -0.27241749      -0.49504482      -0.83524250
H        6.98505988     -14.42048062      11.17463953       0.74035137       0.44169463      -0.50079757
H        8.14779101     -13.99134159      10.07705892       0.08714462      -0.32309615       0.46166668
O       -2.43485973      10.55677065      24.38564766      -1.64483118       0.28831644      -1.20632931
H       -2.07554151      10.11140476      23.52479135       0.18895329      -0.28041330      -0.28441240
H       -3.18256205      11.03915878      24.12489071       0.05416611       0.34864384       0.44343338
O       20.07300995      21.73515488       1.54886386      -0.71349466       0.49700490       0.89452831
H       19.97121095      22.10648436       2.39223147       0.19126038      -0.00945440      -0.59565744
H       19.86116023      20.83790711       1.53934729       0.00594490       0.30181343      -0.45820595
O       12.15006612       9.99751962     -15.93522771       0.92922279       0.18987819       0.37899688
H       12.65031305       9.40137512     -15.42296755      -0.00635745      -0.03030388      -0.48017042
H       12.39048806       9.98361106     -16.77338310       0.23709131       0.06882122       0.48316793
O      -11.40538320      22.29641274       1.05841923      -0.02366657      -1.16773942      -0.17820091
H      -11.58630565      21.33909162       1.15792627      -0.15305878       0.77519377      -0.11901886
H      -10.84345474      22.48275563       1.81356791      -0.07334532       0.28395772      -0.06489749
O        2.94931276     -15.02823984      16.14695954      -0.01071208      -0.50286643      -0.91232276
H        3.38818364     -15.75494788      16.59504848      -0.37473815       0.15573173       0.05568417
H        3.60062671     -14.27239437      15.99547551      -0.00022291      -0.07857526      -0.16753166
O        2.44578497      16.35570257       0.36395096      -0.89041775      -0.71028795       0.63955546
H        2.03460293      16.03322940      -0.52670928      -0.37390170       0.10193167      -0.63970516
H        2.81271585      15.49121059       0.58604760       0.33670613       0.17145861      -0.02073481
O       -5.66406672      -7.28300871       5.59401559      -1.06695786      -0.03417605      -0.21950269
H       -5.40879372      -8.06991230       6.15108421       0.11405311      -0.09129574       0.37896059
H       -5.01400389      -6.76692573       5.18374010      -0.70504943      -0.22794625      -0.08903443
O       -2.16631798       2.38456329       6.64359738       0.18249749       1.24563034      -0.02428139
H       -2.01503882       3.25113854       6.95478224      -0.33638526      -0.20080233      -0.29107507
H       -1.83414398       1.87685748       7.47618596       0.14209207      -0.39733956       0.28326934
O       13.16249565      -5.45630009      -1.44590214       0.14055467      -1.62244831      -0.61908010
H       13.98526997      -5.17684336      -2.01196844       0.23377388       0.03943347      -0.02216874
H       12.90084457      -6.29522022      -1.83897418       0.28727558       0.23607086       0.62556594
O       11.82602410       4.88768731      22.73517100      -0.25932452       0.08545099       0.37190328
H       11.25025267       4.20158943      23.01044531       0.10867899      -0.01260678      -0.19558310
H       11.87163877       4.91389726      21.77603674       0.10074515      -0.42067150      -0.08055916
O        8.19684505      14.49641311      23.78454411      -1.16771191      -1.07169318       1.60722075
H        9.00573958      14.92915718      23.97825487      -0.00843647      -0.15386231      -0.31760669
H        8.12067239      13.62191944      24.09116165       0.15752883       0.49262988      -0.34246083
O       -8.09773464       7.02392593      11.40754686       0.78471722      -0.13445752       0.01428061
H       -7.31450939       6.53623165      11.02039203       0.00375559      -0.01560034      -0.04550890
H       -8.31057722       6.23924293      11.98316126      -0.10354025      -0.13830531       0.38487373
192
Lattice="12.748789443154891 0.0 0.0 -5.291471563436405e-07 12.748789443154891 0.0 -5.291471563436405e-07 -5.291471563436405e-07 12.748789443154891" Properties=species:S:1:pos:R:3:momenta:R:3 step=40 time_fs=4.0 phase=equilibration pbc="T T T"
O       11.60709126       0.72761945     -16.50025774       1.10311350       0.04247647       0.83748162
H       11.96245098       0.92332848     -15.65928098       0.47016771       0.41833351      -0.15836109
H       10.82193685       0.17097814     -16.46381478       0.09973229      -0.06531553      -0.04509922
O       26.37263671      24.78559567       4.88021162       0.32798444       0.06337091       1.19743574
H       26.68578948      23.99641872       4.64643074       0.05978328       0.08666668       0.05748241
H       25.53033017      25.02173703       4.48237455       0.16631974       0.17260742      -0.02387535
O        4.55154054      -0.29505029       6.64453932       0.07167583      -0.54402255      -1.55866389
H        4.93876451      -1.10688015       7.08073295       0.33095000      -0.08828627      -0.16405092
H        4.16097931       0.13419188       7.41858802       0.17241604       0.15895341       0.09201998
O       -2.85395479      -4.41819105       1.01859736      -0.37235890       0.97130823       1.14482725
H       -2.61008861      -3.67555845       0.35776585      -0.10538187      -0.05560995      -0.00480117
H       -3.70493595      -4.17606424       1.47822896       0.04961648       0.03649450      -0.24924887
O        4.26803936      15.85541390      10.72523047       0.54610265       0.42750277      -0.21340694
H        4.30187000      16.72260174      11.21838133      -0.09044207       0.31531872       0.02125883
H        5.08218254      15.78990926      10.30886606       0.09290045       0.17382171      -0.38795782
O       -1.38733980       6.63285407       5.14670663       0.27350404      -0.84439695       0.21445653
H       -1.31543727       6.27563672       4.16531098      -0.55276468      -0.12912924      -0.09227724
H       -0.50230163       7.04929766       5.22211808      -0.14456142       0.03195779       0.10287650
O       22.81505266      12.31518403       5.77780083      -0.21828817       0.18789912      -0.62456008
H       23.17273608      13.14655810       5.95649479       0.16361464       0.09906039       0.07608717
H       22.47296947      12.38522305       4.89983874      -0.08555475      -0.22755174       0.53981792
O       -1.03177155     -15.76064251       6.81351726      -1.54164362       0.52198790      -0.36069870
H       -0.49715114     -16.09499749       6.01420519      -0.16126834      -0.03795042      -0.16180632
H       -1.38936024     -14.98601045       6.54221713       0.29507070      -0.33507172       0.22630485
O       15.47679186     -17.89925313       9.67589862       0.59108913      -0.64219294       0.36780345
H       16.07595682     -18.31952485      10.16745380      -0.07168746      -0.24863549      -0.12995470
H       15.66055952     -16.96507735       9.62143944      -0.10453310       0.01323328      -0.27568519
O        3.26869944     -14.65855065     -13.34799208       0.35159321       0.07382495      -0.48857192
H        4.07980460     -15.07167480     -13.20494218       0.15594446       0.36943557       0.18173332
H        2.59276851     -14.97113629     -12.69321564       0.26403096      -0.15326824      -0.16536712
O       -5.74708940       1.57357929       2.85392620      -0.02104348       1.29004499      -0.00606057
H       -6.44825246       1.26442613       2.28754188      -0.22550954      -0.31938455       0.07957621
H       -5.45429261       2.37625483       2.44040896      -0.04080491      -0.02963042       0.50121278
O       -5.37424302      16.04834813      25.97004113       0.70869099       1.51451494      -0.72627806
H       -5.34157376      15.38861246      25.26994133      -0.06795309       0.25077909      -0.22302295
H       -4.36633571      16.44665687      25.99641344      -0.35627047      -0.48076682      -0.05257127
O        7.45478550     -15.70751382      -8.53084811       1.27980676       0.13766165       1.67967799
H        7.82428859     -16.52813358      -8.19451681       0.18670833       0.39091419      -0.08224945
H        6.58071404     -15.61698008      -7.92129058      -0.11331398       0.30121060      -0.02180866
O       13.68081128       8.54759255      17.95131747      -0.17710199       0.08358681       0.90796470
H       14.05341654       8.70810751      17.12783352       0.18759685      -0.12027471      -0.11653236
H       14.23334322       7.97332457      18.41478574       0.04153537       0.11430967      -0.04654599
O       -0.15348594       1.19481610      -1.23498549      -0.16505707       0.66496978       0.70095319
H        0.77425380       1.37504373      -1.18659296       0.03259514       0.00467262      -0.05415015
H       -0.17570105       0.42898887      -0.72718923      -0.37770604       0.23831850      -0.29165148
O      -14.19419756      12.66353995      15.80471388       0.03089998      -0.07070376      -0.56111365
H      -13.99364170      12.34217084      14.82017862       0.28317339       0.02499925      -0.00861481
H      -14.98928932      12.28649968      16.06902044       0.30696881       0.13654351       0.26257592
O      -16.45498967       5.91129785      12.34870511       2.07707525       0.78341901      -0.09306035
H      -17.04549320       5.99332329      11.52327434       0.19574333       0.09538465      -0.14236079
H      -16.06034505       6.69468068      12.43889160      -0.56466993      -0.21917394      -0.44989962
O       -9.94501780      32.93566307      -9.57654580      -0.50571830      -0.84393624      -0.37913919
H       -9.31106502      32.31524549      -9.26763678       0.18756290       0.29447411      -0.18226008
H      -10.56335971      32.39994388      -9.93199735      -0.09414857       0.23640982       0.37191569
O       34.74483584      11.50498878      21.42123194       0.84458655      -0.33169870      -1.66669543
H       34.78033797      11.55413399      20.45787641      -0.07721784       0.16045050       0.54277315
H       35.16061452      10.70483784      21.49850339       0.05024606       0.14907306       0.45555927
O       30.39596900     -12.68415901       2.17175957       0.08400914       0.98337096      -0.13905131
H       29.68890240     -12.10050647       2.57956469      -0.08145829      -0.08371705      -0.38513095
H       30.23848561     -12.63316645       1.14237799      -0.25770756      -0.03859471       0.02176820
O       17.58907710       9.31383404      -7.43264711      -0.06643622      -1.44293041      -0.16235324
H       17.58578741       8.44347755      -7.57668155      -0.47077769       0.41020853      -0.34968252
H       17.42981123       9.53186076      -6.48575148      -0.11567290       0.12366929       0.00298332
O       -5.17495508       2.61055350      32.18451519       0.83348238      -1.01965568       0.17002888
H       -5.86733689       2.11819800      31.62064210      -0.06646047       0.07901647       0.27492034
H       -4.42275842       1.98947516      32.35207717       0.26484777       0.14447415       0.23777351
O        3.75449223       0.85447647      -0.22923775       1.40376149       0.86808037       0.27430361
H        3.48726394      -0.07905820      -0.28546867      -0.05023966       0.02532415      -0.11505091
H        4.14789796       1.17339412      -1.13116715       0.13564878      -0.23962041      -0.17219643
O       23.24092710       3.22905943      11.66871444      -0.62673338       0.14064733      -0.17684984
H       23.06827472       3.61720602      12.45562894       0.53393216      -0.13517599       0.05669654
H       23.91920784       2.53630354      11.72072848      -0.19408158       0.03177800       0.11066536
O       -1.44598983      31.81557979      15.00944696       0.13135576       0.41365300       1.12382890
H       -1.93376213      32.46084714      14.52296661      -0.25029209      -0.14289117       0.07421868
H       -0.59189744      31.96135402      14.45862049       0.04207443      -0.14865335      -0.06418183
O        4.82500587      19.38993105       5.21226166       0.07712056       0.03504583       0.18706765
H        4.22576297      18.99341221       5.72549972      -0.19972827       0.05895041      -0.16162292
H        5.72186166      18.91990441       5.22728877       0.04003712      -0.11556792       0.02619866
O      -10.13660679      10.48244885       9.46514682      -0.94384871       0.47982077       0.49709164
H      -10.61425693      10.89020404       8.81101816      -0.14856126      -0.17603454       0.45656870
H      -10.58281866      10.89773141      10.31158486      -0.04872329      -0.00440428       0.21114823
O       17.70445416      17.75850920      26.18811804      -0.26133022      -0.32321213      -1.37637819
H       18.51181546      17.31373991      25.99262477       0.00442910       0.05305860       0.03732314
H       16.85405985      17.28050721      26.05679798       0.01508951       0.19986490       0.00418027
O        6.93400719      18.71203216      10.13150223      -0.01309456      -0.31773701       0.45114646
H        7.22178673      19.39003543       9.47482972       0.06264101      -0.22024480      -0.07810420
H        6.69795914      17.97675009       9.60419596      -0.24003003       0.18899932      -0.08417702
O       -0.62252748     -13.80858238      13.26464641      -0.42634729      -0.21773638       0.13372177
H       -1.35757631     -14.03848071      12.70884559      -0.04106013      -0.29683149       0.29105034
H       -0.15452103     -14.47973066      13.62641613      -0.15211962      -0.09301327      -0.37677051
O        1.14857271       6.16637627       1.09897022       0.22721355      -2.63514098       0.75766872
H        1.53762394       5.33991983       1.10101553      -0.21287021       0.56773071       0.02940656
H        0.89239555       6.24622842       0.08367774       0.16086236       0.20791095       0.07050399
O        3.10677874       1.32310043       8.35806763       0.69381500      -0.71405268       0.44464616
H        2.28071357       0.92317393       8.25199805       0.60200330       0.70086257       0.21965174
H        3.22220071       1.56443441       9.26958409      -0.00592964      -0.29454925       0.05722126
O      -18.84256604      28.80313998     -16.15159044       1.08893173       0.35495690      -0.84540519
H      -18.68646916      28.84110860     -17.03463543      -0.38943354       0.53020235       0.29945090
H      -18.18592871      28.29295977     -15.81538178      -0.40392060       0.44251138       0.16460505
O        2.88470509      26.87634197      -9.11730286      -0.02310883      -0.33831846      -0.20903592
H        3.67303315      26.96090749      -8.16667560       0.71086350       0.29200920       0.66075193
H        2.32063101      26.19158624      -8.89261701      -0.52270702      -0.03693155      -0.19399763
O      -18.06398862      19.03301278       1.91104387      -1.04780607      -1.25887536       0.08954845
H      -17.49470706      18.85836992       1.25822622      -0.24603156       0.10236584       0.31982710
H      -18.77676065      18.48730551       1.68448662       0.14840720       0.31062672       0.21493309
O       11.70113156      17.57498933       7.07126312       0.28204774       0.30160665      -0.77296631
H       12.53169343      17.36080026       6.65448272      -0.02388221      -0.21813065       0.09440742
H       11.35209491      18.31186902       6.54401936      -0.34268347      -0.15738824       0.22666606
O       -7.22874469     -11.19891678       5.19374223      -0.11939407      -1.14551422      -0.30255393
H       -6.44686323     -11.31762980       4.53197881       0.02223301       0.17932049      -0.00338009
H       -7.35600173     -12.07798694       5.51328120      -0.22636911       0.31896705       0.22160060
O      -24.12464349       3.42452753      10.70221066      -0.33854606      -1.14204941       0.17387600
H      -24.76515711       4.11831516      10.49321766       0.11891531      -0.27380645      -0.06210473
H      -23.34793496       3.72726963      10.33445031      -0.56501577      -0.06093353       0.25476632
O      -11.43563546      -8.19827552      18.46733130      -0.16441995      -1.04031392      -0.22318247
H      -10.59072199      -8.56114107      18.88884781      -0.15860562      -0.09414775       0.15722340
H      -11.34007003      -8.44087771      17.46957415      -0.07961386       0.30917633      -0.02847133
O        8.62365425       7.33237414      16.92679125      -0.99941633       0.71554369      -0.62537228
H        9.51843079       7.33652192      16.76772061      -0.06820425      -0.05448281      -0.03488334
H        8.27272099       6.76109370      16.19423259      -0.23173890       0.03308882       0.02439604
O      -11.64980301      -0.47732443      20.41479363       0.87170051       0.00395486       0.40275736
H      -12.53841897      -0.29899162      20.78269992      -0.05340724       0.04286530      -0.17433590
H      -11.63617981      -0.52323888      19.50983935      -0.34897498      -0.01378083       0.29494336
O       24.18502873       2.46870226      16.22726132      -0.91991662       0.10462848      -0.50455014
H       23.86012484       2.47744706      17.16809772       0.18926082      -0.01274624      -0.01187489
H       23.97296816       1.68799791      15.85149023       0.22991164       0.31117777      -0.24460935
O       -5.67478672     -17.95731676      -5.00634927      -0.67036357       0.37150549      -1.19864696
H       -4.72073465     -17.75213009      -4.70449222       0.32699138      -0.45631163      -0.42842557
H       -5.79642700     -18.69937542      -5.64849527       0.24126280       0.10371819       0.14946735
O       29.49462453      -8.99207553      -6.14758177      -0.95087489       0.56564941      -0.35219440
H       30.13392932      -9.03656076      -6.78480866       0.00041669       0.15636244       0.28356023
H       29.21009329      -9.97024375      -5.97826760      -0.33629106       0.21736868       0.08550091
O        8.81615711      -0.68079860       3.40392708       0.38777324       0.72156016       0.93653581
H        8.23245549      -0.09244726       2.91793871       0.21127287       0.18253120      -0.22722944
H        8.28795792      -1.40937726       3.65892486       0.15439496      -0.32391690      -0.12747887
O      -19.77419687      -3.17251164      24.77680252      -0.05942555       0.36069674       0.08448177
H      -20.12984038      -3.84279258      24.30062859       0.31538973       0.11147810       0.18917860
H      -19.26459881      -3.37895425      25.48850865      -0.02527696      -0.16019128      -0.31752249
O        2.37020852      -5.80699652      -6.04268540       1.35902343       0.89230965       0.23936860
H        2.60007145      -5.53006761      -5.04189905      -0.20248343      -0.11100869       0.17355516
H        1.84923533      -6.65498234      -6.21126466       0.15183587       0.03228473       0.11255330
O        9.83818643       8.28547528       7.94721767       0.53179905      -0.30725920       0.15393566
H       10.56103443       8.54519127       7.35837176      -0.03799622      -0.11645938      -0.17610432
H       10.28938577       7.56342106       8.39918583       0.01857362      -0.31692912      -0.11970847
O        5.35105901       9.74756557      -4.81557686       0.55825504      -0.04935954      -0.80853555
H        6.04206397       9.19017869      -4.76036646       0.06529013       0.19604052      -0.03970204
H        4.81748736       9.64851227      -4.01671451      -0.10175611      -0.03754926       0.02655659
O       13.77232443      29.46645640      15.87482877      -0.51391146      -0.28422235       0.22707017
H       12.90864653      28.99669869      16.10808144      -0.13217497      -0.08455985       0.02172434
H       14.45516245      28.78036817      15.93061499      -0.18463879      -0.16229955      -0.07062338
O       -2.80589488       3.97209040       1.68566711      -0.14354303      -0.39062835       0.83490133
H       -2.20219019       3.60933960       2.37966044      -0.54449185       0.23647513      -0.29831275
H       -2.66681660       4.94307896       1.87075181       0.01687197       0.27509443       0.13103393
O        7.80522133     -14.02138308      10.96331265       0.10482451      -0.26538070      -0.67957906
H        7.04332101     -14.38390242      11.12629211       0.38401870       0.26725665      -0.46532154
H        8.15713455     -14.02318863      10.11223376       0.12786687      -0.33307732       0.22672381
O       -2.44383064      10.55757018      24.37713309      -1.29732247       0.04658866      -1.40118916
H       -2.06219137      10.09040246      23.51010155       0.07736242      -0.13995752      -0.00612605
H       -3.18882568      11.07994270      24.16543400      -0.17250818       0.48513110       0.39746949
O       20.06864456      21.73823278       1.55330074      -0.56377334       0.64396306       0.52263956
H       19.98671893      22.11303716       2.35083942       0.13028686       0.17022083      -0.21375632
H       19.85648379      20.84916882       1.49442860      -0.09753835      -0.06744684      -0.46413489
O       12.15459775       9.99897154     -15.93130059       0.61862280       0.36176721       0.78458652
H       12.65660056       9.38998316     -15.46278861       0.15095916      -0.21314846      -0.33068052
H       12.42003668       9.98990870     -16.75309217       0.37662481       0.06852620      -0.07929891
O      -11.40515430      22.28896853       1.05715319       0.03391194      -1.03234470      -0.23670297
H      -11.60372603      21.40990030       1.14434839      -0.22467363       0.60983273      -0.15070574
H      -10.84842391      22.51327284       1.81011546      -0.03074888       0.35188336      -0.00218206
O        2.94923446     -15.03039180      16.14074823      -0.00978536      -0.28895442      -1.01096317
H        3.35510911     -15.74058225      16.60181960      -0.29289543       0.11557558       0.10128791
H        3.59579576     -14.28884803      15.98106396      -0.09256257      -0.25910768      -0.12099168
O        2.44006624      16.35055472       0.36704138      -0.95381011      -0.84656570       0.37357060
H        1.99965058      16.04917399      -0.57968908      -0.33711809       0.22196204      -0.43580466
H        2.84764087      15.50711224       0.58778937       0.37547943       0.16193271       0.04771479
O       -5.67133411      -7.28411194       5.59329851      -1.35756997      -0.40587548       0.05268830
H       -5.39729897      -8.06967167       6.18144184       0.11463836       0.10400987       0.23655175
H       -5.07021296      -6.78279688       5.17046704      -0.42715377      -0.08342678      -0.19753628
O       -2.16492959       2.39081322       6.64399781       0.25248665       0.78163661       0.19087135
H       -2.04667404       3.24773348       6.92847773      -0.31098502       0.15140658      -0.23699586
H       -1.82500432       1.84399202       7.48952695       0.04460603      -0.27071270      -0.00589762
O       13.16412460      -5.46564328      -1.45006893       0.49871336      -1.40028281      -0.72492444
H       13.99724763      -5.17610920      -2.00695803       0.01563004      -0.02824236       0.12495004
H       12.92525284      -6.27784617      -1.78039661       0.20295699       0.06151786       0.55283463
O       11.82464046       4.88851335      22.73695366      -0.11182635       0.21622654       0.35138885
H       11.25395479       4.19384681      22.99383305      -0.02908030      -0.14566752      -0.13311927
H       11.88068367       4.87344677      21.76594973       0.09117866      -0.40542186      -0.10813309
O        8.18897586      14.49034456      23.79351480      -1.33147742      -0.74428716       1.46253520
H        9.01298630      14.91740057      23.94789577       0.16010828      -0.07705980      -0.29888441
H        8.13585042      13.65159601      24.06162798       0.14987919       0.05868571      -0.23350438
O       -8.09245235       7.02197079      11.40745010       0.87290132      -0.46095946       0.04226757
H       -7.31734247       6.54082597      11.01558653      -0.06111079       0.11029614      -0.05004044
H       -8.32091368       6.23438007      12.01847792      -0.10873493       0.04984506       0.33679717
192
Lattice="12.748582639855229 0.0 0.0 -5.291385728323647e-07 12.748582639855229 0.0 -5.291385728323647e-07 -5.291385728323647e-07 12.748582639855229" Properties=species:S:1:pos:R:3:momenta:R:3 step=50 time_fs=5.0 phase=equilibration pbc="T T T"
O       11.61358055       0.72777271     -16.49540388       1.07998305       0.01572595       0.67185408
H       12.01014909       0.96506897     -15.66660672       0.50212288       0.43189075      -0.01480256
H       10.83073311       0.16395332     -16.46620590       0.08738203      -0.07669406      -0.00599574
O       26.37375788      24.78698896       4.88802388       0.18998021       0.50450355       1.37320160
H       26.69956205      23.98330271       4.64505158       0.22539002      -0.33051572      -0.08061228
H       25.54676346      25.03798318       4.47971716       0.17403605       0.17063963      -0.03329095
O        4.55200670      -0.29879380       6.63534664       0.09938219      -0.67161955      -1.38550143
H        4.96911139      -1.10928826       7.05933890       0.28935520       0.04292645      -0.27314037
H        4.17659807       0.15220278       7.42594079       0.15714404       0.20022590       0.04675542
O       -2.85637037      -4.41171359       1.02538528      -0.41135107       1.10367314       1.06407169
H       -2.62405533      -3.68896428       0.36472447      -0.17826034      -0.21471483       0.14177795
H       -3.69342958      -4.17161938       1.45013051       0.16053235       0.05804174      -0.31326742
O        4.27075082      15.85854419      10.72450775       0.38768480       0.68191043       0.02400266
H        4.29204240      16.74351177      11.21455539      -0.10671247       0.10774016      -0.10337376
H        5.10176330      15.80404758      10.26432432       0.27901526       0.12704768      -0.50534214
O       -1.38510211       6.62733266       5.14707975       0.42893750      -0.92821286      -0.06583692
H       -1.37155220       6.26744375       4.16938648      -0.59349567      -0.03456837       0.18101238
H       -0.52152248       7.05144000       5.23339311      -0.23701666       0.01989399       0.12809032
O       22.81346781      12.31547202       5.77444017      -0.15040935      -0.00437101      -0.40042954
H       23.19359093      13.16696275       5.96745611       0.25928986       0.29666029       0.14227528
H       22.45663758      12.36212036       4.94095159      -0.25586084      -0.23957950       0.27642998
O       -1.04029714     -15.75883103       6.81107302      -1.23383978      -0.03537433      -0.39562969
H       -0.51667446     -16.09780329       6.00657234      -0.23831300      -0.02620864       0.00673043
H       -1.37218258     -14.99431545       6.55770199       0.04803491       0.18150348       0.08834437
O       15.47886226     -17.90236230       9.67715346       0.18285302      -0.46734590       0.10474264
H       16.08713211     -18.35547483      10.16910390       0.28891464      -0.47700786       0.15053402
H       15.65160217     -16.95914125       9.59446178      -0.07211626       0.08734442      -0.27003512
O        3.26991878     -14.65755196     -13.35059899       0.09361547       0.17482178      -0.44678302
H        4.10708386     -15.04153691     -13.18554089       0.39523759       0.25147819       0.20935493
H        2.62039090     -14.98490756     -12.71257330       0.28463542      -0.14143982      -0.21916055
O       -5.74724245       1.58109030       2.85418151      -0.09129874       1.13085776       0.09561314
H       -6.47372884       1.22943484       2.29474582      -0.26912954      -0.38063024       0.08798226
H       -5.45486065       2.38157849       2.48662439       0.03026909       0.15658147       0.43539886
O       -5.36915216      16.05762702      25.96511730       0.92916162       1.59174385      -0.74247415
H       -5.34750095      15.41386625      25.24839202      -0.05959101       0.26918703      -0.21345964
H       -4.41177297      16.39455608      25.99172244      -0.58092393      -0.57943194      -0.03277781
O        7.46164117     -15.70606799      -8.51998580       0.97548446       0.28506043       1.80039801
H        7.84592864     -16.49484149      -8.20148823       0.27303061       0.25591534      -0.04977870
H        6.58016584     -15.58825458      -7.93219897       0.10889990       0.27977898      -0.20505255
O       13.67870955       8.54820084      17.95688333      -0.41011846       0.16219761       0.96205124
H       14.07588550       8.70089809      17.10172019       0.25864990      -0.03518345      -0.36711398
H       14.24456504       7.97482316      18.42180857       0.18689658      -0.07201463       0.18885430
O       -0.15489890       1.19960009      -1.23132958      -0.27806722       0.91388782       0.47746254
H        0.78563294       1.37860173      -1.19289696       0.18605298       0.06442497      -0.07590725
H       -0.21567874       0.43650026      -0.74549854      -0.44509146      -0.09451310      -0.07862113
O      -14.19270488      12.66316345      15.79987113       0.38671767       0.01753216      -0.93487923
H      -13.96709871      12.34855900      14.82995555       0.25265370       0.10917824       0.21544552
H      -14.97393615      12.29180023      16.09877313       0.00087536      -0.02573856       0.35283341
O      -16.44310461       5.91445845      12.34709084       1.70337677       0.26178714      -0.36649946
H      -17.02052038       6.00093751      11.51848679       0.30754963       0.05777157       0.04572286
H      -16.10242408       6.69930654      12.39892281      -0.29779952       0.33786593      -0.36356437
O       -9.94743239      32.93089034      -9.57839307      -0.33053760      -0.53041042      -0.27363715
H       -9.28378087      32.33995791      -9.28099481       0.37228976       0.22147018      -0.09511572
H      -10.58962675      32.41183344      -9.90470155      -0.45404576       0.01447111       0.18523768
O       34.74895895      11.50389664      21.41079229       0.68905212       0.01323081      -1.56054738
H       34.77032526      11.57357480      20.50464825      -0.11445819       0.24809958       0.35814336
H       35.17495079      10.69813507      21.54762739       0.24841126      -0.26635972       0.56186729
O       30.39545008     -12.67721019       2.16997907      -0.07982059       1.19932075      -0.43185678
H       29.68607904     -12.11429950       2.53838882       0.01733821      -0.18845587      -0.44292483
H       30.21401206     -12.63736770       1.16185031      -0.22996525      -0.05411823       0.36271865
O       17.58840922       9.30643150      -7.43265188      -0.05501308      -0.90854653       0.12695205
H       17.53906982       8.45599142      -7.61590902      -0.48675389      -0.15756961      -0.45927589
H       17.42055724       9.54312115      -6.49147964      -0.06694964       0.10641042      -0.12612811
O       -5.16992407       2.60367032      32.18470917       0.78716270      -1.19666834       0.07480808
H       -5.86435429       2.13270023      31.65659977       0.11612823       0.20880005       0.46210131
H       -4.40248195       2.00867091      32.37299587       0.14907907       0.24770665       0.20158274
O        3.76350026       0.85988994      -0.22832627       1.54779443       0.89040169       0.02041747
H        3.48354817      -0.07414422      -0.29861169      -0.02404269       0.07960682      -0.15178413
H        4.15376363       1.14491049      -1.13261518      -0.01252778      -0.33953970       0.14048861
O       23.23697097       3.22916438      11.66604530      -0.55702304      -0.07037233      -0.61560449
H       23.11648557       3.61467385      12.48292993       0.46566252       0.08035854       0.49444173
H       23.89940249       2.54013014      11.73143410      -0.19092272       0.03224567       0.11044951
O       -1.44442327      31.81743462      15.01585400       0.36227932       0.36636705       1.03661816
H       -1.96470292      32.45282650      14.52753672      -0.37702914      -0.02017878       0.03129621
H       -0.59231375      31.94290655      14.45804378      -0.05092171      -0.21826331       0.05678060
O        4.82703553      19.39025307       5.21248327       0.59307933       0.16354055      -0.07393564
H        4.19062903      18.98966924       5.72394705      -0.50426565      -0.11912931       0.11720000
H        5.71568802      18.91329952       5.22896717      -0.16594943      -0.01448440       0.01026783
O      -10.14200892      10.48497958       9.46979305      -0.86256799       0.39621290       1.07239611
H      -10.63979353      10.88199642       8.83802489      -0.38618233       0.01497819       0.09311550
H      -10.57923093      10.89054132      10.32192860       0.11895100      -0.13921988       0.00606436
O       17.70189475      17.75650566      26.17908736      -0.45564418      -0.22627554      -1.42472139
H       18.51675682      17.31163962      25.99575723       0.09692928      -0.08786968       0.03672919
H       16.86117576      17.30161224      26.05804479       0.12051727       0.22868102       0.02694288
O        6.93398293      18.71041632      10.13416354       0.03999428      -0.11993322       0.46740555
H        7.22634117      19.36705984       9.47136645       0.03569976      -0.23789371       0.00662984
H        6.67141274      17.98644786       9.59226612      -0.30250549       0.02072106      -0.15303043
O       -0.62561272     -13.80842099      13.26506804      -0.57696928       0.18795276       0.07846598
H       -1.36771790     -14.07076283      12.73214817      -0.17229043      -0.36690014       0.18846052
H       -0.15828756     -14.50515914      13.59749655       0.07396751      -0.42704084      -0.21417249
O        1.14906541       6.15130899       1.10267229      -0.07954888      -2.19807403       0.45238190
H        1.52692924       5.37497416       1.10704760       0.01507329       0.11144172       0.09664162
H        0.90981572       6.26917834       0.10121695       0.19542580       0.26439354       0.28940641
O        3.11213432       1.31903588       8.36033725       1.11061120      -0.58520907       0.34977437
H        2.31982297       0.98285303       8.26934642       0.15621328       0.50700565       0.13166479
H        3.22369015       1.53728397       9.28165959       0.04017957      -0.26172529       0.19213284
O      -18.83687381      28.80555616     -16.15560107       0.65353820       0.58634822      -0.54180412
H      -18.72220767      28.89582423     -17.03302575      -0.34875450       0.60648545      -0.28329852
H      -18.20679755      28.32104493     -15.78599948      -0.01943113       0.13604383       0.43951641
O        2.88582613      26.87443586      -9.11773005       0.37323244      -0.19601545       0.06333306
H        3.72907036      26.98661510      -8.11846364       0.37948142       0.23687502       0.28630096
H        2.26083335      26.17843605      -8.90691321      -0.63517452      -0.15503326      -0.10952828
O      -18.07051223      19.02586263       1.91307971      -1.15263850      -0.95209554       0.59497409
H      -17.49873418      18.86379682       1.26731401       0.16210205       0.01501248      -0.13787988
H      -18.77562124      18.50913555       1.70441261      -0.15628353       0.12564857       0.18686192
O       11.70239918      17.57668919       7.06637577       0.19992044       0.33255038      -0.77490398
H       12.53584867      17.33700958       6.66153909       0.10318116      -0.25756215       0.05280950
H       11.31650795      18.29773062       6.56687987      -0.38176231      -0.11972859       0.23627306
O       -7.22849561     -11.20548847       5.19123855       0.17423067      -1.03412902      -0.48611941
H       -6.45337000     -11.29877413       4.53296352      -0.16264015       0.19766640       0.02980876
H       -7.38120918     -12.05385461       5.53861367      -0.27984357       0.15615401       0.30787416
O      -24.12724413       3.41692287      10.70362698      -0.64604188      -1.33945081       0.35462608
H      -24.75821880       4.09548706      10.48658587       0.00127599      -0.17948381      -0.07588855
H      -23.38329201       3.72718855      10.34912370      -0.14495323       0.06987275       0.03957035
O      -11.43580219      -8.20497578      18.46526698       0.03954429      -1.18005520      -0.34771410
H      -10.61519162      -8.56776981      18.89851960      -0.33885984      -0.04723951       0.05085014
H      -11.34826728      -8.40516796      17.48214651      -0.09263672       0.41457005       0.27933979
O        8.61624315       7.33633249      16.92229773      -1.34926375       0.61592333      -0.74886687
H        9.52843508       7.33242756      16.76520399       0.25561344      -0.02826864      -0.00920033
H        8.24980012       6.76915660      16.19995171      -0.23420179       0.13284669       0.09596147
O      -11.64445584      -0.47721922      20.41810996       0.80748016       0.02698823       0.78722776
H      -12.54042777      -0.29513089      20.76376704       0.00618741       0.03698966      -0.20128681
H      -11.67020024      -0.52520500      19.51973765      -0.35019973      -0.02743200      -0.09376220
O       24.17913518       2.47083324      16.22519365      -0.86819956       0.59648749      -0.09623609
H       23.88145381       2.47601303      17.15776947       0.25119941      -0.01842549      -0.18468738
H       23.99013646       1.69436883      15.81650994       0.13334182      -0.17259358      -0.46344020
O       -5.67801437     -17.95489860      -5.01359217      -0.40302300       0.34145429      -1.16913584
H       -4.70231235     -17.79881588      -4.75257009       0.04950614      -0.50208388      -0.55389383
H       -5.77203185     -18.68265939      -5.62917927       0.24937105       0.20762561       0.22254068
O       29.48700962      -8.98936967      -6.14875003      -1.36993786       0.27797945      -0.06670830
H       30.14878898      -9.02128733      -6.77023178       0.30911580       0.15096993       0.01903805
H       29.18026723      -9.93431223      -5.97102759      -0.26423898       0.50651746       0.05782991
O        8.81873811      -0.67598805       3.40944437       0.47088657       0.82637796       0.87965731
H        8.25239430      -0.07135061       2.89525540       0.21102575       0.22954516      -0.22294193
H        8.29814472      -1.45087807       3.65040618       0.07619833      -0.49245918      -0.06105809
O      -19.77441930      -3.16866537      24.77674504      -0.11904808       0.87610701       0.02956380
H      -20.10880884      -3.85181308      24.30475280       0.10874189      -0.29856796      -0.09960885
H      -19.25424721      -3.39897121      25.47448911       0.23395105      -0.25038714       0.03905295
O        2.37833766      -5.80157305      -6.04062639       1.30671164       0.85204602       0.40349863
H        2.57557420      -5.54749957      -5.03798917      -0.29652449      -0.24559262      -0.09567509
H        1.87076941      -6.64093574      -6.19391833       0.28327473       0.24227670       0.23677965
O        9.84175347       8.28304497       7.94822816       0.69229682      -0.45044337       0.21872447
H       10.55621856       8.53909999       7.33895693      -0.06187358      -0.00739242      -0.21478878
H       10.28766736       7.53190657       8.38596499      -0.05769927      -0.31714183      -0.15672806
O        5.35326816       9.74785466      -4.82057427       0.18981399       0.18493189      -0.83235305
H        6.06670451       9.19541865      -4.76407156       0.43140219      -0.07653207      -0.03636314
H        4.80544032       9.64477365      -4.01455367      -0.13165818      -0.03567856       0.00205187
O       13.76843916      29.46350467      15.87612079      -0.68082519      -0.51939389       0.27929896
H       12.90411505      28.99373050      16.10620830       0.04299404       0.03372713      -0.05299715
H       14.43525214      28.76596780      15.92271840      -0.21536075      -0.12452436      -0.08449568
O       -2.80653750       3.97035337       1.69091379      -0.12385737      -0.10607353       0.83346382
H       -2.25575509       3.62891513       2.34992175      -0.50970112       0.13732289      -0.25781839
H       -2.66697395       4.96087666       1.88082604      -0.02329807       0.07499390       0.07187593
O        7.80744195     -14.02176604      10.95960411       0.67091504       0.07065093      -0.46992778
H        7.05044140     -14.37208629      11.08606740      -0.25425525      -0.03726126      -0.35318284
H        8.17491896     -14.05537634      10.11701552       0.24388782      -0.33217380      -0.12666585
O       -2.45091661      10.55710997      24.36750664      -1.05262266      -0.11892584      -1.60964907
H       -2.06118838      10.08460568      23.52252762      -0.06040329       0.02801770       0.26729763
H       -3.21161782      11.13008772      24.20189977      -0.26303808       0.52209521       0.36299931
O       20.06533540      21.74199648       1.55503569      -0.41630713       0.66442983       0.05303551
H       19.99548406      22.13923579       2.35265677       0.05660685       0.36403508       0.24004405
H       19.84192625      20.82783401       1.44943887      -0.18503408      -0.31985927      -0.45031650
O       12.15726410      10.00155999     -15.92511326       0.33690185       0.51849708       1.12559226
H       12.67885982       9.35963982     -15.48683241       0.29651612      -0.39186220      -0.17771313
H       12.46310319       9.99718632     -16.78618518       0.50184610       0.08725634      -0.57261454
O      -11.40429614      22.28373303       1.05548562       0.20488679      -0.51353765      -0.29266616
H      -11.63253587      21.44426825       1.12999041      -0.38026883       0.06603737      -0.13807436
H      -10.85000407      22.54958931       1.81178287      -0.01459772       0.39266899       0.02511720
O        2.94890455     -15.03120260      16.13387151      -0.09731609      -0.06432969      -1.14483413
H        3.33209109     -15.73413424      16.61565961      -0.17685392       0.00569223       0.19233187
H        3.58402340     -14.32030198      15.97106143      -0.13474672      -0.37439062      -0.08243614
O        2.43402237      16.34477353       0.36860739      -0.99939475      -0.94679659       0.14426190
H        1.96995287      16.07381470      -0.60943495      -0.26644095       0.28048303      -0.16489603
H        2.88423611      15.52283771       0.59320709       0.36890936       0.16987897       0.05455983
O       -5.68057995      -7.28786295       5.59462449      -1.67714202      -0.84904614       0.40867051
H       -5.38676418      -8.04868036       6.19604712       0.09896457       0.32066194       0.06576115
H       -5.09544420      -6.78173515       5.14358543      -0.09718898       0.09995227      -0.35164039
O       -2.16313253       2.39401418       6.64565466       0.32577572       0.28685431       0.39058241
H       -2.07555083       3.28018219       6.90879693      -0.28424686       0.49313563      -0.16863535
H       -1.82538469       1.82524897       7.47492764      -0.05450461      -0.10445508      -0.29384424
O       13.16824825      -5.47282893      -1.45457372       0.91204328      -0.95464869      -0.74277591
H       13.98785613      -5.18229884      -1.98767357      -0.19905726      -0.10009682       0.26680082
H       12.93797487      -6.29025739      -1.73360674       0.05903590      -0.33395609       0.40410176
O       11.82412963       4.89004893      22.73851761      -0.00422611       0.29265382       0.27070806
H       11.24521163       4.17445130      22.98348390      -0.13516185      -0.23608494      -0.07504190
H       11.88905240       4.83509118      21.75624164       0.08450199      -0.37807121      -0.07263175
O        8.18037066      14.48709368      23.80162519      -1.40863406      -0.23982068       1.31649288
H        9.03396792      14.91256656      23.91825969       0.24997754      -0.02912895      -0.30549645
H        8.14941355      13.62873311      24.04585022       0.13445093      -0.50312244      -0.08700117
O       -8.08683713       7.01802446      11.40774503       0.90025824      -0.78020898       0.12250793
H       -7.32480715       6.55652635      11.00966126      -0.08389086       0.20639205      -0.07265188
H       -8.33094116       6.24936045      12.04740800      -0.09748844       0.26001801       0.25785109
192
Lattice="12.74843664615954 0.0 0.0 -5.291325132649633e-07 12.74843664615954 0.0 -5.291325132649633e-07 -5.291325132649633e-07 12.74843664615954" Properties=species:S:1:pos:R:3:momenta:R:3 step=60 time_fs=6.0 phase=equilibration pbc="T T T"
O       11.62017913       0.72787907     -16.49128767       1.12643523       0.02997794       0.62979724
H       12.05734859       1.00577293     -15.66611899       0.45500781       0.39424323      -0.00125374
H       10.83908737       0.15628741     -16.46397150       0.08807699      -0.08000849       0.05048091
O       26.37450614      24.79063761       4.89686109       0.18048139       0.71509146       1.50902583
H       26.72583716      23.93901255       4.63261903       0.29338892      -0.50944711      -0.15541451
H       25.56276648      25.05439937       4.47495534       0.15918592       0.17103905      -0.06634186
O        4.55256801      -0.30319626       6.62746844       0.09483617      -0.75367121      -1.15114411
H        4.99460229      -1.09841568       7.02765846       0.23528475       0.17599321      -0.37137626
H        4.19258408       0.17155413       7.42522311       0.17552114       0.19029240      -0.06753629
O       -2.85864960      -4.40474723       1.03158414      -0.31930969       1.12191764       0.96258980
H       -2.64337808      -3.71483886       0.38293785      -0.20752807      -0.29537544       0.21017143
H       -3.67981497      -4.16351554       1.42050021       0.08240116       0.11300864      -0.27544131
O        4.27313584      15.86330100      10.72495637       0.44452813       0.91358391       0.13250832
H        4.28159856      16.74285018      11.19760152      -0.10332474      -0.10824647      -0.23778532
H        5.12888041      15.81535025      10.21452887       0.24025409       0.11391939      -0.48999456
O       -1.38231190       6.62115437       5.14577887       0.45070814      -1.06762625      -0.33035031
H       -1.43008648       6.26876142       4.20047139      -0.60359023       0.05995144       0.45039175
H       -0.54513748       7.05463437       5.24682734      -0.22867805       0.05751541       0.14921799
O       22.81288840      12.31525587       5.77302069       0.06707753       0.02233297      -0.03216122
H       23.21890481      13.19646634       5.98167575       0.24355864       0.26945935       0.13641184
H       22.42116347      12.33869205       4.95128918      -0.46612591      -0.23518707      -0.05796840
O       -1.04695863     -15.76058472       6.80845641      -0.95920515      -0.56150485      -0.43648470
H       -0.54317779     -16.09984037       6.01484366      -0.30226780      -0.02038171       0.15848426
H       -1.37916955     -14.95097030       6.55979133      -0.17406852       0.67184417      -0.03265070
O       15.47906265     -17.90470677       9.67725096      -0.01087275      -0.39152143      -0.00059000
H       16.12472500     -18.40558679      10.19029725       0.43827655      -0.51461428       0.24621271
H       15.64642988     -16.95053456       9.56951023      -0.02898584       0.07306079      -0.23542891
O        3.27024114     -14.65605927     -13.35323402       0.07262969       0.24514949      -0.46504712
H        4.15230490     -15.01997311     -13.16481520       0.49749543       0.20307890       0.20417178
H        2.64512727     -14.99962886     -12.73269679       0.21282803      -0.17039385      -0.18504122
O       -5.74834207       1.58715331       2.85487726      -0.29937892       0.84527441       0.12998790
H       -6.49487471       1.19402292       2.30769372      -0.14349302      -0.32753840       0.18794694
H       -5.44882957       2.40730082       2.52394309       0.08344446       0.36016659       0.33092609
O       -5.36306786      16.06726872      25.96015878       0.95962297       1.58385394      -0.77858175
H       -5.35403905      15.44007705      25.22712890      -0.08095624       0.26941013      -0.22095427
H       -4.47254075      16.33656027      25.99021563      -0.59066686      -0.57898929       0.01406046
O        7.46642649     -15.70333186      -8.50860852       0.61126415       0.55129666       1.86949459
H        7.87873453     -16.48106799      -8.20242835       0.40208135       0.02224579       0.03023087
H        6.60253243     -15.56263929      -7.96100171       0.35262124       0.23919941      -0.38564137
O       13.67585390       8.54927794      17.96216638      -0.42630139       0.20585183       0.79917016
H       14.09910405       8.69857167      17.06686514       0.20172051      -0.02238296      -0.29047263
H       14.26619452       7.96294229      18.44740293       0.23553150      -0.14105583       0.31280960
O       -0.15660031       1.20599580      -1.22903618      -0.25265713       1.15573206       0.28007332
H        0.80593314       1.38630344      -1.20134992       0.20238321       0.08474788      -0.09648209
H       -0.26255163       0.41182200      -0.74341590      -0.51292201      -0.38506999       0.10469430
O      -14.18923377      12.66332405      15.79290574       0.65827556       0.06753494      -1.25511921
H      -13.94464721      12.36267274      14.86124070       0.20304280       0.17986624       0.42311545
H      -14.98506478      12.28261523      16.13589204      -0.19587612      -0.14400497       0.39802085
O      -16.43345420       5.91445251      12.34399386       1.40934947      -0.20802583      -0.57523699
H      -16.98649813       6.00400782      11.53024565       0.37395409       0.00671609       0.18152591
H      -16.11925908       6.75909802      12.36733573      -0.06916668       0.85638485      -0.28608506
O       -9.94883162      32.92807956      -9.57968479      -0.17168642      -0.29454814      -0.18966723
H       -9.23953228      32.35866334      -9.28683078       0.51413703       0.18345660      -0.03698502
H      -10.64971056      32.40338606      -9.89403900      -0.75187879      -0.16033233       0.04804345
O       34.75260800      11.50418902      21.40208794       0.66504723       0.04967323      -1.15677806
H       34.75711424      11.60321153      20.51809863      -0.14865698       0.36406214      -0.09818239
H       35.20363474      10.66154144      21.60632450       0.31165471      -0.40931324       0.63008148
O       30.39440579     -12.66933076       2.16647106      -0.11753412       1.29548276      -0.68069381
H       29.68678849     -12.13280852       2.49730559      -0.02537238      -0.16986783      -0.37641481
H       30.19358957     -12.64398894       1.20732524      -0.18160324      -0.08753390       0.52438736
O       17.58796068       9.30224654      -7.43097400      -0.02335803      -0.46873425       0.36765399
H       17.48971889       8.41575034      -7.66525567      -0.52232658      -0.61657681      -0.54321587
H       17.41622828       9.55174318      -6.50932867      -0.01999627       0.07177297      -0.22896913
O       -5.16494130       2.59608180      32.18478570       0.84302691      -1.22884093       0.09888613
H       -5.84885435       2.15513741      31.70573612       0.16362341       0.22400105       0.52300098
H       -4.39277411       2.03644562      32.39052368       0.05772324       0.31293656       0.16717630
O        3.77332533       0.86528349      -0.22890861       1.65541262       0.86043435      -0.19083935
H        3.48230611      -0.06352442      -0.31425564      -0.00369403       0.13409354      -0.16392298
H        4.14644127       1.10876912      -1.10566498      -0.12327935      -0.38800051       0.38664141
O       23.23322346       3.22847980      11.66135199      -0.59131919      -0.10051635      -0.79696520
H       23.15956259       3.62928862      12.54359251       0.43111866       0.18802508       0.68141502
H       23.88355629       2.54001185      11.74164111      -0.12172525      -0.04176421       0.10087884
O       -1.44167452      31.81934302      15.02164923       0.51055282       0.38729295       0.89754647
H       -2.00461937      32.45334528      14.53066742      -0.42632271       0.02308315       0.04783834
H       -0.60176640      31.91821625      14.46906392      -0.14287769      -0.27894210       0.17079387
O        4.83165077      19.39119167       5.21153617       0.85861607       0.19013712      -0.17563900
H        4.13395848      18.97387009       5.74270805      -0.60444722      -0.16828932       0.22727266
H        5.69057994      18.91578742       5.22934839      -0.33259593       0.06124449       0.00097336
O      -10.14698945      10.48709794       9.47789198      -0.81599582       0.34715057       1.56416905
H      -10.68787407      10.89144011       8.83098882      -0.58071307       0.16341990      -0.20643736
H      -10.55941911      10.87059435      10.31294865       0.28207962      -0.26297057      -0.18020619
O       17.69879827      17.75532953      26.16991339      -0.44422283      -0.08610595      -1.46607155
H       18.52782334      17.29747903      25.99963277       0.11794891      -0.18827276       0.05302058
H       16.87294016      17.32218484      26.06064670       0.10116287       0.18445995       0.02908610
O        6.93424951      18.70985760      10.13689731       0.06491255      -0.01169665       0.45359996
H        7.22908602      19.34447640       9.47508897       0.02570496      -0.21363764       0.06701705
H        6.63924173      17.98217363       9.57571791      -0.35205670      -0.09059118      -0.17283852
O       -0.62949894     -13.80625125      13.26532145      -0.68351418       0.41954363       0.05944322
H       -1.38989918     -14.10855507      12.74615853      -0.26534752      -0.40391119       0.11470099
H       -0.14288992     -14.55776872      13.58205905       0.21622907      -0.61569858      -0.11835845
O        1.14749398       6.13939524       1.10454185      -0.42101891      -1.66958460       0.17405309
H        1.54213773       5.35862400       1.11997120       0.29369076      -0.43592381       0.16799010
H        0.93008361       6.29735781       0.13912260       0.21789393       0.31419822       0.47562957
O        3.12058420       1.31596347       8.36234051       1.65600099      -0.41127281       0.35419261
H        2.30709589       1.02102139       8.27684407      -0.41729000       0.28126960       0.02412303
H        3.22996071       1.51293748       9.30430453       0.08773717      -0.24168995       0.25493953
O      -18.83395613      28.80947157     -16.15802932       0.24804272       0.78651713      -0.35608487
H      -18.75395911      28.95798867     -17.08395955      -0.30695711       0.66251431      -0.69355272
H      -18.19039176      28.31996490     -15.73083524       0.32797604      -0.13093135       0.66437337
O        2.88886510      26.87256975      -9.11576370       0.60325286      -0.34394170       0.56544753
H        3.73246453      27.00477634      -8.11937884      -0.33921349       0.13925732      -0.32554085
H        2.21109655      26.17376370      -8.91424993      -0.34212884       0.10496087      -0.04907499
O      -18.07746021      19.02076640       1.91814105      -1.15771375      -0.65959338       1.01481967
H      -17.46461649      18.86157411       1.23375559       0.49767962      -0.04634865      -0.51010321
H      -18.80775822      18.51075000       1.72061605      -0.49283284      -0.07667412       0.15021602
O       11.70341607      17.57843320       7.06157772       0.19031208       0.28965823      -0.76352958
H       12.54804464      17.31197970       6.66516769       0.12797969      -0.24072979       0.02795549
H       11.27817065      18.28866382       6.58864349      -0.39658168      -0.06254468       0.20779540
O       -7.22626436     -11.21120945       5.18770709       0.52065241      -0.87490986      -0.63287100
H       -6.47884842     -11.27999409       4.53833868      -0.35754181       0.17852395       0.08108624
H       -7.40681330     -12.04821069       5.57395066      -0.23479292      -0.03326784       0.41349792
O      -24.13186520       3.40791127      10.70626600      -0.93427847      -1.57213380       0.53313463
H      -24.76553240       4.08431220      10.47761071      -0.15593227      -0.05241836      -0.10492027
H      -23.37510257       3.74103804      10.34175142       0.28955197       0.20822690      -0.17986041
O      -11.43505640      -8.21240874      18.46271301       0.13237026      -1.25465768      -0.38716435
H      -10.65332606      -8.57125991      18.90008743      -0.42040225      -0.03675348       0.00236811
H      -11.35785908      -8.36149204      17.51777911      -0.10639925       0.46917785       0.40455220
O        8.60729716       7.33981049      16.91715304      -1.48337759       0.55385181      -0.85872936
H        9.56075663       7.33051454      16.76622169       0.36075649      -0.01130166       0.03883609
H        8.22699930       6.78588581      16.21125881      -0.23221422       0.20440617       0.12944902
O      -11.63953742      -0.47700039      20.42365920       0.75493682       0.03907462       1.05709285
H      -12.53778336      -0.29154776      20.74412477       0.03832959       0.03800730      -0.19071635
H      -11.70354709      -0.52848513      19.49334548      -0.33341718      -0.03874047      -0.41115593
O       24.17372327       2.47558178      16.22513756      -0.80449979       0.90206687       0.06782606
H       23.90668255       2.47318016      17.13580522       0.25965424      -0.04295655      -0.22769134
H       23.99987310       1.66085273      15.76449306       0.08527464      -0.45253879      -0.56392461
O       -5.67955137     -17.95232370      -5.02031532      -0.12543113       0.45353074      -1.02212338
H       -4.70938471     -17.84780886      -4.81041046      -0.17578710      -0.49478561      -0.61950159
H       -5.74975460     -18.66476206      -5.61052552       0.19244108       0.12013467       0.12816447
O       29.47730164      -8.98814066      -6.14853292      -1.63314224       0.13041145       0.07193325
H       30.18870077      -9.00748167      -6.77669108       0.47646464       0.12822013      -0.11641023
H       29.15737751      -9.87577932      -5.96696711      -0.20755005       0.65141464       0.02886614
O        8.82133988      -0.67088519       3.41465447       0.38680335       0.81363593       0.83189891
H        8.27495916      -0.05157959       2.87717197       0.25874659       0.16056104      -0.13585173
H        8.30644995      -1.49743331       3.64395934       0.11219192      -0.42745201      -0.08279674
O      -19.77511842      -3.16198334      24.77653387      -0.18192899       1.23617892       0.00129665
H      -20.10577190      -3.89674858      24.28339492      -0.02775162      -0.58131500      -0.30139395
H      -19.22089173      -3.42668350      25.49180081       0.41897402      -0.30924256       0.28528923
O        2.38632670      -5.79616573      -6.03754102       1.32179287       0.91241132       0.57464237
H        2.54291514      -5.57691687      -5.05956039      -0.36786415      -0.35253006      -0.33580569
H        1.90165980      -6.61187904      -6.16615276       0.33042911       0.31932254       0.32333484
O        9.84650955       8.27965169       7.94965186       0.89889064      -0.62508377       0.26887843
H       10.54770212       8.54302596       7.31752863      -0.11549897       0.08642574      -0.21610614
H       10.27696669       7.50269378       8.36754518      -0.16166940      -0.27659554      -0.22091694
O        5.35350486       9.74927256      -4.82553880      -0.05000308       0.27640117      -0.79546301
H        6.11996516       9.17954374      -4.76713912       0.61305727      -0.21062201      -0.02769184
H        4.79385874       9.64118963      -4.01844538      -0.09578881      -0.03676533      -0.09066516
O       13.76361744      29.45935635      15.87783486      -0.82947204      -0.70820177       0.33859663
H       12.91515268      29.00197798      16.09796835       0.16930978       0.13590520      -0.10713672
H       14.41409085      28.75471310      15.91401928      -0.20621661      -0.10489029      -0.08889824
O       -2.80772312       3.97104256       1.69538141      -0.28879999       0.35508150       0.60584195
H       -2.29507977       3.63189350       2.33717485      -0.28151321      -0.08660221       0.01872837
H       -2.67140044       4.95627473       1.88436480      -0.06724542      -0.16536856       0.00177505
O        7.81312798     -14.02024838      10.95711449       1.17793606       0.34664161      -0.32126031
H        6.99658943     -14.38902362      11.05587731      -0.79774036      -0.28776045      -0.27787726
H        8.20312691     -14.08757755      10.09071653       0.32001808      -0.33129450      -0.37522811
O       -2.45704319      10.55611119      24.35672009      -0.98003404      -0.14086083      -1.79670286
H       -2.07408725      10.09578253      23.56048419      -0.20103980       0.19793834       0.50104487
H       -3.23403413      11.17644062      24.23586333      -0.17512647       0.41106765       0.33831137
O       20.06281779      21.74541837       1.55413823      -0.34536691       0.51366867      -0.30051181
H       19.99762477      22.17947220       2.39165489      -0.00370162       0.43687105       0.51011576
H       19.82240547      20.79604025       1.40874123      -0.19704176      -0.28036377      -0.37318111
O       12.15891361      10.00475581     -15.91764734       0.30222940       0.52917725       1.17485933
H       12.71004508       9.31814488     -15.50007300       0.32159758      -0.42499009      -0.11928468
H       12.51305899      10.00702825     -16.85116918       0.49319457       0.11639908      -0.67051876
O      -11.40220052      22.28211741       1.05364830       0.43324469       0.04167882      -0.29267815
H      -11.67740672      21.42286451       1.11813972      -0.53156204      -0.45971899      -0.10277996
H      -10.85296137      22.58706648       1.81257203      -0.05851917       0.36953225      -0.01944552
O        2.94776514     -15.03103747      16.12631348      -0.27900572       0.02694104      -1.24426442
H        3.32002296     -15.73877849      16.63875563      -0.07706685      -0.09572200       0.27980004
H        3.57294987     -14.35708276      15.96347908      -0.06880727      -0.35719543      -0.07667107
O        2.42774173      16.33850005       0.36883354      -1.03784253      -1.03451862      -0.06949874
H        1.94847899      16.10237466      -0.61041277      -0.17012268       0.30660934       0.14944951
H        2.91842887      15.54024655       0.59736755       0.33009981       0.19168263       0.02817712
O       -5.69156374      -7.29405173       5.59795907      -1.89484961      -1.14939493       0.66160761
H       -5.37752777      -8.00892729       6.19531546       0.09479816       0.47505751      -0.06561693
H       -5.09246035      -6.76559825       5.10386660       0.12447623       0.20444929      -0.43914033
O       -2.16080616       2.39465253       6.64874823       0.42556754      -0.01719792       0.64776841
H       -2.10243305       3.33598458       6.89366913      -0.26911575       0.59803079      -0.15237949
H       -1.83586785       1.82513749       7.43156867      -0.15921761       0.10446863      -0.58837921
O       13.17470168      -5.47738743      -1.45907524       1.19212115      -0.59639770      -0.71779086
H       13.96107392      -5.19477326      -1.95690141      -0.31380201      -0.14779432       0.34257324
H       12.93719839      -6.34076987      -1.70048489      -0.06022505      -0.66808567       0.28761549
O       11.82409179       4.89172347      22.73958972       0.02235698       0.25023808       0.16030761
H       11.22996760       4.15117147      22.97777014      -0.16100310      -0.22261950      -0.04074532
H       11.89679495       4.80001700      21.75303164       0.07711412      -0.33869110       0.01958787
O        8.17169555      14.48664646      23.80922223      -1.36869638       0.09047252       1.26788914
H        9.05657868      14.90871436      23.88721068       0.19254991      -0.05942507      -0.32670004
H        8.16268442      13.56241739      24.04161143       0.14429087      -0.78181810      -0.01447113
O       -8.08135276       7.01232106      11.40874328       0.84196028      -1.03873061       0.25303390
H       -7.33100655       6.57908803      10.99995125      -0.03138926       0.24836549      -0.13071843
H       -8.33933030       6.28461835      12.06804332      -0.07553633       0.46149132       0.16838173
192
Lattice="12.74829541625395 0.0 0.0 -5.291266514219023e-07 12.74829541625395 0.0 -5.291266514219023e-07 -5.291266514219023e-07 12.74829541625395" Properties=species:S:1:pos:R:3:momenta:R:3 step=70 time_fs=7.0 phase=equilibration pbc="T T T"
O       11.62726779       0.72819840     -16.48711233       1.22962062       0.07972752       0.67916863
H       12.09638775       1.04044155     -15.66933907       0.34118249       0.31211458      -0.07559947
H       10.84799170       0.14850428     -16.45561035       0.10027037      -0.07771317       0.11897399
O       26.37569726      24.79442661       4.90622680       0.31994751       0.56143524       1.54596739
H       26.75071580      23.89608616       4.61841748       0.20295548      -0.31935822      -0.12058582
H       25.57725586      25.07035489       4.46645034       0.14459051       0.16017621      -0.10740463
O        4.55299883      -0.30787925       6.62104596       0.05467033      -0.75493703      -0.92565187
H        5.01563389      -1.07683897       6.98803972       0.20604296       0.24957416      -0.43089537
H        4.21094613       0.18847714       7.41208298       0.20124225       0.15561995      -0.19882289
O       -2.86007153      -4.39820951       1.03734620      -0.15341865       0.96368805       0.93927222
H       -2.66191205      -3.74115820       0.40030284      -0.16126550      -0.21769221       0.11762154
H       -3.68241741      -4.14883545       1.39914708      -0.14970988       0.18807320      -0.15560599
O        4.27640856      15.86911753      10.72555741       0.64568377       1.00362273       0.07663407
H        4.27235344      16.72623227      11.17010421      -0.08362872      -0.19439358      -0.30580155
H        5.14412677      15.82653637      10.17171136       0.06466169       0.12046223      -0.37779526
O       -1.37976209       6.61407217       5.14321067       0.36479614      -1.20543799      -0.44084934
H       -1.48855514       6.27717657       4.25239220      -0.59633783       0.09701254       0.57050692
H       -0.56307415       7.06414718       5.26238746      -0.12890407       0.14528156       0.17061871
O       22.81384871      12.31583114       5.77376177       0.31814606       0.22527623       0.26119471
H       23.23720631      13.21326619       5.99159830       0.12579543       0.06088719       0.06070775
H       22.36729193      12.31663383       4.93402508      -0.61379221      -0.21200737      -0.25470538
O       -1.05245622     -15.76457766       6.80547133      -0.88022872      -0.70642795      -0.51651335
H       -0.57446026     -16.10176499       6.03523036      -0.33085830      -0.02584260       0.24399387
H       -1.40037308     -14.87525667       6.55483861      -0.22427567       0.79318715      -0.04494754
O       15.47886534     -17.90701216       9.67726735       0.03079437      -0.43355888       0.05828038
H       16.16482393     -18.44916271      10.21082140       0.36268318      -0.36246232       0.15722370
H       15.64563574     -16.94660550       9.54897799       0.01554164      -0.00694593      -0.18156691
O        3.27135251     -14.65436361     -13.35601430       0.34076765       0.24552498      -0.48787617
H        4.19625868     -14.99885080     -13.14739133       0.37216221       0.23663514       0.14245155
H        2.66040361     -15.01889039     -12.74645427       0.09783064      -0.23268555      -0.09354211
O       -5.75076351       1.59159114       2.85560349      -0.49750757       0.63296413       0.11062402
H       -6.49902874       1.16809575       2.33186493       0.06101625      -0.19658632       0.30598216
H       -5.44081229       2.44722347       2.55195820       0.06564801       0.42793421       0.25262500
O       -5.35802290      16.07650181      25.95497031       0.62066392       1.47092673      -0.82200012
H       -5.36372539      15.46564466      25.20410315      -0.12021677       0.26093408      -0.24439666
H       -4.51404073      16.28513179      25.99471652      -0.21699169      -0.46377148       0.08769071
O        7.46923578     -15.69912468      -8.49690813       0.38303082       0.72977159       1.89704240
H        7.92233701     -16.48711934      -8.19635000       0.47663932      -0.12098672       0.08233027
H        6.64656025     -15.54152350      -8.00525807       0.51883308       0.19377863      -0.50069313
O       13.67359160       8.55031536      17.96619598      -0.23664042       0.14666266       0.58145382
H       14.11270284       8.69491376      17.05125716       0.07519490      -0.05431159      -0.00895703
H       14.28526453       7.95259461      18.47706511       0.13816546      -0.04698430       0.27799165
O       -0.15784240       1.21330959      -1.22756383      -0.15187119       1.18356269       0.22303554
H        0.82034121       1.39305622      -1.21106810       0.07588690       0.04425700      -0.09923041
H       -0.31345814       0.37055334      -0.73039370      -0.51540668      -0.40502435       0.13033075
O      -14.18477020      12.66354653      15.78445819       0.70007537       0.04558689      -1.38960774
H      -13.92698869      12.38226125      14.90958764       0.16337406       0.21330576       0.54198723
H      -15.00420900      12.26678266      16.17270754      -0.16357476      -0.16103664       0.34404463
O      -16.42490301       5.91256000      12.34009449       1.36155942      -0.30010592      -0.62400641
H      -16.95049120       6.00223646      11.54892077       0.34574929      -0.04177947       0.18087050
H      -16.12053294       6.85333984      12.34219775       0.01062268       0.99232806      -0.22873766
O       -9.94957674      32.92595926      -9.58063883      -0.14010048      -0.33090354      -0.16976079
H       -9.18921992      32.37819890      -9.29049981       0.48332331       0.24054809      -0.05222439
H      -10.72569822      32.38587981      -9.89060038      -0.74277063      -0.15393331       0.04570444
O       34.75669591      11.50355522      21.39627297       0.80759842      -0.24241395      -0.67449350
H       34.74114612      11.64257305      20.48762371      -0.16552226       0.43067258      -0.48034193
H       35.22864335      10.63065038      21.66479316       0.18910983      -0.17929899       0.54749301
O       30.39368685     -12.66126504       2.16208463       0.01763977       1.27410361      -0.68684131
H       29.67585171     -12.14360736       2.46796124      -0.20621592      -0.04536889      -0.21905443
H       30.17666001     -12.65421794       1.25312182      -0.17066183      -0.12448157       0.35848500
O       17.58768671       9.29949309      -7.42844079      -0.01066996      -0.48112656       0.38550247
H       17.43812493       8.35112121      -7.71733745      -0.52073471      -0.62315801      -0.50151009
H       17.41562613       9.55712388      -6.53261927       0.00788806       0.04402399      -0.23136819
O       -5.15918630       2.58900417      32.18550655       1.02218991      -1.03137518       0.26677081
H       -5.83964428       2.17107174      31.75234664      -0.00455991       0.08351602       0.42155759
H       -4.38868857       2.06721428      32.40540469       0.04169934       0.30445187       0.14966945
O        3.78350456       0.87029813      -0.23016039       1.64885831       0.76441601      -0.16037225
H        3.48181440      -0.04949700      -0.32941976      -0.01110852       0.14463122      -0.14227969
H        4.13415798       1.07314466      -1.06644206      -0.09824568      -0.32037926       0.35485324
O       23.22912675       3.22823947      11.65681778      -0.65478111       0.04650999      -0.59914019
H       23.20059729       3.64547463      12.60258464       0.41552038       0.12848356       0.49454480
H       23.87536864       2.53169557      11.75068900      -0.04517770      -0.12359796       0.08665400
O       -1.43833633      31.82160245      15.02646843       0.55109601       0.47130977       0.72716822
H       -2.04481960      32.45417789      14.53825859      -0.38603438      -0.00834658       0.11747056
H       -0.61964551      31.88830002      14.49024903      -0.21630705      -0.32492714       0.25981006
O        4.83652336      19.39195110       5.21064298       0.67955688       0.12768013      -0.07591838
H        4.08240633      18.96208354       5.76075597      -0.42241136      -0.05198870       0.12215511
H        5.65577238      18.92192228       5.22944900      -0.34627973       0.04943733       0.00321602
O      -10.15209046      10.48917973       9.48795631      -0.90077919       0.37479257       1.65595591
H      -10.74588653      10.90860111       8.80596271      -0.57250857       0.16404378      -0.25816300
H      -10.52626223      10.84139483      10.29118687       0.37426823      -0.31277934      -0.22037223
O       17.69650703      17.75505566      26.16048752      -0.20881910       0.05828526      -1.51093606
H       18.53602549      17.27667067      26.00619435       0.03901633      -0.22477396       0.09007447
H       16.87684205      17.33515827      26.06263561      -0.02958196       0.07901437       0.01635996
O        6.93448719      18.70955902      10.13942053       0.02326544      -0.04697725       0.39951978
H        7.23203475      19.32659961       9.48280590       0.04203052      -0.13963074       0.08350804
H        6.60388761      17.97161851       9.56096863      -0.36296045      -0.10190619      -0.11257527
O       -0.63390960     -13.80364500      13.26552869      -0.74907924       0.32414429       0.05499544
H       -1.41469559     -14.14722617      12.75733928      -0.21934211      -0.38270858       0.13270332
H       -0.12196000     -14.61581154      13.57012595       0.18486770      -0.53414233      -0.14224241
O        1.14415177       6.13021134       1.10514166      -0.62234485      -1.37025715       0.06867741
H        1.58071835       5.29693732       1.13922669       0.46467661      -0.76234084       0.22232001
H        0.95129980       6.33038586       0.18886370       0.21128037       0.36767680       0.50868978
O        3.13215191       1.31385564       8.36469360       2.07056985      -0.28920067       0.45237109
H        2.24300041       1.04018176       8.27441433      -0.84036928       0.13485881      -0.06494745
H        3.24025948       1.48932407       9.32727569       0.12111904      -0.24651343       0.20011104
O      -18.83288931      28.81434446     -16.16026090       0.08975164       0.87636973      -0.45377556
H      -18.78151445      29.02031771     -17.14998991      -0.26034653       0.60346921      -0.59475806
H      -18.15108984      28.30173810     -15.66346077       0.41507316      -0.19086788       0.66889338
O        2.89285524      26.86949912      -9.11076224       0.68292280      -0.55044445       0.98613646
H        3.67298750      27.01352573      -8.17564409      -0.79253865       0.05217790      -0.76943143
H        2.19337404      26.19856272      -8.91849823      -0.05070018       0.38670103      -0.04896764
O      -18.08392016      19.01693224       1.92461269      -0.98519843      -0.55694718       1.02647855
H      -17.41410144      18.85673170       1.18083224       0.46177016      -0.03909380      -0.50661260
H      -18.86502819      18.49761546       1.73442816      -0.64084681      -0.16334047       0.13576625
O       11.70461844      17.57975517       7.05679810       0.24979607       0.20076443      -0.77192249
H       12.55676019      17.29163700       6.66765781       0.03944685      -0.16507751       0.02733569
H       11.24023377      18.28441444       6.60693754      -0.37216089      -0.02687709       0.16993082
O       -7.22238731     -11.21611596       5.18358347       0.65822051      -0.78048751      -0.65922653
H       -6.51965955     -11.26504764       4.54671241      -0.45052378       0.11870513       0.06938020
H       -7.42696769     -12.05530261       5.61569393      -0.18530346      -0.08333046       0.42083764
O      -24.13785077       3.39790072      10.70964343      -1.06333325      -1.63080870       0.57135736
H      -24.78617750       4.08268473      10.46683174      -0.25603473      -0.00050533      -0.10634872
H      -23.33360644       3.76449807      10.31735735       0.49960314       0.24828287      -0.29025492
O      -11.43432740      -8.21995039      18.46053636       0.03103987      -1.21258340      -0.22288510
H      -10.69096299      -8.57722638      18.90237030      -0.32499257      -0.10047068       0.06754742
H      -11.36844072      -8.31537616      17.54890062      -0.11125523       0.46946709       0.18428910
O        8.59838497       7.34310639      16.91148337      -1.35444862       0.55916496      -0.91410066
H        9.58997854       7.32964756      16.77297401       0.20870372      -0.00665530       0.10374421
H        8.20410594       6.80710731      16.22229355      -0.23777118       0.22327499       0.08572167
O      -11.63490499      -0.47678162      20.43004138       0.71072104       0.02692527       1.04646828
H      -12.53378119      -0.28743233      20.72701778       0.03754529       0.04759423      -0.15303677
H      -11.73407990      -0.53242179      19.44758627      -0.29089365      -0.04013224      -0.47640264
O       24.16869912       2.48111323      16.22474402      -0.74536740       0.86553686      -0.19744019
H       23.92927061       2.46669210      17.11980749       0.20084314      -0.09446979      -0.06753060
H       24.00862384       1.61899720      15.71416506       0.10762041      -0.35760217      -0.43308411
O       -5.67967363     -17.94878667      -5.02595693       0.03064994       0.63202944      -0.84036776
H       -4.73018391     -17.89222511      -4.87004030      -0.21062007      -0.41015994      -0.59130535
H       -5.73688541     -18.66351230      -5.60827712       0.06237457      -0.10680363      -0.09107868
O       29.46705231      -8.98690771      -6.14832153      -1.53802693       0.29349850      -0.06935003
H       30.23199169      -8.99625660      -6.78467765       0.37631200       0.09862753      -0.01212455
H       29.13628880      -9.81688842      -5.96331015      -0.23515227       0.50555314       0.05657558
O        8.82315411      -0.66615626       3.41960160       0.23479845       0.71314343       0.79435877
H        8.30265002      -0.04162379       2.86990212       0.30749486       0.04260291      -0.01217014
H        8.32148133      -1.52974475       3.63280913       0.20156419      -0.22362673      -0.14828078
O      -19.77617789      -3.15426904      24.77627722      -0.22807745       1.18901072       0.00672652
H      -20.10822493      -3.95376365      24.25355681       0.00027603      -0.52769390      -0.26154970
H      -19.17899699      -3.45635280      25.52060627       0.40008072      -0.28374997       0.26620122
O        2.39471780      -5.78996845      -6.03365146       1.43273346       1.10005279       0.63550161
H        2.50549349      -5.61377704      -5.09803105      -0.38614248      -0.38558921      -0.40508505
H        1.93080013      -6.58584730      -6.13296682       0.24620839       0.17396317       0.34013732
O        9.85259037       8.27521436       7.95126390       1.11556302      -0.78449684       0.27724656
H       10.53271044       8.55494578       7.29801794      -0.19242928       0.15529884      -0.17638957
H       10.25600424       7.47823306       8.34287990      -0.26314960      -0.22379241      -0.28047863
O        5.35308493       9.75059044      -4.83016849      -0.03001110       0.16112786      -0.72716483
H        6.17622201       9.16101117      -4.76951964       0.50193007      -0.14124680      -0.02335546
H        4.78789719       9.63726641      -4.03296023      -0.02215103      -0.04152125      -0.20871931
O       13.75815486      29.45437833      15.87989331      -0.87470908      -0.78448790       0.38404420
H       12.93177377      29.01750654      16.08629067       0.14231291       0.17530916      -0.12061587
H       14.39660664      28.74372683      15.90519480      -0.14120552      -0.11934617      -0.08847010
O       -2.81008218       3.97452481       1.69819492      -0.48588956       0.76378845       0.31780403
H       -2.30985447       3.61128687       2.35485303      -0.03002334      -0.33140910       0.33743817
H       -2.67961707       4.93081275       1.88158236      -0.09836080      -0.33090529      -0.05405463
O        7.82104845     -14.01766466      10.95505256       1.35685751       0.39736181      -0.34350692
H        6.91054222     -14.42063363      11.02870498      -0.86729252      -0.32216634      -0.29060490
H        8.23257322     -14.11917352      10.05259353       0.26110142      -0.31681733      -0.35664927
O       -2.46325573      10.55553812      24.34540170      -1.08756364       0.03359088      -1.73554187
H       -2.09750098      10.11911581      23.61222136      -0.25293473       0.24823184       0.50369901
H       -3.24326164      11.20738448      24.26650383      -0.00951358       0.21897271       0.29037830
O       20.06046843      21.74782020       1.55189926      -0.35792524       0.35703912      -0.37964289
H       19.99529536      22.21766629       2.44109406      -0.03511038       0.32550664       0.45689023
H       19.80507846      20.77871358       1.37833451      -0.14776598      -0.05392545      -0.24525251
O       12.16118137      10.00752488     -15.91079221       0.49856030       0.39076802       1.00081952
H       12.73717182       9.28231941     -15.51379227       0.22252525      -0.28472669      -0.18334341
H       12.55513011      10.01891054     -16.90515305       0.36920583       0.12418988      -0.42447197
O      -11.39892165      22.28302303       1.05195123       0.56694954       0.25971629      -0.25156504
H      -11.73171049      21.36728954       1.10972787      -0.55820401      -0.59620279      -0.07288468
H      -10.86223506      22.61942703       1.80692987      -0.13589256       0.29464187      -0.09662159
O        2.94528547     -15.03102750      16.11845181      -0.51960287      -0.11736674      -1.23684628
H        3.31488073     -15.74918209      16.66741233      -0.04126503      -0.09821404       0.29403479
H        3.57457323     -14.38524278      15.95450602       0.11759786      -0.20956609      -0.10836215
O        2.42119437      16.33172456       0.36771243      -1.09162915      -1.11085929      -0.29983707
H        1.93746861      16.13296954      -0.57971016      -0.05104417       0.32488918       0.48301595
H        2.94812214      15.55967216       0.59844969       0.27908315       0.20829644      -0.00572261
O       -5.70333932      -7.30111265       5.60201726      -1.93840788      -1.12363534       0.63387593
H       -5.36651960      -7.96051440       6.18687279       0.13967904       0.49121440      -0.08441793
H       -5.07903664      -6.74817152       5.06399332       0.11407933       0.12178815      -0.34918816
O       -2.15798297       2.39452866       6.65320109       0.46186288       0.05484012       0.77169148
H       -2.12776037       3.38747350       6.87722588      -0.24858763       0.42928511      -0.18721380
H       -1.85409550       1.84257212       7.36573629      -0.19122010       0.21626847      -0.70371695
O       13.18185919      -5.48078581      -1.46315932       1.12885483      -0.59795917      -0.60323121
H       13.93447215      -5.20857380      -1.92611546      -0.19126977      -0.12562973       0.26362680
H       12.92898773      -6.41063303      -1.67496180      -0.08721642      -0.70972039       0.24780804
O       11.82400645       4.89280101      22.73996421      -0.01564906       0.10485267       0.04643119
H       11.21578051       4.13376988      22.97450488      -0.11915147      -0.12280287      -0.02239680
H       11.90384074       4.76929674      21.76042483       0.07070977      -0.28932201       0.13710593
O        8.16355167      14.48707795      23.81687903      -1.24421478       0.05280750       1.32267518
H        9.06800665      14.89884178      23.85423292       0.03338220      -0.14477413      -0.34323510
H        8.17780098      13.49065582      24.03854202       0.16745228      -0.63175421      -0.05701523
O       -8.07642462       7.00529704      11.41062191       0.73285860      -1.20446507       0.39275694
H       -7.32876391       6.60326936      10.98297831       0.08078585       0.24466631      -0.21721927
H       -8.34556656       6.33760945      12.08067666      -0.05720221       0.61273255       0.10346519
192
Lattice="12.74809505701126 0.0 0.0 -5.291183353755836e-07 12.74809505701126 0.0 -5.291183353755836e-07 -5.291183353755836e-07 12.74809505701126" Properties=species:S:1:pos:R:3:momenta:R:3 step=80 time_fs=8.0 phase=equilibration pbc="T T T"
O       11.63497836       0.72884784     -16.48247474       1.34020294       0.13510022       0.74529675
H       12.12262101       1.06587412     -15.68079255       0.19894537       0.20813724      -0.16284715
H       10.85912436       0.14176299     -16.44012629       0.13562776      -0.05701248       0.19421461
O       26.37778682      24.79662004       4.91562720       0.49253869       0.27531022       1.53697655
H       26.76296586      23.87999334       4.61025232       0.05473991       0.00150932      -0.04316871
H       25.59067348      25.08460759       4.45410650       0.14340769       0.13840107      -0.14152967
O        4.55301208      -0.31222309       6.61574021      -0.03547601      -0.64484638      -0.78948880
H        5.03690333      -1.05394585       6.94551944       0.24548852       0.19683743      -0.42904028
H        4.23109198       0.20220175       7.38738991       0.20868480       0.13080155      -0.29474569
O       -2.86060518      -4.39298211       1.04334758      -0.06069584       0.71676956       1.03956888
H       -2.67322036      -3.75360025       0.40201070      -0.06827579      -0.03215588      -0.09169829
H       -3.70804927      -4.12728871       1.38980606      -0.35543429       0.24553337      -0.04561332
O        4.28095817      15.87474130      10.72534074       0.85677657       0.87418323      -0.11146081
H        4.26532471      16.71178825      11.14149185      -0.05939768      -0.06175830      -0.26028401
H        5.14070223      15.83841944      10.14155671      -0.13333651       0.12839032      -0.23540194
O       -1.37777979       6.60638436       5.14088259       0.28720110      -1.24403886      -0.24201443
H       -1.54681072       6.28383858       4.30157125      -0.60439933       0.02589621       0.39523199
H       -0.56973771       7.08302221       5.27947889      -0.01593425       0.23971978       0.17708526
O       22.81592120      12.31773644       5.77553922       0.44729964       0.45243853       0.30422713
H       23.24160021      13.20674805       5.99260308      -0.02946792      -0.18766602      -0.03892362
H       22.30616886      12.29751103       4.91076715      -0.60599239      -0.17384872      -0.17661038
O       -1.05822866     -15.76797088       6.80206233      -1.03300286      -0.44304642      -0.53332110
H       -0.60500141     -16.10566278       6.05736060      -0.28026772      -0.06801374       0.18321311
H       -1.41765353     -14.80825635       6.55354304      -0.11980634       0.55034626       0.02295663
O       15.47921616     -17.90959776       9.67779577       0.16896363      -0.50329217       0.16340412
H       16.19232284     -18.47343932      10.21862889       0.20109079      -0.13620350       0.00148825
H       15.64894187     -16.95289054       9.53404076       0.05736676      -0.13069895      -0.12270612
O        3.27455023     -14.65271691     -13.35881550       0.71731216       0.21073225      -0.48400977
H        4.22089861     -14.97273899     -13.13746689       0.12529957       0.29407398       0.05555747
H        2.66472517     -15.04463058     -12.75070989       0.00166520      -0.29625284      -0.00600654
O       -5.75406709       1.59525373       2.85614469      -0.58368642       0.59857388       0.08628029
H       -6.48372190       1.15594407       2.36585627       0.23653419      -0.05797849       0.37991939
H       -5.43835220       2.48478642       2.57452947      -0.02696142       0.31925978       0.21647957
O       -5.35555372      16.08484640      25.94929315       0.15168067       1.33069141      -0.90003116
H       -5.37741151      15.49122569      25.17945453      -0.16229697       0.27217352      -0.25058629
H       -4.51066995      16.24602200      26.00713908       0.28918433      -0.33637632       0.17720222
O        7.47189870     -15.69446449      -8.48540436       0.61342138       0.66273132       1.77695003
H        7.96716054     -16.49789983      -8.18844230       0.42159564      -0.07330612       0.06571767
H        6.69241079     -15.52276870      -8.05125137       0.35778971       0.19739169      -0.40559160
O       13.67273882       8.55073155      17.96889254       0.03145308       0.02858702       0.39704351
H       14.11302171       8.68749024      17.06570784      -0.06271612      -0.09476202       0.30649180
H       14.29038054       7.95610460      18.49854042      -0.03339628       0.12745590       0.16304577
O       -0.15851673       1.22009892      -1.22605594      -0.07671851       1.01749676       0.26902594
H        0.81883149       1.39362017      -1.22000221      -0.10871115      -0.03568574      -0.08183242
H       -0.36031487       0.34029796      -0.72197442      -0.43652390      -0.19649010       0.03310741
O      -14.18082197      12.66362184      15.77630930       0.47650421       0.05638119      -1.11294390
H      -13.90959221      12.40026484      14.95600046       0.20594404       0.14009440       0.35725955
H      -15.01085098      12.25370532      16.19965311       0.04040721      -0.09443173       0.20349704
O      -16.41590292       5.91131140      12.33630998       1.51054308      -0.05580842      -0.51511306
H      -16.92155630       5.99581092      11.56075604       0.22475127      -0.08639720       0.03819632
H      -16.12027102       6.94091129      12.32248210      -0.01783813       0.78343211      -0.17062978
O       -9.95057788      32.92270997      -9.58161412      -0.24735394      -0.57292292      -0.19871651
H       -9.14958295      32.40653570      -9.29799804       0.31356821       0.35539566      -0.10701373
H      -10.78487341      32.37727229      -9.88171834      -0.45047817      -0.00264416       0.13947650
O       34.76163997      11.50083703      21.39278409       0.97681815      -0.57547773      -0.40435694
H       34.72495522      11.68396931      20.43464682      -0.15058484       0.40917190      -0.53797127
H       35.23800754      10.63011061      21.70897764       0.01537420       0.17540448       0.35678763
O       30.39391408     -12.65334853       2.15848040       0.20060441       1.25205725      -0.45186447
H       29.64586061     -12.14155883       2.45437277      -0.38305265       0.07148869      -0.06665580
H       30.15775163     -12.66794225       1.26983414      -0.21209583      -0.16215684      -0.02965432
O       17.58727149       9.29544173      -7.42650056      -0.03812587      -0.81370548       0.18043377
H       17.38971683       8.30338104      -7.75962015      -0.46070045      -0.33824451      -0.36146167
H       17.41657129       9.56111201      -6.55034123       0.01335107       0.04727060      -0.11467353
O       -5.15230016       2.58365620      32.18723857       1.18131200      -0.68338860       0.45729133
H       -5.85223567       2.16939472      31.78551749      -0.25635942      -0.11915711       0.27087320
H       -4.38146917       2.09321895      32.41962045       0.11713972       0.21995437       0.15632200
O        3.79321861       0.87454626      -0.23028882       1.52199915       0.61966557       0.14776153
H        3.47930436      -0.03656821      -0.34143289      -0.04150123       0.11721629      -0.10317468
H        4.13169339       1.04940501      -1.04653767       0.06315433      -0.15749420       0.02004437
O       23.22469425       3.22891300      11.65384938      -0.65539773       0.17611131      -0.30492378
H       23.23956150       3.65327313      12.63737755       0.38923155       0.03305778       0.22317891
H       23.87243434       2.51776004      11.75792876      -0.01905909      -0.14803303       0.06334890
O       -1.43519915      31.82434190      15.03028100       0.42891629       0.58765592       0.60773911
H       -2.07770658      32.44941791      14.55392482      -0.27972871      -0.08434918       0.21092372
H       -0.64065136      31.85463414      14.51678552      -0.18915151      -0.35265153       0.27052867
O        4.83935127      19.39237364       5.21053681       0.24230309       0.12221353       0.06709298
H        4.05366262      18.96437339       5.76491382      -0.16298811       0.10532571      -0.03601964
H        5.62884301      18.92151055       5.22985931      -0.18233566      -0.06531590       0.00677784
O      -10.15778427      10.49134076       9.49701146      -0.99522532       0.37018689       1.28438413
H      -10.79435767      10.92005573       8.78619025      -0.41509331       0.06859610      -0.12983386
H      -10.49074964      10.81359676      10.27889218       0.33089069      -0.23547041       0.01316032
O       17.69593843      17.75551214      26.15065117       0.11328345       0.17486627      -1.55994407
H       18.53304751      17.25459839      26.01669639      -0.09790638      -0.21860401       0.13363832
H       16.86614677      17.33677901      26.06314509      -0.17813150      -0.03666569       0.00375964
O        6.93419245      18.70847935      10.14149745      -0.09336693      -0.22490278       0.32751342
H        7.23801324      19.31820189       9.48930424       0.08580435      -0.02267015       0.04682097
H        6.57005972      17.96522775       9.55589994      -0.32194008      -0.01100596       0.01931325
O       -0.63866087     -13.80231650      13.26559121      -0.80388141       0.02146297       0.02792127
H       -1.42934850     -14.18116356      12.77348387      -0.07218711      -0.31163126       0.20766938
H       -0.10987065     -14.65648792      13.55207182       0.05749873      -0.29448117      -0.22641436
O        1.14032370       6.12148616       1.10578265      -0.58544157      -1.50234038       0.18192454
H        1.62527082       5.22414254       1.16158813       0.41786470      -0.67022670       0.22610949
H        0.97060233       6.36903571       0.23311517       0.18311459       0.42950660       0.37328571
O        3.14489951       1.31206988       8.36771103       2.01269187      -0.30753057       0.57123345
H        2.16068138       1.05268077       8.26641848      -0.75641975       0.14534467      -0.08159570
H        3.25246535       1.46419454       9.33982829       0.12403220      -0.27111660       0.04808366
O      -18.83182947      28.81919419     -16.16318904       0.17614398       0.84247130      -0.58109873
H      -18.80333839      29.07213025     -17.19258499      -0.18823322       0.45969400      -0.26840636
H      -18.11728095      28.28834540     -15.60662696       0.25315787      -0.05963779       0.47338159
O        2.89727210      26.86539987      -9.10378191       0.81047795      -0.60900032       1.23315659
H        3.58580352      27.01469091      -8.26288219      -0.99693982      -0.02136136      -1.02439776
H        2.19480548      26.24240898      -8.92319963       0.04636170       0.48648654      -0.04153837
O      -18.08913433      19.01306482       1.93021470      -0.82868929      -0.62606272       0.79463294
H      -17.38166167      18.85406385       1.14144401       0.18648084      -0.00987627      -0.29358288
H      -18.92360185      18.48311237       1.74745046      -0.53212614      -0.10882508       0.13445713
O       11.70615148      17.58043299       7.05188110       0.30074450       0.11381315      -0.79366386
H       12.55411933      17.28018247       6.67031995      -0.08871808      -0.06343135       0.02664232
H       11.20673155      18.28151823       6.62199128      -0.30496493      -0.03398220       0.14372449
O       -7.21860986     -11.22068069       5.17997727       0.49644896      -0.77478359      -0.44924721
H       -6.55964621     -11.25768357       4.54630550      -0.34109472       0.02419238      -0.10259922
H       -7.44240214     -12.05923749       5.65213580      -0.12816726       0.01564172       0.31486125
O      -24.14377582       3.38832578      10.71261113      -0.96324151      -1.44017661       0.43116136
H      -24.81102787       4.08054282      10.45782252      -0.24244776      -0.05622625      -0.07119839
H      -23.28857395       3.78444860      10.29068264       0.37243755       0.14588109      -0.23052682
O      -11.43462494      -8.22693923      18.45968593      -0.19420151      -1.10341249       0.04234175
H      -10.71289889      -8.59224716      18.91471759      -0.12408840      -0.21403921       0.19143138
H      -11.37883494      -8.27011939      17.54760154      -0.10332540       0.45701033      -0.20921606
O        8.59067841       7.34661764      16.90563595      -1.10303568       0.63041042      -0.89339728
H        9.59768475       7.32878139      16.78565072      -0.05560551      -0.00960355       0.15926966
H        8.17997551       6.82764377      16.22496011      -0.25673491       0.19453839      -0.03491715
O      -11.63051069      -0.47667908      20.43552678       0.66188066       0.00315634       0.82649988
H      -12.53064041      -0.28203679      20.71402199       0.02056270       0.06433753      -0.10614982
H      -11.75915353      -0.53597387      19.40667919      -0.22534599      -0.03219429      -0.33846547
O       24.16391477       2.48592225      16.22191801      -0.69274758       0.71005406      -0.64122716
H       23.94449297       2.45401499      17.12506036       0.12090409      -0.16713450       0.17764270
H       24.02075095       1.59517068      15.68279538       0.14897081      -0.12596581      -0.20019291
O       -5.67944136     -17.94423871      -5.03068080      -0.00757959       0.73608057      -0.74429292
H       -4.74350667     -17.92630379      -4.92402416      -0.04338931      -0.29428128      -0.51613823
H       -5.73781209     -18.68329995      -5.62669553      -0.08149796      -0.28265682      -0.26982865
O       29.45810588      -8.98382526      -6.14954261      -1.20638028       0.68511496      -0.37141780
H       30.25617839      -8.98858649      -6.77491560       0.11728920       0.05254566       0.21786245
H       29.10855171      -9.78368548      -5.95416488      -0.33001948       0.15466584       0.13367049
O        8.82405951      -0.66223916       3.42437070       0.11774828       0.54867285       0.78446524
H        8.33331710      -0.04228102       2.87376241       0.31420155      -0.04486700       0.08184848
H        8.34561980      -1.53993241       3.61487360       0.29462897       0.01371798      -0.21727048
O      -19.77727985      -3.14789068      24.77598710      -0.22400126       0.84969506       0.02953606
H      -20.10236993      -3.99235813      24.23674302       0.11804067      -0.25017789      -0.06551106
H      -19.14704642      -3.47941089      25.53750041       0.23649503      -0.18156053       0.07459401
O        2.40392616      -5.78243338      -6.03004149       1.57785288       1.32024191       0.47595195
H        2.47030246      -5.64761445      -5.12710321      -0.32227805      -0.28683868      -0.13392813
H        1.94650140      -6.58375925      -6.10285403       0.06828674      -0.15102357       0.26125605
O        9.85987154       8.26990744       7.95275765       1.29658330      -0.88965821       0.24389784
H       10.50989673       8.57219804       7.28370913      -0.26955127       0.19801134      -0.11379854
H       10.22646513       7.45825445       8.31349388      -0.33225423      -0.19076051      -0.31442980
O        5.35330502       9.75082923      -4.83438570       0.14788579      -0.03659906      -0.68335977
H        6.21298052       9.15435259      -4.77167255       0.24303448       0.01176440      -0.02252975
H        4.78894455       9.63271525      -4.05788718       0.03651481      -0.05081624      -0.29124261
O       13.75283373      29.44915830      15.88205492      -0.76450718      -0.75426281       0.39697394
H       12.93694081      29.03282586      16.07545030      -0.05356420       0.13850727      -0.09128069
H       14.38686846      28.73025607      15.89629428      -0.05524542      -0.14678252      -0.08948919
O       -2.81344513       3.97964559       1.69941945      -0.59822897       0.85154500       0.12212603
H       -2.30466751       3.56979489       2.39834404       0.10368950      -0.49462212       0.51448386
H       -2.68939728       4.89946043       1.87512348      -0.09614466      -0.26393060      -0.06945497
O        7.82899411     -14.01537187      10.95228000       1.25236510       0.26239074      -0.52424101
H        6.83968325     -14.44638719      10.99803359      -0.55797582      -0.20016450      -0.33380459
H        8.25072270     -14.14810071      10.02731090       0.10534522      -0.27643850      -0.13897747
O       -2.47070774      10.55669207      24.33557699      -1.37310971       0.42165182      -1.28698574
H       -2.11781953      10.13703827      23.64587015      -0.14287946       0.09646192       0.14565213
H       -3.23556952      11.21818642      24.29068811       0.16477421       0.00593303       0.20786471
O       20.05782235      21.74931246       1.54972966      -0.40225199       0.24630306      -0.30993940
H       19.99068965      22.23951413       2.47550771      -0.05239780       0.12462125       0.24043733
H       19.79356306      20.78638406       1.36152921      -0.08241302       0.21808338      -0.09737856
O       12.16480164      10.00915445     -15.90484696       0.74573010       0.18628197       0.85801583
H       12.75131240       9.26521307     -15.53743577       0.06770222      -0.05637699      -0.31126908
H       12.58467462      10.02996664     -16.93281896       0.24093446       0.10186693      -0.14830288
O      -11.39525072      22.28399596       1.05052807       0.54848851       0.13538165      -0.21527182
H      -11.78118882      21.31808706       1.10342935      -0.44411729      -0.37115853      -0.05650870
H      -10.87885214      22.64331432       1.79429104      -0.20278209       0.20284358      -0.15321545
O        2.94140898     -15.03236726      16.11090714      -0.70996581      -0.40042783      -1.12826344
H        3.30974220     -15.75346006      16.69237153      -0.07071493       0.02040941       0.21070233
H        3.59630623     -14.39715107      15.94167648       0.31930568      -0.05037369      -0.14775277
O        2.41418145      16.32447048       0.36507054      -1.18518419      -1.16200821      -0.55662688
H        1.93931669      16.16527388      -0.51630647       0.08978781       0.34176510       0.80689037
H        2.97278217      15.57976241       0.59645655       0.22923362       0.20478484      -0.03333576
O       -5.71514037      -7.30717593       5.60516654      -1.93804474      -0.85960973       0.39221733
H       -5.34807473      -7.91773044       6.18295201       0.24837724       0.36201736       0.02728064
H       -5.07391935      -6.74496224       5.03893970      -0.02141549      -0.06662668      -0.15435703
O       -2.15541480       2.39598861       6.65729567       0.34033522       0.47744303       0.54632606
H       -2.15024064       3.41653060       6.85698276      -0.21014773       0.15929925      -0.22394757
H       -1.86801747       1.85900859       7.30594095      -0.07371849       0.08700051      -0.47354793
O       13.18763141      -5.48529786      -1.46630379       0.78919261      -0.93674214      -0.42023060
H       13.92915888      -5.21764777      -1.90926242       0.10517722      -0.05868508       0.06952086
H       12.92305062      -6.46905706      -1.65035833      -0.01935083      -0.45870497       0.26066738
O       11.82351735       4.89277432      22.73964177      -0.08634256      -0.09277060      -0.02229200
H       11.20742601       4.12840491      22.97279690      -0.04650790       0.01687975      -0.00399241
H       11.91046786       4.74370479      21.77801864       0.07099718      -0.23405634       0.21848240
O        8.15625517      14.48663760      23.82484985      -1.09311388      -0.12972006       1.39352640
H        9.06201405      14.87994453      23.81989683      -0.15037893      -0.23559286      -0.35256204
H        8.19471638      13.44376089      24.02879314       0.17970177      -0.32023127      -0.13587788
O       -8.07204290       6.99762990      11.41301809       0.66978178      -1.23167331       0.41439830
H       -7.31545827       6.62630862      10.95776654       0.18047008       0.23129632      -0.28926822
H       -8.35128646       6.39968974      12.09123574      -0.06989132       0.63680293       0.14093381
192
Lattice="12.747803538254887 0.0 0.0 -5.291062356917945e-07 12.747803538254887 0.0 -5.291062356917945e-07 -5.291062356917945e-07 12.747803538254887" Properties=species:S:1:pos:R:3:momenta:R:3 step=90 time_fs=9.0 phase=equilibration pbc="T T T"
O       11.64324443       0.72981517     -16.47738892       1.43569320       0.18330251       0.77995059
H       12.13478564       1.08094219     -15.69962158       0.06005690       0.10376575      -0.22324499
H       10.87440977       0.13781975     -16.41706572       0.18310799      -0.02334847       0.27141984
O       26.38065215      24.79685298       4.92485362       0.62946279      -0.01106213       1.50027853
H       26.76029533      23.89543416       4.61010155      -0.09584427       0.32341882       0.04317611
H       25.60527540      25.09593912       4.43953289       0.17386120       0.10391404      -0.15075724
O        4.55233292      -0.31569473       6.61083332      -0.15135273      -0.49154213      -0.78048142
H        5.06525533      -1.04164936       6.90567451       0.34393875       0.04744141      -0.38070860
H        4.25035475       0.21532714       7.35727230       0.18303565       0.14714980      -0.30217506
O       -2.86110221      -4.38905827       1.05020299      -0.15425313       0.55570087       1.20083028
H       -2.67527522      -3.74824516       0.38296361       0.01972676       0.12410267      -0.28373531
H       -3.74509286      -4.10279488       1.38744558      -0.36934348       0.24457413      -0.01739971
O        4.28674853      15.87896218      10.72362646       1.05891374       0.61250460      -0.37008800
H        4.26039497      16.71788501      11.12105888      -0.04155496       0.20185541      -0.15044449
H        5.11814427      15.85085361      10.12561337      -0.32460700       0.13310135      -0.08806962
O       -1.37592235       6.59877868       5.14044443       0.33185069      -1.16866066       0.15365691
H       -1.60704837       6.28031476       4.32404510      -0.63480382      -0.09688581       0.05904370
H       -0.56943143       7.10862811       5.29541409       0.00053579       0.27556951       0.14515985
O       22.81819246      12.32071616       5.77694526       0.44215475       0.58040249       0.18151913
H       23.23149295      13.17885942       5.98426672      -0.15459425      -0.35021159      -0.12317574
H       22.25169131      12.28273739       4.90428890      -0.49315075      -0.12164751       0.05560650
O       -1.06527294     -15.76924382       6.79894746      -1.27549128      -0.08501533      -0.41553022
H       -0.62682119     -16.11569469       6.06656249      -0.16152880      -0.14927677      -0.00362995
H       -1.42327898     -14.76854685       6.55853110       0.00266217       0.25826563       0.07872136
O       15.48035778     -17.91258138       9.67888150       0.31644648      -0.61361679       0.26415475
H       16.20292975     -18.47456028      10.21028778       0.02402951       0.10421175      -0.16703540
H       15.65635537     -16.97075998       9.52427227       0.10385141      -0.23261921      -0.07526313
O        3.27988946     -14.65128972     -13.36128658       1.02521663       0.13790397      -0.40573041
H        4.22000617     -14.94140352     -13.13605341      -0.13760077       0.33831326      -0.03125383
H        2.66334791     -15.07454361     -12.74960159      -0.01248029      -0.31435174       0.00732832
O       -5.75736278       1.59920091       2.85672362      -0.50086938       0.72223211       0.14459000
H       -6.45728865       1.15436915       2.40246976       0.27080904       0.00802914       0.35134741
H       -5.44706027       2.50645511       2.59440357      -0.15736363       0.12000095       0.19193767
O       -5.35585925      16.09227409      25.94288588      -0.26419269       1.21650760      -0.99371484
H       -5.39508245      15.51830987      25.15448510      -0.20237569       0.29089145      -0.25004353
H       -4.45908200      16.21792923      26.02837818       0.74000394      -0.24086540       0.27037689
O        7.47724261     -15.69075640      -8.47498989       1.21323398       0.41428187       1.54509124
H        8.00050433     -16.49651214      -8.18465368       0.25429281       0.10459403       0.00554083
H        6.70746640     -15.50112585      -8.07910569      -0.06516695       0.24120277      -0.15980471
O       13.67334874       8.55033012      17.97056416       0.24717468      -0.09382414       0.30935729
H       14.10120436       8.67668614      17.10688122      -0.15872843      -0.11654814       0.50962653
H       14.27843690       7.97703750      18.50835716      -0.19756550       0.29683240       0.05638413
O       -0.15895508       1.22565581      -1.22418727      -0.09078977       0.79728230       0.33027389
H        0.80062327       1.38593016      -1.22660133      -0.24548776      -0.11953210      -0.05289848
H       -0.39725334       0.33381377      -0.72444722      -0.31727532       0.06580466      -0.08393420
O      -14.17861901      12.66388332      15.77073238       0.13013728       0.12966175      -0.56926126
H      -13.88400884      12.40622209      14.97101868       0.31846491      -0.01924353      -0.05842120
H      -14.99436276      12.24854771      16.21050524       0.29007055      -0.00620514       0.02464426
O      -16.40559165       5.91165151      12.33352592       1.72533571       0.20702017      -0.29640237
H      -16.90801043       5.98543036      11.55273181       0.04534489      -0.12303906      -0.19884483
H      -16.12356885       7.00513884      12.30855885      -0.05689751       0.53963895      -0.11010122
O       -9.95229263      32.91765886      -9.58270367      -0.39245178      -0.81738916      -0.22775924
H       -9.12873042      32.44588730      -9.31096621       0.11288075       0.46015717      -0.16103890
H      -10.81108407      32.38433477      -9.86307044      -0.08846314       0.16022299       0.23672790
O       34.76725074      11.49622869      21.38993766       1.09773606      -0.81811913      -0.39476216
H       34.71125497      11.71981526      20.39147339      -0.11103449       0.32423905      -0.30839810
H       35.23136569      10.66327798      21.73291430      -0.12521316       0.49453026       0.14704127
O       30.39462225     -12.64516606       2.15650250       0.21698516       1.34034056      -0.19423056
H       29.60568682     -12.13284014       2.45267916      -0.39465631       0.08185719       0.02182624
H       30.13452321     -12.68541483       1.24908403      -0.24213618      -0.20178872      -0.36416032
O       17.58651920       9.28905148      -7.42613250      -0.07805380      -1.19832627      -0.11910628
H       17.34843986       8.28541907      -7.78685323      -0.37553203      -0.02802458      -0.19957335
H       17.41711809       9.56678221      -6.55234223       0.00631699       0.07468196       0.07190474
O       -5.14470471       2.58051771      32.18975619       1.23110522      -0.33527303       0.58732048
H       -5.88716030       2.14887872      31.80550338      -0.43772354      -0.28646375       0.16920842
H       -4.36483187       2.10910483      32.43496580       0.21792626       0.10856229       0.17279366
O        3.80201948       0.87787566      -0.22826861       1.38199679       0.47561707       0.48820310
H        3.47336043      -0.02697477      -0.34938187      -0.07938194       0.07942895      -0.05945923
H        4.14687977       1.04281883      -1.06391315       0.24219688       0.01867827      -0.35750035
O       23.22035806       3.23011040      11.65264985      -0.57163763       0.22661627       0.00353050
H       23.27508145       3.65208037      12.64572780       0.34818426      -0.05362819      -0.04578847
H       23.86858200       2.50522436      11.76206402      -0.05779624      -0.09797157       0.02435508
O       -1.43339290      31.82761068      15.03356397       0.12816634       0.71319772       0.58981361
H       -2.09784179      32.43600641      14.57876887      -0.13087648      -0.17426660       0.30274558
H       -0.65177143      31.81872874      14.53890792      -0.02220862      -0.36840884       0.17685978
O        4.83918445      19.39279845       5.21124676      -0.25908200       0.16238780       0.20176681
H        4.05101112      18.98169688       5.75342562       0.11222858       0.25749015      -0.19715813
H        5.62183916      18.90716249       5.23049219       0.03764075      -0.21989196       0.00798074
O      -10.16381617      10.49320350       9.50296590      -1.04363145       0.31153497       0.71666699
H      -10.82565608      10.92132466       8.78188361      -0.23119844      -0.03647854       0.05155589
H      -10.46359780      10.79718647      10.29784061       0.21852307      -0.09337764       0.38323393
O       17.69701615      17.75642755      26.14031639       0.33901381       0.24760904      -1.61262273
H       18.51663445      17.23346013      26.03101851      -0.22242240      -0.21065875       0.17080773
H       16.84428994      17.32889969      26.06275595      -0.24006678      -0.10479592       0.00294707
O        6.93301916      18.70602100      10.14302180      -0.23682958      -0.43075559       0.24045416
H        7.24845934      19.32110548       9.49150645       0.12909563       0.08455275       0.00784585
H        6.54175693      17.97000134       9.56491992      -0.25380414       0.11899582       0.16958099
O       -0.64376179     -13.80293133      13.26532354      -0.85929921      -0.32492122      -0.01562518
H       -1.42834661     -14.20655133      12.79743633       0.08537647      -0.21434774       0.28552899
H       -0.11091076     -14.67186533      13.52571390      -0.07603933      -0.02803386      -0.30457372
O        1.13716409       6.11110337       1.10772262      -0.42914674      -1.84546534       0.47346867
H        1.65867508       5.17199063       1.18169323       0.26309840      -0.38979558       0.18190129
H        0.98657775       6.41469011       0.25694183       0.14532833       0.51345848       0.10523322
O        3.15631741       1.30993790       8.37131906       1.72921961      -0.37687000       0.65634529
H        2.10299480       1.06978094       8.25988307      -0.42446618       0.20300150      -0.04496793
H        3.26350123       1.43641035       9.33582160       0.10218445      -0.29650427      -0.11830301
O      -18.82995822      28.82356797     -16.16677425       0.29077659       0.80003238      -0.70886049
H      -18.81654314      29.10750682     -17.19987528      -0.08785218       0.27526225       0.11590611
H      -18.10253454      28.29016423     -15.57259894       0.03945453       0.11145270       0.21247163
O        2.90308996      26.86138565      -9.09543411       1.07852587      -0.48732006       1.33506137
H        3.47800577      27.00821226      -8.37448239      -1.15634921      -0.08381227      -1.19568547
H        2.19665058      26.28663955      -8.92443358      -0.03700681       0.40829091       0.01804891
O      -18.09359472      19.00837474       1.93423467      -0.76666502      -0.76487858       0.52715607
H      -17.37783286      18.85401102       1.12399498      -0.11765302       0.01761782      -0.06209463
H      -18.96403632      18.47780212       1.76080936      -0.29687608       0.01285335       0.14079624
O       11.70768814      17.58054075       7.04682210       0.26866349       0.05879139      -0.79462583
H       12.54053215      17.27822876       6.67152905      -0.16904944       0.02716639      -0.00674642
H       11.18139860      18.27605346       6.63502122      -0.20604342      -0.07242677       0.12735787
O       -7.21625737     -11.22523949       5.17816597       0.21474176      -0.79055784      -0.09478044
H       -6.58257351     -11.26050121       4.52365198      -0.13018503      -0.08904863      -0.36213845
H       -7.45061610     -12.05027043       5.67512877      -0.04056049       0.16291835       0.15533059
O      -24.14865086       3.38028009      10.71445776      -0.80576732      -1.14901278       0.25322225
H      -24.82922181       4.06968243      10.45296309      -0.13002632      -0.17045432      -0.02277425
H      -23.26449718       3.79159182      10.27439327       0.10171778       0.00176078      -0.09418174
O      -11.43620515      -8.23323979      18.46017975      -0.38857460      -1.01995738       0.22440973
H      -10.71642414      -8.61809751      18.93671124       0.02700114      -0.31062566       0.24811985
H      -11.38762974      -8.22603936      17.51180969      -0.08019296       0.44160468      -0.46591735
O        8.58450786       7.35059769      16.89991723      -0.85288867       0.71823168      -0.84553359
H        9.57844909       7.32739213      16.80281098      -0.32961362      -0.01581824       0.19736888
H        8.15390044       6.84446958      16.21447950      -0.27029448       0.15707335      -0.16707485
O      -11.62632614      -0.47672735      20.43934278       0.61306422      -0.02199529       0.57095742
H      -12.52936726      -0.27470417      20.70556946       0.00159474       0.08633634      -0.05802304
H      -11.77743729      -0.53865747      19.38205417      -0.15550118      -0.02319175      -0.15760865
O       24.15917865       2.48972968      16.21652230      -0.67910321       0.54737903      -0.95461872
H       23.95310656       2.43397102      17.14931361       0.07656409      -0.24132076       0.28857716
H       24.03652157       1.59453119      15.67474966       0.18460848       0.11326194       0.04178253
O       -5.67962269     -17.93938479      -5.03517334      -0.08733861       0.67979877      -0.78097169
H       -4.73781885     -17.94902953      -4.97061690       0.14852341      -0.18152557      -0.44440894
H       -5.75196883     -18.71220651      -5.65596540      -0.20782780      -0.28621248      -0.30652967
O       29.45110944      -8.97816442      -6.15262802      -0.87246993       1.06904930      -0.66451512
H       30.25324830      -8.98620321      -6.74210995      -0.15481059      -0.00990804       0.44355237
H       29.07138074      -9.78584158      -5.93714462      -0.40776872      -0.17929122       0.20667431
O        8.82447724      -0.65949265       3.42923322       0.10807080       0.33983331       0.83733501
H        8.36111573      -0.04736247       2.88294738       0.24631598      -0.04080769       0.09077552
H        8.37761973      -1.52843461       3.59086455       0.35687547       0.20443005      -0.26936583
O      -19.77810078      -3.14384189      24.77571468      -0.18750712       0.44198173       0.06690132
H      -20.08428306      -4.00107830      24.24052134       0.24255200       0.07178875       0.15411349
H      -19.13338947      -3.49046005      25.53294696       0.03312874      -0.04338373      -0.15693735
O        2.41387206      -5.77377172      -6.02779496       1.65959991       1.42421858       0.21889459
H        2.44428961      -5.66562946      -5.11602042      -0.21225609      -0.08454030       0.35136100
H        1.94469415      -6.61422272      -6.08376136      -0.08365478      -0.44079561       0.12948761
O        9.86796884       8.26413767       7.95390154       1.39890036      -0.91424661       0.18644623
H       10.48072698       8.59274538       7.27527424      -0.31740517       0.22627829      -0.05965807
H       10.19242492       7.43890747       8.28238872      -0.35337177      -0.21388610      -0.31477670
O        5.35489284       9.74978139      -4.83858031       0.42468467      -0.22858967      -0.73827504
H        6.22233790       9.16308289      -4.77375018      -0.04979447       0.17130266      -0.02256205
H        4.79238828       9.62642956      -4.08623615       0.02225343      -0.07639618      -0.27325657
O       13.74841268      29.44399129      15.88413316      -0.56978576      -0.71813933       0.39902488
H       12.91925523      29.04259424      16.06830946      -0.29672961       0.07737849      -0.04890159
H       14.38426226      28.71487546      15.88704727      -0.00089111      -0.14730335      -0.09327879
O       -2.81697445       3.98406956       1.70009500      -0.55328870       0.57439590       0.13913855
H       -2.29601103       3.52034870       2.44632765       0.04837614      -0.49278912       0.43702777
H       -2.69711252       4.88542921       1.86922307      -0.05852887      -0.00331470      -0.04550617
O        7.83602044     -14.01399820      10.94803719       1.08936563       0.07689078      -0.78183382
H        6.80383931     -14.45819200      10.96370801      -0.16892227      -0.04702740      -0.36301158
H        8.25189041     -14.17170319      10.02710245      -0.07889155      -0.21191672       0.14172402
O       -2.48004053      10.56036891      24.32895880      -1.66520672       0.83703574      -0.69025072
H       -2.12369528      10.13556846      23.63568096       0.01694932      -0.11780574      -0.33804036
H       -3.21216392      11.20889496      24.30515565       0.29927461      -0.17839275       0.09751056
O       20.05478433      21.75012937       1.54807829      -0.43225234       0.20206253      -0.21318136
H       19.98428179      22.24086990       2.48742988      -0.07007111      -0.08578516       0.00573917
H       19.78771982      20.81873525       1.35926048      -0.03444298       0.43524253       0.04848669
O       12.16985281      10.00943451     -15.89964736       0.98333735      -0.01226418       0.71366887
H       12.75002295       9.27087504     -15.57349090      -0.08141750       0.16691457      -0.42655708
H       12.60155176      10.03804587     -16.93371211       0.11153144       0.07001921       0.11639546
O      -11.39193787      22.28363527       1.04909475       0.43324534      -0.09363013      -0.26127830
H      -11.81623243      21.29646902       1.09885659      -0.27693778      -0.06141492      -0.03532578
H      -10.89965867      22.65859757       1.77951862      -0.21886098       0.12635668      -0.13329364
O        2.93676041     -15.03518793      16.10398252      -0.75311714      -0.60226101      -1.01515384
H        3.30032502     -15.74328569      16.70652295      -0.12082082       0.18073670       0.08644390
H        3.63248816     -14.39855147      15.92606062       0.39537839      -0.01192973      -0.15806193
O        2.40673598      16.31697892       0.36132185      -1.17971290      -1.13828559      -0.57883431
H        1.95094318      16.19757152      -0.43150216       0.10063940       0.31542770       0.84029144
H        2.99314469      15.59819154       0.59235259       0.19420299       0.17639208      -0.04749609
O       -5.72691963      -7.31124855       5.60645228      -1.93519432      -0.53016861       0.07329943
H       -5.31694640      -7.89160536       6.19412880       0.38374284       0.17513549       0.20311821
H       -5.08405451      -6.76137120       5.03426222      -0.19007748      -0.27055979       0.05817775
O       -2.15390663       2.40061927       6.65927365       0.12733441       1.05712284       0.13390737
H       -2.16808245       3.41732742       6.83390169      -0.15512810      -0.14253114      -0.24278428
H       -1.86578320       1.85534822       7.27865662       0.12451176      -0.16949476      -0.07258915
O       13.19097654      -5.49222296      -1.46825354       0.41638313      -1.35528628      -0.23489262
H       13.95455943      -5.22016531      -1.91269543       0.40425727      -0.00336890      -0.12984326
H       12.92571315      -6.49704510      -1.62418188       0.08178479      -0.11493413       0.27349681
O       11.82247563       4.89147544      22.73900732      -0.16390444      -0.28913791       0.00236392
H       11.20617070       4.13679082      22.97323298       0.02248589       0.15325740       0.02638648
H       11.91769352       4.72333626      21.79886383       0.08582187      -0.18362519       0.19981548
O        8.14968534      14.48484892      23.83303949      -1.00650076      -0.35414608       1.44996885
H        9.04070666      14.85352549      23.78481968      -0.26021572      -0.28961870      -0.35574836
H        8.21198470      13.42787223      24.01136222       0.17560138      -0.00036734      -0.20851924
O       -8.06763149       6.99014807      11.41484134       0.72896623      -1.14125774       0.23176176
H       -7.29635721       6.64856776      10.92858632       0.18830268       0.23153808      -0.28799250
H       -8.35987222       6.45694331      12.11188950      -0.11194989       0.52455216       0.30395382
