192
Lattice="12.747414120219787 0.0 0.0 -5.290900726320138e-07 12.747414120219787 0.0 -5.290900726320138e-07 -5.290900726320138e-07 12.747414120219787" Properties=species:S:1:pos:R:3:momenta:R:3 step=100 time_fs=10.0 phase=production pbc="T T T"
O       11.65192315       0.73101414     -16.47216708       1.49971446       0.20867015       0.74031447
H       12.13509565       1.08697497     -15.72123399      -0.03463832       0.02867987      -0.21414062
H       10.89383731       0.13700441     -16.38637944       0.21886908       0.00451466       0.34758071
O       26.38398885      24.79529718       4.93374753       0.70585697      -0.22246609       1.44821426
H       26.74375578      23.93978478       4.61814132      -0.21488521       0.57628424       0.11772316
H       25.62395382      25.10332541       4.42517407       0.22719423       0.06414089      -0.13907214
O        4.55097507      -0.31837993       6.60561645      -0.23562776      -0.40366057      -0.86146429
H        5.10330159      -1.04399152       6.87126919       0.43053740      -0.08189776      -0.32226701
H        4.26592255       0.23207468       7.33097786       0.13918369       0.19914302      -0.22324604
O       -2.86257338      -4.38553878       1.05785587      -0.35981152       0.57956961       1.27738982
H       -2.67091610      -3.73389408       0.35159745       0.05712528       0.13954714      -0.32812536
H       -3.77443496      -4.08077000       1.38416940      -0.21746579       0.20130735      -0.05618630
O        4.29364606      15.88154232      10.72033121       1.21556453       0.41123615      -0.57459810
H        4.25670681      16.74840906      11.11078221      -0.03215163       0.41073030      -0.06388807
H        5.07847837      15.86315725      10.12293357      -0.47219469       0.12703494       0.02865017
O       -1.37343553       6.59176231       5.14243902       0.46785218      -1.05612283       0.52004590
H       -1.66996774       6.26573512       4.31486350      -0.64768000      -0.18423525      -0.21313666
H       -0.57302563       7.13399605       5.30631769      -0.08718572       0.24001150       0.07701346
O       22.81985897      12.32369757       5.77731580       0.30326850       0.46507155      -0.01435820
H       23.21390967      13.14565371       5.97002953      -0.16923897      -0.27547873      -0.15459140
H       22.20959909      12.27337883       4.92184737      -0.35503152      -0.06220128       0.30759745
O       -1.07382245     -15.76817707       6.79662766      -1.51241333       0.27056085      -0.28307077
H       -0.63649463     -16.13380554       6.05623926      -0.04475106      -0.22679435      -0.19249763
H       -1.41730361     -14.75708181       6.56799622       0.11784845      -0.03273874       0.11796716
O       15.48221970     -17.91634174       9.68058606       0.43497850      -0.80237956       0.39162152
H       16.19651809     -18.45265812      10.18624870      -0.14050141       0.32797095      -0.31408950
H       15.66885434     -16.99408527       9.51861389       0.16564272      -0.23781165      -0.03686048
O        3.28661122     -14.65028624     -13.36295579       1.15678574       0.04581432      -0.26860641
H        4.19666953     -14.90709852     -13.14213080      -0.30776175       0.34732720      -0.09440055
H        2.66464098     -15.10321941     -12.75112339       0.04794556      -0.27628211      -0.05520575
O       -5.75957384       1.60422337       2.85803415      -0.25769383       0.93386484       0.33112465
H       -6.43665958       1.15385771       2.43042188       0.12256805      -0.03384841       0.20884451
H       -5.46870879       2.50830834       2.61131388      -0.28677842      -0.07006705       0.15205749
O       -5.35786395      16.09901930      25.93570801      -0.35965051       1.14842642      -1.08308842
H       -5.41616829      15.54755157      25.13019138      -0.22856768       0.32404655      -0.22391202
H       -4.37685809      16.19612193      26.05762302       0.85824460      -0.20949927       0.33496916
O        7.48638117     -15.68851868      -8.46595124       1.80285314       0.17720158       1.32709960
H        8.01540840     -16.47659431      -8.18666151       0.05999056       0.28367172      -0.04657482
H        6.68017401     -15.47547934      -8.08250052      -0.46019973       0.26713809       0.06933677
O       13.67460240       8.54918617      17.97219535       0.24991992      -0.18292976       0.43932172
H       14.08561392       8.66618813      17.15345877      -0.12629164      -0.08211054       0.39288002
H       14.25401645       8.00991486      18.51222078      -0.27175946       0.35658573       0.06267664
O       -0.15998396       1.22978582      -1.22194604      -0.27805010       0.55903548       0.38657446
H        0.77621124       1.37097562      -1.23013525      -0.22335396      -0.18177121      -0.02056085
H       -0.42157859       0.35304075      -0.73811096      -0.18114499       0.32629463      -0.19523934
O      -14.17829430      12.66454308      15.76825301      -0.12724993       0.20912208      -0.13453629
H      -13.84741909      12.39668887      14.94651588       0.41058132      -0.15495958      -0.39434429
H      -14.95556333      12.25089418      16.20447897       0.47340417       0.05018580      -0.12556532
O      -16.39398888       5.91351080      12.33182539       1.86831958       0.45406094      -0.16769009
H      -16.90949403       5.97159008      11.52465698      -0.06319767      -0.15671271      -0.33604132
H      -16.13046281       7.04592243      12.30000271      -0.09442390       0.30465101      -0.06065232
O       -9.95500056      32.91110874      -9.58392125      -0.59976878      -0.96556972      -0.26644720
H       -9.12518681      32.49225256      -9.32806462      -0.02974054       0.49702803      -0.19034701
H      -10.80140296      32.40590063      -9.83536011       0.27448831       0.29413810       0.32341175
O       34.77302998      11.49059166      21.38652037       1.10114578      -0.85155536      -0.52778771
H       34.70193642      11.74547779      20.37618525      -0.05677907       0.20609603       0.01145046
H       35.21495748      10.72013358      21.73821189      -0.16221219       0.62940443      -0.00610027
O       30.39452280     -12.63604198       2.15553114       0.02483766       1.51268128      -0.14793061
H       29.57206975     -12.12764786       2.45701449      -0.26214595       0.00960641       0.06422004
H       30.11143332     -12.70617581       1.20769530      -0.19816054      -0.22831148      -0.43198685
O       17.58532118       9.28029074      -7.42744071      -0.14386708      -1.55469043      -0.35885195
H       17.31595938       8.29716986      -7.79790198      -0.27888476       0.27356596      -0.03120270
H       17.41746073       9.57453815      -6.53816009       0.01693492       0.08299387       0.19290058
O       -5.13722018       2.57904551      32.19251083       1.13368771      -0.15259255       0.61412360
H       -5.93007328       2.11752701      31.82050753      -0.40795071      -0.33369851       0.17691007
H       -4.34117171       2.11556412      32.45076992       0.24855627       0.03435431       0.16606399
O        3.81020077       0.88041355      -0.22480168       1.34507008       0.36661263       0.57921300
H        3.46373663      -0.02070866      -0.35284193      -0.11390386       0.05420522      -0.01132079
H        4.17520121       1.05133816      -1.10793820       0.31580748       0.14457792      -0.48635320
O       23.21653628       3.23144732      11.65330298      -0.43819628       0.23995754       0.32751950
H       23.30566791       3.64312993      12.62767831       0.29064133      -0.12452735      -0.31689900
H       23.85901801       2.49942118      11.76155933      -0.12343785      -0.02081146      -0.02980294
O       -1.43358009      31.83133085      15.03686672      -0.18565484       0.80340388       0.64405268
H       -2.10348877      32.41496529      14.61090929       0.00471668      -0.22492763       0.35563400
H       -0.64396962      31.78121314      14.54944205       0.17403689      -0.38099690       0.05145728
O        4.83610780      19.39329503       5.21269827      -0.65680581       0.18812780       0.31267958
H        4.07466372      19.01284785       5.72679540       0.36054220       0.38475098      -0.33415742
H        5.63281009      18.87913347       5.23097514       0.16398229      -0.32871174       0.00432433
O      -10.17013007      10.49466187       9.50546957      -1.12774230       0.28027001       0.22982957
H      -10.83874519      10.91263162       8.79669421      -0.04393312      -0.13397868       0.26157941
H      -10.44660333      10.79383177      10.34948024       0.13638073       0.01839925       0.64398057
O       17.69871160      17.75752755      26.12944528       0.35269681       0.28368196      -1.66914188
H       18.49098990      17.21141218      26.04829516      -0.27855056      -0.23851018       0.19900274
H       16.82324183      17.31800043      26.06279076      -0.15862434      -0.09571819       0.01620686
O        6.93097024      18.70235801      10.14385586      -0.35310192      -0.55601745       0.13013400
H        7.26188879      19.33180034       9.49188970       0.14556729       0.13631413       0.01534268
H        6.52012280      17.98693631       9.58771344      -0.18992854       0.23229981       0.29680547
O       -0.64907565     -13.80551159      13.26475000      -0.86474894      -0.64281257      -0.03032078
H       -1.41566015     -14.22248960      12.82660032       0.14985494      -0.12669462       0.30697591
H       -0.12346817     -14.66171713      13.49297376      -0.17222345       0.22152659      -0.35251917
O        1.13497498       6.09852062       1.11147326      -0.27891524      -2.18103619       0.73430769
H        1.67619477       5.14813904       1.19634052       0.09737896      -0.09730313       0.11711804
H        0.99943732       6.46817187       0.25510759       0.12496166       0.57705531      -0.11628902
O        3.16600583       1.30737633       8.37509187       1.45934461      -0.44526130       0.62686406
H        2.07701302       1.09140991       8.25753748      -0.11102513       0.23833662       0.00261595
H        3.27226439       1.40698106       9.31977733       0.08195873      -0.30226788      -0.17661994
O      -18.82730410      28.82752437     -16.17102829       0.38170787       0.77824950      -0.83196409
H      -18.81909801      29.12379787     -17.16889555       0.02370251       0.07856724       0.50305800
H      -18.10825452      28.30829786     -15.56469195      -0.16415176       0.27559487      -0.05924298
O        2.90941740      26.85785604      -9.08850852       0.95199013      -0.41616932       0.74513198
H        3.38201870      27.00304192      -8.47004441      -0.72342167       0.02154942      -0.67634892
H        2.18103279      26.31613087      -8.91937393      -0.30462007       0.20390195       0.07358869
O      -18.09761043      19.00264523       1.93656979      -0.72111930      -0.91051088       0.25257703
H      -17.40378982      18.85645313       1.12979714      -0.42536199       0.04389860       0.18510979
H      -18.97974908      18.48470012       1.77472393      -0.03810462       0.13795470       0.14504961
O       11.70860146      17.58028697       7.04187135       0.12960295       0.03748394      -0.73573168
H       12.52414875      17.28349045       6.66689629      -0.13982043       0.08540806      -0.09333198
H       11.16618371      18.26651410       6.64627471      -0.10115647      -0.10807854       0.10514226
O       -7.21541501     -11.22966811       5.17838445       0.01451176      -0.74604480       0.18371457
H       -6.58689043     -11.27452456       4.47772807       0.01292758      -0.20510352      -0.55302189
H       -7.45008831     -12.02827380       5.68225947       0.04133225       0.26491654       0.00154728
O      -24.15237918       3.37403478      10.71521812      -0.64466917      -0.85846172       0.10683957
H      -24.83408024       4.04703513      10.45276792       0.01105409      -0.28596905       0.02354988
H      -23.26804981       3.78468245      10.27204591      -0.18868462      -0.14049523       0.05222027
O      -11.43850866      -8.23913639      18.46095263      -0.45251212      -0.99023498       0.17526414
H      -10.71153094      -8.64957462      18.95759933       0.04477221      -0.32649865       0.17123575
H      -11.39369528      -8.18469266      17.46834775      -0.05213977       0.39353070      -0.35817584
O        8.57946537       7.35496563      16.89426863      -0.74522019       0.76911671      -0.83604716
H        9.53607141       7.32522925      16.82242515      -0.50166279      -0.02472508       0.21073733
H        8.12827372       6.85909926      16.19375006      -0.24109288       0.15555302      -0.23231953
O      -11.62240430      -0.47690993      20.44148504       0.54375190      -0.04047954       0.33325327
H      -12.52896931      -0.26526878      20.70147459       0.00327794       0.10626138      -0.01377371
H      -11.78880004      -0.54045236      19.37477439      -0.08456622      -0.01379855       0.01953115
O       24.15419499       2.49247056      16.20984405      -0.70808655       0.36771674      -1.02300527
H       23.95985142       2.40746415      17.17252622       0.08370141      -0.29704031       0.16506264
H       24.05523486       1.61703537      15.68991538       0.21341127       0.34748506       0.27683916
O       -5.68004955     -17.93524941      -5.04023445      -0.08912921       0.47170068      -0.92979390
H       -4.71741342     -17.96084025      -5.01069042       0.24531581      -0.07270087      -0.38260161
H       -5.77723004     -18.73307799      -5.68208679      -0.31025286      -0.13783278      -0.22003183
O       29.44530420      -8.97069441      -6.15700400      -0.79242318       1.22482523      -0.77617222
H       30.22903168      -8.99028107      -6.69175781      -0.28016422      -0.08070632       0.55452879
H       29.03112989      -9.81034166      -5.91564736      -0.37608099      -0.27916484       0.21622438
O        8.82525796      -0.65786264       3.43457811       0.26472200       0.21564825       0.94197126
H        8.37860123      -0.04700952       2.88836194       0.10925007       0.06027445       0.01118655
H        8.41186172      -1.50577677       3.56338830       0.33039302       0.21711653      -0.28463719
O      -19.77849921      -3.14226433      24.77548427      -0.13718794       0.05332689       0.10629316
H      -20.05463516      -3.97857149      24.26467741       0.34686534       0.37680100       0.34632838
H      -19.13914158      -3.48749845      25.50623522      -0.15696877       0.10036334      -0.36725769
O        2.42385528      -5.76513706      -6.02666884       1.59144233       1.29398730       0.12843546
H        2.42700918      -5.66692984      -5.06827332      -0.14939294       0.03637771       0.56229071
H        1.93626067      -6.65810484      -6.07514502      -0.05824305      -0.40835414       0.05498353
O        9.87633731       8.25837160       7.95464493       1.41181032      -0.87567055       0.14015118
H       10.44895403       8.61568594       7.27073076      -0.32005896       0.24931532      -0.03457250
H       10.15837043       7.41450237       8.25230522      -0.33405722      -0.28661118      -0.29722456
O        5.35835641       9.74755607      -4.84337791       0.75604420      -0.39213145      -0.88217672
H        6.20332257       9.18698682      -4.77585982      -0.32760581       0.32042380      -0.02374875
H        4.79083805       9.61698899      -4.10798797      -0.05859235      -0.11212841      -0.16690987
O       13.74499239      29.43858524      15.88613674      -0.42852323      -0.76850867       0.41575811
H       12.88249295      29.04761657      16.06423707      -0.41645432       0.05436454      -0.03116235
H       14.38362255      28.70189252      15.87728558      -0.01618989      -0.09160459      -0.09622949
O       -2.82002151       3.98625147       1.70117747      -0.46862979       0.18203625       0.23321359
H       -2.29720892       3.47669039       2.48032549      -0.07748798      -0.39121373       0.25775225
H       -2.70007596       4.89904520       1.86685461      -0.00380941       0.26982194      -0.00111323
O        7.84188711     -14.01367872      10.94215542       0.89097216      -0.10825705      -1.00554217
H        6.80650066     -14.45474292      10.92712566       0.22468823       0.10831843      -0.37896348
H        8.23561920     -14.18861227      10.05275227      -0.23837823      -0.14711442       0.36657995
O       -2.49046312      10.56586014      24.32543665      -1.68431948       0.98546399      -0.27205080
H       -2.11751507      10.11707225      23.58484856       0.08068523      -0.22172574      -0.63261824
H       -3.18254557      11.18785724      24.30822264       0.26615504      -0.20885847      -0.01889024
O       20.05155839      21.75104363       1.54710371      -0.40558673       0.35881436      -0.07983722
H       19.97594258      22.22173222       2.47641324      -0.08840095      -0.29224243      -0.23166117
H       19.78378285      20.86352562       1.36974071      -0.04843256       0.44996332       0.15864830
O       12.17603476      10.00871008     -15.89533763       1.12650103      -0.09104155       0.51702566
H       12.73778248       9.29264370     -15.61624039      -0.13607618       0.24669243      -0.43521428
H       12.60574524      10.04394225     -16.91098679      -0.01846198       0.06383326       0.32988856
O      -11.38944849      22.28159002       1.04706531       0.25680245      -0.35528839      -0.40233335
H      -11.83405120      21.30488736       1.09674743      -0.09434568       0.24695090      -0.00617113
H      -10.91907071      22.66780220       1.77109352      -0.17932099       0.08174382      -0.02679583
O        2.93228400     -15.03861169      16.09744567      -0.66268134      -0.63724912      -0.96717824
H        3.28646284     -15.71846577      16.70901613      -0.15749012       0.30778012      -0.01650860
H        3.66816715     -14.40289029      15.91126745       0.32093916      -0.10010071      -0.13127502
O        2.40009247      16.30978171       0.35887939      -0.93178517      -1.03887517      -0.16777252
H        1.94952120      16.22382871      -0.36890180      -0.15848994       0.22879391       0.39551815
H        3.01105266      15.61273058       0.58752269       0.17564453       0.13088387      -0.05172129
O       -5.73843218      -7.31359839       5.60603234      -1.85637166      -0.34342367      -0.12118183
H       -5.27566033      -7.87995327       6.21950519       0.44015570       0.08172985       0.30059765
H       -5.11007270      -6.79588286       5.04859365      -0.33844330      -0.42912860       0.22646199
O       -2.15371854       2.40865184       6.65863356      -0.07699102       1.54012778      -0.25631890
H       -2.18025520       3.39005521       6.81019121      -0.09656633      -0.39475215      -0.23357285
H       -1.84419744       1.82718060       7.28979954       0.30621146      -0.38568491       0.28024830
O       13.19247190      -5.50146872      -1.46932789       0.25101533      -1.68831984      -0.15387052
H       14.00057944      -5.22054779      -1.93048766       0.50376571      -0.02436318      -0.21008540
H       12.93831396      -6.49124694      -1.59745135       0.18354539       0.22452063       0.27129989
O       11.82092295       4.88907351      22.73861745      -0.21646839      -0.43130470       0.10380888
H       11.20990919       4.15660126      22.97731007       0.05098387       0.24435201       0.07542416
H       11.92704313       4.70724313      21.81256828       0.11523951      -0.14580340       0.08364365
O        8.14314526      14.48137495      23.84137587      -1.06966216      -0.64505367       1.50357037
H        9.01634135      14.82516266      23.74904696      -0.20404033      -0.26911005      -0.36679033
H        8.22785466      13.44277293      23.98734791       0.15120531       0.31233989      -0.26644127
O       -8.06249631       6.98327520      11.41502600       0.86561029      -1.03419451      -0.05871520
H       -7.28154982       6.67130292      10.90398496       0.10048417       0.23804424      -0.19844664
H       -8.37199989       6.50042889      12.15042440      -0.13307431       0.37687818       0.48362835
192
Lattice="12.746931714278396 0.0 0.0 -5.290700500460868e-07 12.746931714278396 0.0 -5.290700500460868e-07 -5.290700500460868e-07 12.746931714278396" Properties=species:S:1:pos:R:3:momenta:R:3 step=110 time_fs=11.0 phase=production pbc="T T T"
O       11.66074607       0.73224040     -16.46741205       1.50791759       0.19259510       0.58488448
H       12.12986723       1.08838353     -15.73674562      -0.04876388       0.01194517      -0.09796905
H       10.91548473       0.13813843     -16.34843662       0.22898315       0.01548045       0.41650252
O       26.38726199      24.79303046       4.94247880       0.66075379      -0.14444625       1.48311088
H       26.72117079      23.99618015       4.62949210      -0.19478349       0.52825922       0.09436974
H       25.64721505      25.10739461       4.41206996       0.26214323       0.04536150      -0.12888241
O        4.54929779      -0.32086483       6.59980910      -0.23789997      -0.42887780      -0.94126130
H        5.14568287      -1.05328503       6.84175072       0.42209691      -0.08326768      -0.28267056
H        4.27778514       0.25362354       7.31376155       0.11274581       0.23592963      -0.12762044
O       -2.86533438      -4.38134143       1.06553545      -0.57389320       0.74953431       1.22042033
H       -2.66573505      -3.72524281       0.32416135       0.04081095       0.01988460      -0.21590852
H       -3.78528851      -4.06364961       1.37561863      -0.00339384       0.14557331      -0.11995068
O        4.30102941      15.88336702      10.71628380       1.19971013       0.42491499      -0.56129390
H        4.25399782      16.78988029      11.10505083      -0.01781734       0.40823418      -0.06262662
H        5.03081038      15.87413549      10.12650836      -0.46354802       0.10904335       0.02119463
O       -1.37021394       6.58518584       5.14595697       0.54427987      -1.02386797       0.64171359
H       -1.72980027       6.24780027       4.29098467      -0.56016173      -0.15811439      -0.22535183
H       -0.58756933       7.15381277       5.30941702      -0.21197207       0.17023843      -0.01094148
O       22.82011521      12.32512357       5.77627634       0.04958745       0.12927659      -0.25611596
H       23.20030752      13.13153298       5.95537681      -0.08170661       0.01849048      -0.13608854
H       22.18127424      12.26977988       4.96363272      -0.20800203      -0.00278313       0.55033284
O       -1.08360958     -15.76494862       6.79474358      -1.67196880       0.57563307      -0.27665002
H       -0.63807182     -16.15671698       6.03296360      -0.00556224      -0.24150599      -0.25059729
H       -1.40035328     -14.77429391       6.58101946       0.22875013      -0.33546691       0.15528209
O       15.48442735     -17.92126095       9.68299614       0.44656951      -1.01248530       0.50042585
H       16.17684881     -18.41180326      10.15044935      -0.22587314       0.47304762      -0.39352577
H       15.68801648     -17.01281833       9.51593439       0.24035364      -0.14686682      -0.01392644
O        3.29325979     -14.64961239     -13.36376220       0.99627899       0.00520424      -0.17227635
H        4.16882225     -14.87501532     -13.15147320      -0.20631585       0.28711672      -0.09515138
H        2.67265311     -15.12664803     -12.76008197       0.11515691      -0.21524115      -0.13791799
O       -5.76007780       1.61041022       2.86077174       0.01239299       1.07244922       0.60344707
H       -6.43570855       1.14597671       2.44166350      -0.10915421      -0.12773219       0.02475559
H       -5.50127236       2.49644787       2.62259101      -0.37620658      -0.14245258       0.07326563
O       -5.35919832      16.10534206      25.92790531      -0.13325356       1.11227444      -1.13309556
H       -5.43790633      15.58102623      25.11046741      -0.21487170       0.37589987      -0.15733323
H       -4.30382649      16.17434027      26.08944117       0.62366186      -0.22724419       0.33066652
O        7.49801066     -15.68704414      -8.45787297       1.98405083       0.16374040       1.22255537
H        8.01408043     -16.44435190      -8.19134782      -0.05942398       0.33153333      -0.04287329
H        6.62828770     -15.45094463      -8.07027745      -0.52813267       0.20484621       0.14246263
O       13.67496963       8.54767622      17.97498732       0.00898602      -0.18857882       0.69379404
H       14.07948299       8.66159654      17.17308969       0.02204551      -0.00265001      -0.00037396
H       14.22917054       8.04101777      18.52471561      -0.20625158       0.26735528       0.23063101
O       -0.16265630       1.23248764      -1.21938377      -0.60697245       0.35127464       0.42727326
H        0.76227604       1.35122739      -1.23067825      -0.04227847      -0.21907006       0.00702153
H       -0.43289047       0.39589255      -0.76166332      -0.05780022       0.53577096      -0.27991034
O      -14.17848865      12.66558345      15.76707041      -0.04418425       0.28994859      -0.13668777
H      -13.80719242      12.37860275      14.90381527       0.37988621      -0.18913469      -0.41534855
H      -14.90794335      12.25366817      16.18865579       0.45117524      -0.00767968      -0.16457117
O      -16.38183630       5.91675501      12.33016676       1.86536906       0.67115625      -0.25579604
H      -16.91419829       5.95471244      11.49390767      -0.02275539      -0.18316465      -0.24993156
H      -16.14082303       7.06490904      12.29531843      -0.13099244       0.09349036      -0.02850146
O       -9.95893067      32.90397910      -9.58529981      -0.77506407      -0.89814600      -0.29313057
H       -9.13012038      32.53753668      -9.34636787      -0.05507252       0.44124372      -0.18661199
H      -10.76154359      32.43571673      -9.80064287       0.48229976       0.30686895       0.36827086
O       34.77795481      11.48575093      21.38169734       0.89823300      -0.52509337      -0.80174362
H       34.69793507      11.75875350      20.39209114       0.00172819       0.07408144       0.32623728
H       35.20400989      10.77335741      21.73524151      -0.00145729       0.41374342      -0.01195950
O       30.39262565     -12.62570407       2.15410488      -0.27877421       1.69807974      -0.31140828
H       29.55420655     -12.13106417       2.46417022      -0.07602203      -0.09226994       0.07990282
H       30.09576802     -12.72802372       1.17276191      -0.09513559      -0.22389893      -0.25678577
O       17.58346582       9.26945406      -7.42971403      -0.24910416      -1.84760477      -0.44745402
H       17.29315863       8.33793716      -7.79227601      -0.17460258       0.56485146       0.14046559
H       17.42035642       9.58046888      -6.51925029       0.06105815       0.03628403       0.16532136
O       -5.13061189       2.57815263      32.19498245       0.94645587      -0.12612049       0.58383081
H       -5.96094428       2.08675970      31.83993360      -0.21060265      -0.28477988       0.25225825
H       -4.31863507       2.11704998      32.46412638       0.19897758       0.00388338       0.12856690
O        3.81852707       0.88237726      -0.22177904       1.42709203       0.28624667       0.36936694
H        3.45167513      -0.01490389      -0.35178303      -0.12559144       0.07434310       0.02995779
H        4.20349496       1.06835407      -1.14802646       0.25096626       0.19311045      -0.29989416
O       23.21338649       3.23286957      11.65587382      -0.30589155       0.26747189       0.64758482
H       23.32930566       3.62838622      12.58354940       0.20869938      -0.16879264      -0.57088199
H       23.84368637       2.49975888      11.75503813      -0.16541718       0.01923059      -0.09653084
O       -1.43514058      31.83508241      15.04049122      -0.29395829       0.79008504       0.72177315
H       -2.09960778      32.39310623      14.64456467       0.05623367      -0.18110913       0.33280251
H       -0.62167831      31.74267844      14.54994512       0.25432666      -0.38145928      -0.01475121
O        4.83161563      19.39382354       5.21441699      -0.65682777       0.23639295       0.27223634
H        4.11341648      19.05145704       5.69334912       0.37692794       0.39221363      -0.30537348
H        5.64735253      18.84540834       5.23076526       0.10716040      -0.32893168      -0.00651105
O      -10.17717012      10.49613390       9.50575787      -1.30490775       0.34581196       0.04038144
H      -10.83346022      10.89459349       8.83272833       0.14157234      -0.22614780       0.48385654
H      -10.43316808      10.79669990      10.41266121       0.14742284       0.03045999       0.60452703
O       17.69980488      17.75868188      26.11803021       0.20516147       0.31148397      -1.72751957
H       18.46338711      17.18458930      26.06790067      -0.26456171      -0.30309021       0.22313513
H       16.81511310      17.31072917      26.06437343       0.01218010      -0.03474864       0.03690306
O        6.92834236      18.69818692      10.14397057      -0.40437503      -0.54896668       0.04190758
H        7.27543532      19.34465104       9.49519385       0.13448034       0.13559143       0.06398567
H        6.50296046      18.01166424       9.61994984      -0.16686233       0.27223086       0.35759823
O       -0.65417862     -13.80966888      13.26415859      -0.79948942      -0.85230801       0.00778771
H       -1.40411673     -14.23170831      12.85361006       0.06231785      -0.08246049       0.24526296
H       -0.14219576     -14.62968775      13.45741469      -0.19620211       0.40382213      -0.35912502
O        1.13357300       6.08412449       1.11622035      -0.16976532      -2.41239962       0.78688600
H        1.67750073       5.15251058       1.20411736      -0.07014251       0.19094067       0.04233626
H        1.01218420       6.52325577       0.24145077       0.14406354       0.53672359      -0.12376181
O        3.17399306       1.30437098       8.37806402       1.17703588      -0.51783728       0.41794866
H        2.08098907       1.11573338       8.25982250       0.19513746       0.26029370       0.05020173
H        3.27989959       1.37812520       9.30669497       0.08110546      -0.28645930      -0.05786393
O      -18.82403226      28.83111910     -16.17562827       0.44682863       0.73715187      -0.81921650
H      -18.81054797      29.12208610     -17.10496442       0.13955971      -0.07597534       0.74684829
H      -18.13249669      28.34147386     -15.58292000      -0.34306704       0.42548707      -0.32603221
O        2.91403214      26.85407513      -9.08611225       0.55854511      -0.51828737      -0.05705683
H        3.34701917      27.01367342      -8.49563728       0.00973803       0.21879770       0.14027965
H        2.13733012      26.32639251      -8.91167691      -0.55749517       0.05706239       0.06400565
O      -18.10120888      18.99594578       1.93723391      -0.67803219      -1.03077462      -0.00223989
H      -17.45891504      18.86112745       1.16018372      -0.70958579       0.06475207       0.43243373
H      -18.97082963      18.50268490       1.78875288       0.20010263       0.24032467       0.14324046
O       11.70838214      17.57980195       7.03744169      -0.05535628       0.01728813      -0.61197360
H       12.51523498      17.29276862       6.65158729      -0.02555944       0.11609704      -0.21900005
H       11.16001471      18.25499753       6.65431295      -0.02384855      -0.10539437       0.06025969
O       -7.21517869     -11.23333976       5.17948408       0.00876690      -0.56185856       0.18663445
H       -6.58543474     -11.29927847       4.42180724      -0.01681398      -0.30788529      -0.55708699
H       -7.44365032     -12.00235833       5.67746379       0.07570249       0.22953111      -0.07907454
O      -24.15478309       3.36935085      10.71510974      -0.42010085      -0.64508383      -0.00154297
H      -24.82787464       4.01608621      10.45610138       0.07523103      -0.32742941       0.04706813
H      -23.29915504       3.76407791      10.28362801      -0.46149449      -0.27842611       0.19055913
O      -11.44077648      -8.24489310      18.46086715      -0.41699497      -0.98907737       0.01993692
H      -10.70999637      -8.67911187      18.96611665      -0.03177478      -0.27915766       0.01047804
H      -11.39727556      -8.15019792      17.44656246      -0.03142728       0.30239205      -0.06413570
O        8.57411873       7.35944508      16.88837925      -0.94774283       0.77548319      -0.88284729
H        9.48887869       7.32183330      16.84179195      -0.40868744      -0.04076447       0.19598218
H        8.10808872       6.87576521      16.17108346      -0.15962702       0.19816903      -0.20772351
O      -11.61892098      -0.47716819      20.44205928       0.44228216      -0.04764602       0.10656102
H      -12.52708653      -0.25416014      20.70138002       0.02879548       0.12071569       0.02787349
H      -11.79296286      -0.54129468      19.38439904      -0.00893513      -0.00419357       0.19227707
O       24.14883418       2.49416897      16.20320921      -0.73643057       0.24566808      -0.90815977
H       23.96852920       2.37681234      17.17660239       0.11460795      -0.32423296      -0.07388209
H       24.07609090       1.65989405      15.72573784       0.22988406       0.49947425       0.44546198
O       -5.68007965     -17.93248496      -5.04632596       0.02808719       0.20234501      -1.12079069
H       -4.69428899     -17.96220031      -5.04509178       0.20250420       0.02886936      -0.32851343
H       -5.81125828     -18.73608736      -5.69702489      -0.38816462       0.06685911      -0.08638582
O       29.43850103      -8.96304669      -6.16116067      -1.12297318       1.12522725      -0.61430982
H       30.20629621      -9.00169877      -6.64012280      -0.11612430      -0.16338881       0.47048743
H       29.00026027      -9.83100646      -5.89716796      -0.21917895      -0.12061415       0.14895188
O        8.82739403      -0.65637059       3.44055582       0.54699903       0.29303789       1.04206701
H        8.38124129      -0.03484959       2.88425785      -0.04401671       0.18272954      -0.08758926
H        8.43779127      -1.49346351       3.53624786       0.19730569       0.01116954      -0.26770945
O      -19.77841355      -3.14255513      24.77541570      -0.07981672      -0.12361884       0.18810150
H      -20.01800355      -3.93336295      24.30161415       0.36542146       0.49036343       0.38762303
H      -19.16005465      -3.47155555      25.46276811      -0.26076871       0.21528702      -0.47430884
O        2.43306364      -5.75770917      -6.02532157       1.42968610       1.04908772       0.26905785
H        2.41404878      -5.66074788      -5.01660498      -0.11727788       0.07596851       0.45190179
H        1.93653673      -6.68701895      -6.07102019       0.07412163      -0.17304292       0.03101989
O        9.88450669       8.25282215       7.95516842       1.36459067      -0.83581029       0.13703133
H       10.41898958       8.64053186       7.26714578      -0.28124617       0.26538380      -0.03662434
H       10.12719754       7.38296622       8.22333609      -0.29665570      -0.34621505      -0.29656537
O        5.36352922       9.74449250      -4.84911422       0.94634875      -0.45722115      -1.04407406
H        6.16306518       9.22208140      -4.77789022      -0.44570510       0.37841691      -0.01956686
H        4.78012680       9.60402156      -4.11831764      -0.15654907      -0.14453135      -0.05364521
O       13.74189753      29.43235409      15.88820894      -0.43630319      -0.90684373       0.45964366
H       12.84393329      29.05319272      16.05985687      -0.33437623       0.09091790      -0.05174876
H       14.37803391      28.69631967      15.86741905      -0.09354284       0.00093196      -0.09298246
O       -2.82253167       3.98636357       1.70288860      -0.38022841      -0.05362273       0.35212723
H       -2.31124395       3.44519533       2.49606674      -0.21373186      -0.24737002       0.06603174
H       -2.69826159       4.93116662       1.86827775       0.03327064       0.34574537       0.02523617
O        7.84622872     -14.01426294      10.93541958       0.59705486      -0.24213802      -0.99824102
H        6.84602549     -14.43613906      10.88962454       0.58273744       0.26189687      -0.37714814
H        8.20919027     -14.20082792      10.08906994      -0.26562917      -0.12574998       0.32384850
O       -2.49969912      10.57086456      24.32317661      -1.30220864       0.71930650      -0.21679551
H       -2.11365905      10.09904153      23.52334385      -0.02593973      -0.11014822      -0.55784617
H       -3.16732580      11.17411719      24.29987805       0.01549048      -0.03863735      -0.13337899
O       20.04860841      21.75357083       1.54706441      -0.29508662       0.75875895       0.08003037
H       19.96568954      22.18304029       2.44245808      -0.10753199      -0.47477536      -0.45096903
H       19.77413201      20.89602238       1.38831044      -0.14604624       0.19683108       0.21515281
O       12.18254728      10.00806287     -15.89243323       1.12559425       0.03341164       0.21582556
H       12.72786574       9.31052158     -15.65296599      -0.03504141       0.09482882      -0.31667189
H       12.59665107      10.05081259     -16.86887340      -0.16130244       0.08761525       0.52524621
O      -11.38803752      22.27773418       1.04401295       0.06559092      -0.62196359      -0.57710341
H      -11.83363396      21.34294562       1.09770812       0.09297502       0.54752058       0.02702315
H      -10.93343665      22.67345688       1.77512406      -0.12678375       0.05139031       0.10849590
O        2.92846531     -15.04169727      16.09081411      -0.54860559      -0.52860074      -1.01418078
H        3.27068080     -15.68557821      16.70484787      -0.15456805       0.33109579      -0.03600036
H        3.69272405     -14.41827869      15.89974715       0.18000256      -0.22817862      -0.09293218
O        2.39527831      16.30311816       0.35943149      -0.60501845      -0.93116235       0.35161901
H        1.91792254      16.24083614      -0.35727758      -0.48659420       0.13267147      -0.15273715
H        3.02684297      15.62266212       0.58175965       0.14710713       0.08569030      -0.07005024
O       -5.74927669      -7.31545163       5.60507074      -1.75830418      -0.40128658      -0.06724082
H       -5.23463665      -7.87138752       6.24845080       0.37661413       0.10564684       0.27761388
H       -5.14576157      -6.84036740       5.07386496      -0.36124645      -0.45561536       0.26072207
O       -2.15448270       2.41848634       6.65607469      -0.17040195       1.58581901      -0.44572780
H       -2.18688954       3.34685307       6.78933497      -0.04242611      -0.43764659      -0.17993152
H       -1.80961949       1.78687264       7.32507069       0.37312940      -0.38843135       0.39235403
O       13.19373678      -5.51219371      -1.47029536       0.36484689      -1.82747232      -0.19213456
H       14.04397332      -5.22737413      -1.94911909       0.36801211      -0.13022806      -0.15797694
H       12.95978942      -6.45594580      -1.57193876       0.25850359       0.46041863       0.24525147
O       11.81913242       4.88602355      22.73871653      -0.21003508      -0.48799538       0.20135305
H       11.21302742       4.18151690      22.98714012       0.00961770       0.25660884       0.14819008
H       11.93945807       4.69435678      21.81288042       0.14850292      -0.11524117      -0.05751802
O        8.13579254      14.47589321      23.84987621      -1.22837594      -0.94895802       1.55776445
H        9.00437630      14.80244809      23.71094004      -0.02615820      -0.17569069      -0.40047318
H        8.23999055      13.48617195      23.95851594       0.09944643       0.56589204      -0.30085441
O       -8.05657320       6.97683187      11.41355775       0.94475943      -0.99189519      -0.24648325
H       -7.27691543       6.69387239      10.89037800      -0.00823212       0.22561891      -0.07099371
H       -8.38257687       6.53239016      12.20073989      -0.07377012       0.30078771       0.52555809
192
Lattice="12.746382959707478 0.0 0.0 -5.290472736152714e-07 12.746382959707478 0.0 -5.290472736152714e-07 -5.290472736152714e-07 12.746382959707478" Properties=species:S:1:pos:R:3:momenta:R:3 step=120 time_fs=12.0 phase=production pbc="T T T"
O       11.66941076       0.73326172     -16.46383651       1.47574001       0.14864306       0.34235283
H       12.12670448       1.09084994     -15.73655765       0.00039848       0.04451788       0.09341802
H       10.93671203       0.13937295     -16.30428153       0.21257322       0.00688611       0.47334068
O       26.38973831      24.79212042       4.95183106       0.50495276       0.22214223       1.64658460
H       26.70889797      24.02977877       4.63236517      -0.01649722       0.14865588      -0.04290859
H       25.67141814      25.11146836       4.39927807       0.25131791       0.06623557      -0.13094362
O        4.54786099      -0.32377204       6.59364793      -0.15627132      -0.52700107      -0.96269895
H        5.18135661      -1.05592524       6.81500802       0.29931147       0.04261464      -0.26154529
H        4.28852981       0.27609704       7.30421751       0.11603206       0.21404470      -0.07075467
O       -2.86935870      -4.37589099       1.07262985      -0.77140288       0.96511309       1.09928592
H       -2.66331214      -3.73112428       0.31135070       0.00649936      -0.14530146      -0.04429197
H       -3.77480361      -4.05219442       1.36081691       0.20885243       0.08670541      -0.17891090
O        4.30757242      15.88592611      10.71310806       0.96678794       0.65322861      -0.29276925
H        4.25337553      16.81953834      11.09507888       0.01072043       0.19344088      -0.13946097
H        4.99443556      15.88295971      10.12054599      -0.25472347       0.08591759      -0.15687705
O       -1.36690082       6.57845499       5.14948618       0.49493239      -1.09127512       0.56002690
H       -1.77567234       6.23721840       4.27702930      -0.37131558      -0.04548654      -0.03906484
H       -0.61327986       7.16699470       5.30371871      -0.30582467       0.11306800      -0.10025860
O       22.81862848      12.32425217       5.77377633      -0.19689496      -0.22462300      -0.45774158
H       23.19641803      13.14892623       5.94334342       0.01619902       0.33584253      -0.10752852
H       22.16679123      12.27153197       5.02700439      -0.08006698       0.04701787       0.73609827
O       -1.09405392     -15.76001023       6.79235843      -1.72673792       0.78438992      -0.42119205
H       -0.64052731     -16.17701188       6.01214313      -0.05650269      -0.17959113      -0.15161221
H       -1.37293637     -14.82111088       6.59776769       0.32567465      -0.62119158       0.19094390
O       15.48599932     -17.92703511       9.68567260       0.23758052      -1.07996084       0.47575299
H       16.15847247     -18.36543544      10.11405924      -0.08728367       0.42065335      -0.30984508
H       15.71395943     -17.01969785       9.51445488       0.30034518      -0.00772543      -0.01109895
O        3.29811428     -14.64892683     -13.36414045       0.61460230       0.01832604      -0.14888720
H        4.16390063     -14.85149818     -13.15779027       0.12942894       0.17950214      -0.04121795
H        2.68602053     -15.14402032     -12.77657126       0.15644596      -0.15703625      -0.20809959
O       -5.75922203       1.61679253       2.86519247       0.15281831       0.98472052       0.86525953
H       -6.45490637       1.13043641       2.43662766      -0.26344100      -0.17252770      -0.11011243
H       -5.53967250       2.48631337       2.62375055      -0.40845525      -0.03508779      -0.05501507
O       -5.35918310      16.11141222      25.91977848       0.05505448       1.09635582      -1.13999992
H       -5.45667891      15.61905755      25.09726284      -0.17245793       0.41251937      -0.09836149
H       -4.25382838      16.15069494      26.11930408       0.40510674      -0.24127948       0.30342386
O        7.50919742     -15.68462656      -8.45009821       1.71423935       0.44298688       1.19429060
H        8.00791338     -16.41771470      -8.19183756      -0.03704639       0.16739238       0.03652698
H        6.58673449     -15.43698748      -8.05857431      -0.29177339       0.06157504       0.07878490
O       13.67350456       8.54630529      17.97908274      -0.28144445      -0.13307276       0.86312625
H       14.08850428       8.66443066      17.15299804       0.16210113       0.06019306      -0.36216392
H       14.21485540       8.05951285      18.55753469      -0.07418763       0.12167835       0.45400594
O       -0.16734367       1.23444152      -1.21679207      -0.89438735       0.36309322       0.37098945
H        0.76954014       1.32863414      -1.22904470       0.18761408      -0.24202219       0.02316872
H       -0.43555397       0.45006595      -0.78892892      -0.01995987       0.51519681      -0.24907657
O      -14.17711475      12.66720578      15.76469853       0.32138350       0.42740080      -0.44097643
H      -13.77518413      12.36068175      14.87019954       0.25707565      -0.16290514      -0.24718213
H      -14.87297179      12.24455408      16.17456393       0.22962478      -0.18275874      -0.09702167
O      -16.36994734       5.92126681      12.32739476       1.77027208       0.88453688      -0.48632480
H      -16.90948174       5.93574111      11.47979064       0.11193836      -0.20007495      -0.01753619
H      -16.15474289       7.06341278      12.29320664      -0.16881762      -0.12162341      -0.00368043
O       -9.96320215      32.89812357      -9.58663320      -0.71752685      -0.50077067      -0.26937450
H       -9.13079224      32.57286203      -9.36253026       0.04964461       0.30281667      -0.14864153
H      -10.71922749      32.45473155      -9.76567500       0.32104349       0.07460803       0.32944469
O       34.78101988      11.48359542      21.37486871       0.58467009      -0.01351690      -1.10589511
H       34.69946583      11.75902581      20.43609318       0.05973868      -0.05385315       0.57194276
H       35.21559953      10.79381171      21.73700644       0.27514426       0.00947216       0.07074731
O       30.38858314     -12.61421935       2.15140443      -0.61088900       1.85869440      -0.54242990
H       29.55516014     -12.14464935       2.47178938       0.11867019      -0.19368849       0.07800311
H       30.09077620     -12.74779392       1.16032155       0.01926746      -0.18934108       0.00747871
O       17.58085742       9.25715463      -7.43205319      -0.34045313      -1.97888017      -0.39235668
H       17.27992218       8.40311707      -7.77082021      -0.09463165       0.73585076       0.27788566
H       17.42844446       9.57931692      -6.50886275       0.12087567      -0.05726123       0.03126401
O       -5.12521483       2.57711771      32.19706844       0.74206020      -0.18391746       0.54864088
H       -5.96819811       2.06318529      31.86753588       0.06302444      -0.19389206       0.34227852
H       -4.30412118       2.11711563      32.47242279       0.08696945       0.00287701       0.06754091
O        3.82747894       0.88387081      -0.22042005       1.54421000       0.21495527       0.06671547
H        3.43994898      -0.00475046      -0.34758919      -0.10849534       0.13809823       0.05283131
H        4.22199959       1.08723424      -1.16276738       0.12827629       0.18998929       0.00347516
O       23.21079677       3.23445236      11.66000809      -0.22729570       0.28013380       0.80611907
H       23.34444197       3.61240430      12.52034657       0.12929080      -0.13186245      -0.65996177
H       23.82641732       2.50081406      11.74174959      -0.15995082      -0.00593522      -0.16437176
O       -1.43658581      31.83822639      15.04450428      -0.16458901       0.66340004       0.79750080
H       -2.09509130      32.37979185      14.67245117       0.02255821      -0.05150898       0.24324465
H       -0.59927119      31.70520738      14.54783781       0.18520713      -0.35455321      -0.00654274
O        4.82851934      19.39477634       5.21523080      -0.24048385       0.35183199       0.04669802
H        4.13801184      19.08300205       5.67348356       0.10034259       0.25746191      -0.07644230
H        5.64862897      18.81642042       5.22896081      -0.09056404      -0.23959378      -0.02656786
O      -10.18526514      10.49810263       9.50587311      -1.44109283       0.42658620       0.18869329
H      -10.81311353      10.86933023       8.88752995       0.23040343      -0.26162733       0.61263943
H      -10.41515270      10.79648087      10.45871542       0.21662301      -0.03157217       0.32907029
O       17.69975065      17.75991495      26.10612079       0.03416905       0.33839677      -1.78514707
H       18.43867166      17.15082155      26.08956879      -0.22772546      -0.37097071       0.24396032
H       16.82420970      17.31015282      26.06780019       0.18130872       0.03598666       0.05553638
O        6.92562991      18.69439540      10.14369891      -0.36437497      -0.39794797       0.02502232
H        7.28686399      19.35538397       9.50419057       0.10278578       0.09420062       0.13232702
H        6.48492923      18.03474557       9.65348299      -0.20996871       0.19567296       0.32151508
O       -0.65892233     -13.81433485      13.26378403      -0.76953203      -0.81246511       0.05363775
H       -1.40655648     -14.23904149      12.87188447      -0.12479751      -0.08831165       0.13676794
H       -0.15735902     -14.58852589      13.42352922      -0.08918971       0.38655323      -0.31605470
O        1.13276665       6.06861481       1.12070788      -0.07828400      -2.54091620       0.67585621
H        1.66210423       5.18508104       1.20433406      -0.24453933       0.48041877      -0.03731559
H        1.02833087       6.56860677       0.23663338       0.19078721       0.38634992       0.04125265
O        3.18013711       1.30092217       8.37939301       0.86309833      -0.58586226       0.13586848
H        2.11535869       1.14189874       8.26642750       0.51601689       0.27756714       0.09064751
H        3.28842111       1.35118021       9.31035736       0.09910725      -0.26607963       0.13989098
O      -18.82045864      28.83405753     -16.17897494       0.42026371       0.61817411      -0.43981349
H      -18.78978129      29.11135463     -17.03604378       0.27150531      -0.08809109       0.56983369
H      -18.17159369      28.38778176     -15.62564462      -0.44485320       0.52985212      -0.53839811
O        2.91550077      26.84887472      -9.08837688      -0.06481564      -0.81977868      -0.79286088
H        3.38073543      27.04357843      -8.44279958       0.63975866       0.41070851       0.91173418
H        2.08335295      26.33225722      -8.90748056      -0.48538895       0.11847103       0.01806264
O      -18.10469504      18.98861200       1.93682567      -0.74705512      -1.06735524      -0.02838307
H      -17.53446278      18.86646448       1.20735268      -0.79144690       0.05083186       0.46226383
H      -18.94182699      18.52853190       1.80242532       0.34978711       0.29268223       0.13911159
O       11.70710298      17.57898639       7.03382993      -0.17868766      -0.04628212      -0.46791340
H       12.51789877      17.30477642       6.62390280       0.08082896       0.14831391      -0.33748563
H       11.15915527      18.24615963       6.65659630       0.00879606      -0.05244065      -0.01143740
O       -7.21440052     -11.23542126       5.17982348       0.16133838      -0.26313419      -0.02372656
H       -6.59287164     -11.33280879       4.37356781      -0.14865854      -0.38602924      -0.41332960
H       -7.43614191     -11.98718990       5.66934509       0.06691127       0.05344211      -0.07039530
O      -24.15549758       3.36553892      10.71450087      -0.16987851      -0.58333086      -0.02313695
H      -24.82210374       3.98669969      10.45983318      -0.00131259      -0.25408192       0.03248854
H      -23.35273577       3.73116351      10.30665037      -0.61856217      -0.37771386       0.27002019
O      -11.44264899      -8.25061624      18.45969547      -0.35410894      -0.98900336      -0.14123248
H      -10.71781625      -8.70245496      18.95744281      -0.13841783      -0.20594217      -0.17145352
H      -11.39899912      -8.12588431      17.45493272      -0.01383288       0.18682634       0.24780067
O        8.56663644       7.36387059      16.88199461      -1.39060197       0.77081599      -0.96203848
H        9.46283953       7.31646544      16.85893701      -0.09752894      -0.06370748       0.17084739
H        8.09723049       6.89781623      16.15329225      -0.05593129       0.26010720      -0.14169581
O      -11.61608700      -0.47743962      20.44113550       0.31467218      -0.04674183      -0.12192693
H      -12.52197840      -0.24183814      20.70536091       0.06559482       0.13152647       0.07351116
H      -11.78927092      -0.54136630      19.41056192       0.07628297       0.00121392       0.36143787
O       24.14326797       2.49594985      16.19779371      -0.73327187       0.43201702      -0.60142620
H       23.98022206       2.34557621      17.15816174       0.14452426      -0.30597590      -0.26854649
H       24.09732664       1.70235234      15.76712623       0.22474136       0.30220113       0.36733313
O       -5.67909160     -17.93134388      -5.05362455       0.22046884      -0.08185754      -1.32940594
H       -4.68087751     -17.95417111      -5.07444678       0.05826104       0.11793659      -0.27859621
H       -5.85153747     -18.71782135      -5.69784157      -0.43955380       0.29301413       0.06648683
O       29.42867591      -8.95633328      -6.16378535      -1.67615570       0.93242760      -0.32292672
H       30.20954446      -9.02180299      -6.60278422       0.21803239      -0.25757309       0.28636003
H       28.98758269      -9.82987564      -5.88695583      -0.01414044       0.13975562       0.05548911
O        8.83113422      -0.65392922       3.44694268       0.77174535       0.50894582       1.06845892
H        8.37191925      -0.01497306       2.87405725      -0.12067120       0.19762571      -0.09637091
H        8.44943625      -1.50415596       3.51065606       0.05525602      -0.21969272      -0.25779640
O      -19.77799958      -3.14264915      24.77580960      -0.08181105       0.11394271       0.27743032
H      -19.98639420      -3.89465504      24.32991554       0.24924517       0.25005369       0.18310869
H      -19.18149723      -3.44791578      25.41960629      -0.15892789       0.25023381      -0.34797243
O        2.44115014      -5.75181702      -6.02264233       1.23587821       0.78801673       0.52798294
H        2.40380965      -5.65288307      -4.98458058      -0.09030835       0.07728705       0.18947208
H        1.95150410      -6.68943659      -6.06796144       0.23736070       0.12231667       0.02742677
O        9.89225417       8.24733455       7.95577424       1.29731124      -0.84622781       0.17721711
H       10.39394697       8.66617429       7.26275050      -0.22223050       0.26500876      -0.04656338
H       10.09974446       7.34887658       8.19256565      -0.25841165      -0.33210734      -0.33434671
O        5.36883862       9.74154733      -4.85573772       0.79698358      -0.33647915      -1.16979464
H        6.12636384       9.25357267      -4.77872781      -0.25268200       0.24481876       0.00176214
H        4.76081581       9.58864723      -4.11994965      -0.22382497      -0.15797866      -0.00022772
O       13.73827041      29.42509550      15.89053370      -0.56871801      -1.03270422       0.52260198
H       12.82007851      29.06389005      16.05226267      -0.13417509       0.15567097      -0.09088987
H       14.36446191      28.69861457      15.85803250      -0.16441726       0.05901305      -0.08556369
O       -2.82441855       3.98572884       1.70544898      -0.27278560      -0.07221199       0.51045218
H       -2.33881592       3.42876417       2.49278146      -0.35348555      -0.08611525      -0.13170211
H       -2.69442848       4.95794432       1.87036182       0.03912773       0.17950249       0.01440521
O        7.84838969     -14.01538733      10.92952783       0.22115233      -0.31026791      -0.74795315
H        6.91694698     -14.40299315      10.85427773       0.85443557       0.39765036      -0.32983512
H        8.18863691     -14.21363750      10.10549587      -0.12945089      -0.15373167      -0.00432472
O       -2.50599731      10.57355180      24.32048154      -0.79124445       0.30797946      -0.33075182
H       -2.12407042      10.09733275      23.47941457      -0.18963151       0.08623096      -0.31328579
H       -3.18152867      11.18139512      24.28032792      -0.30419236       0.19167769      -0.24537646
O       20.04641903      21.75851822       1.54756907      -0.13297414       1.11990745       0.04897953
H       19.95270925      22.13166042       2.39522941      -0.14676618      -0.52669700      -0.45636646
H       19.75268258      20.89722484       1.41035949      -0.27509367      -0.14919889       0.23420851
O       12.18873617      10.00851893     -15.89150381       1.05498204       0.25821969      -0.12358561
H       12.73240547       9.30691715     -15.67573054       0.14159519      -0.16352526      -0.16598320
H       12.57307128      10.06028979     -16.80650689      -0.30632712       0.11592271       0.72946312
O      -11.38756969      22.27237744       1.03999009      -0.04593745      -0.76600503      -0.70857529
H      -11.81634518      21.40695571       1.10205713       0.23129951       0.74505416       0.06542543
H      -10.94410719      22.67538414       1.79048563      -0.11001215       0.00392434       0.19648311
O        2.92523343     -15.04362968      16.08346623      -0.47046538      -0.29879622      -1.16745377
H        3.25777965     -15.65723429      16.70469013      -0.10114116       0.21787452       0.06540981
H        3.70254768     -14.44576048      15.89155760       0.02692694      -0.34249214      -0.06411828
O        2.39233773      16.29702570       0.36295483      -0.35257113      -0.82541033       0.75360990
H        1.85743707      16.24847693      -0.39418217      -0.71596872       0.04117589      -0.54997891
H        3.03876727      15.62810791       0.57307577       0.09774842       0.03820754      -0.11073509
O       -5.75972750      -7.31844238       5.60534586      -1.73805007      -0.69845423       0.26479704
H       -5.20504218      -7.85650660       6.27018873       0.21698410       0.19637741       0.16765560
H       -5.17337172      -6.87827215       5.09240939      -0.18716561      -0.30826957       0.09975002
O       -2.15530172       2.42664024       6.65315778      -0.11011179       1.03108153      -0.38811595
H       -2.18871159       3.31540967       6.77629256       0.00170496      -0.15792104      -0.07507863
H       -1.77659953       1.76028914       7.35583711       0.28680104      -0.13027080       0.21720565
O       13.19627596      -5.52272883      -1.47161678       0.67227184      -1.61448432      -0.25781099
H       14.06771630      -5.24652739      -1.95932383       0.12281876      -0.26861428      -0.04823881
H       12.98502808      -6.41148289      -1.55087730       0.25467671       0.38065758       0.17899974
O       11.81750433       4.88280668      22.73910879      -0.14639903      -0.48579726       0.22975414
H       11.20907677       4.20424756      23.00488515      -0.08694711       0.20657412       0.23750517
H       11.95475719       4.68452971      21.80124112       0.17336220      -0.08102940      -0.14771292
O        8.12750602      14.46908403      23.85850302      -1.33916763      -0.99297877       1.57697305
H        9.00939532      14.79062120      23.66891358       0.11732476      -0.05662268      -0.43775291
H        8.24624226      13.54264118      23.92832824       0.03937864       0.53416472      -0.28913456
O       -8.05052596       6.97043025      11.41149460       0.88778278      -0.99736066      -0.23379729
H       -7.28109290       6.71372334      10.88868420      -0.07133245       0.18170767       0.03903197
H       -8.38289588       6.56108220      12.24595382       0.07064020       0.30169798       0.38935561
192
Lattice="12.745820710205926 0.0 0.0 -5.290239370682032e-07 12.745820710205926 0.0 -5.290239370682032e-07 -5.290239370682032e-07 12.745820710205926" Properties=species:S:1:pos:R:3:momenta:R:3 step=130 time_fs=13.0 phase=production pbc="T T T"
O       11.67787769       0.73402059     -16.46172044       1.45666976       0.11365175       0.12580305
H       12.12880342       1.09701634     -15.71782661       0.04721675       0.07873802       0.26449026
H       10.95557250       0.13914132     -16.25509969       0.18468453      -0.01098904       0.51944753
O       26.39113483      24.79365082       4.96231850       0.33541098       0.61661875       1.83537829
H       26.71658176      24.02138466       4.62014203       0.19177081      -0.28339909      -0.19804854
H       25.69337894      25.11877670       4.38605906       0.22301084       0.10756481      -0.13589007
O        4.54703385      -0.32727193       6.58751738      -0.04935651      -0.60899614      -0.93414865
H        5.20195287      -1.04374015       6.79025908       0.12636564       0.20506351      -0.23811682
H        4.30070585       0.29331071       7.29761973       0.14047665       0.13104422      -0.06612443
O       -2.87439499      -4.36918399       1.07888387      -0.88631945       1.14261746       0.94984824
H       -2.66375839      -3.75267300       0.31493249      -0.01284499      -0.29327508       0.10984317
H       -3.74756311      -4.04567963       1.34214758       0.31520254       0.05140479      -0.19013436
O        4.31240643      15.89009376      10.71191133       0.67479327       0.92874232       0.05296287
H        4.25585337      16.82464698      11.07653901       0.04355387      -0.06930380      -0.22877653
H        4.98244350      15.88949976      10.09308701       0.00764789       0.06276781      -0.39509365
O       -1.36425357       6.57104215       5.15226356       0.32963062      -1.24289622       0.41538899
H       -1.80082484       6.23903349       4.28445811      -0.14430940       0.08849014       0.19608099
H       -0.64446777       7.17717870       5.28983606      -0.31892057       0.11558218      -0.17676299
O       22.81616026      12.32167119       5.77059154      -0.22461161      -0.39452722      -0.44867778
H       23.19907242      13.19030073       5.93301048       0.04162864       0.48393837      -0.10611304
H       22.15915997      12.27727325       5.10051924      -0.09159102       0.07877104       0.73635147
O       -1.10444091     -15.75465404       6.78900814      -1.64768499       0.64830332      -0.55535546
H       -0.64992733     -16.18952107       6.00459890      -0.13660157      -0.09216629       0.00254843
H       -1.34007815     -14.88367114       6.61551230       0.32284093      -0.59008392       0.16181757
O       15.48558279     -17.93245681       9.68767652      -0.16301211      -0.90954411       0.30197845
H       16.16629764     -18.33448084      10.09439255       0.28373854       0.18193983      -0.07158497
H       15.74366697     -17.01449988       9.51276281       0.31419715       0.08088765      -0.01363266
O        3.30063528     -14.64808025     -13.36451602       0.28851152       0.04647902      -0.16904265
H        4.19282824     -14.83829833     -13.15849196       0.43910206       0.08442681       0.00902849
H        2.70181317     -15.15685382     -12.79842683       0.16465828      -0.12652262      -0.24501956
O       -5.75815116       1.62188032       2.87091446       0.07917190       0.67012621       1.01692907
H       -6.47979818       1.11680470       2.42407408      -0.21886720      -0.08273044      -0.12325948
H       -5.57956137       2.49274170       2.61073747      -0.41488475       0.17249329      -0.20958511
O       -5.35809724      16.11748509      25.91181948       0.22147521       1.12129367      -1.06400909
H       -5.47081133      15.65857487      25.08708161      -0.12241136       0.40409929      -0.10070454
H       -4.22386668      16.12645564      26.14597362       0.20709550      -0.23877468       0.26565767
O        7.51810195     -15.67998688      -8.44248341       1.28875354       0.84573304       1.16493074
H        8.00876373     -16.41401711      -8.18238619       0.06412157      -0.10967692       0.15042760
H        6.57291794     -15.43788195      -8.05505304       0.01750135      -0.09287654      -0.01453730
O       13.67069464       8.54529085      17.98356755      -0.39447729      -0.08095704       0.81921387
H       14.10561596       8.67021297      17.11203418       0.17594809       0.05262785      -0.39491888
H       14.21166926       8.06649710      18.60771266       0.00362495       0.04924245       0.56119942
O       -0.17311015       1.23748362      -1.21504969      -0.93410834       0.67815131       0.16154630
H        0.79455060       1.30396430      -1.22638439       0.28655413      -0.26425145       0.02952269
H       -0.44058716       0.48631011      -0.80494698      -0.09618107       0.19983131      -0.06480527
O      -14.17319000      12.66976426      15.76014166       0.74474603       0.58124950      -0.81573437
H      -13.75667662      12.34647742      14.85596128       0.10903420      -0.11457603      -0.02773046
H      -14.86344646      12.21605246      16.16941873      -0.03926862      -0.38557151       0.00302093
O      -16.35866423       5.92717047      12.32311613       1.67790560       1.13067352      -0.71888885
H      -16.89122718       5.91505287      11.48926241       0.23723342      -0.22190898       0.20804414
H      -16.17216195       7.03957705      12.29393247      -0.20145213      -0.36577457       0.03320520
O       -9.96656279      32.89529415      -9.58773709      -0.50591879       0.06205399      -0.22738034
H       -9.11844182      32.59297647      -9.37411361       0.19264967       0.14064107      -0.09787767
H      -10.70421240      32.44285219      -9.73669676      -0.03392242      -0.30036825       0.25553855
O       34.78223151      11.48427277      21.36685264       0.33599765       0.34251704      -1.11343416
H       34.70613301      11.74947877      20.49306083       0.10438410      -0.11177793       0.54622533
H       35.25294826      10.77707649      21.74583318       0.50051135      -0.30634169       0.11188089
O       30.38259716     -12.60191489       2.14723554      -0.88044162       1.95292800      -0.78523459
H       29.57272934     -12.16628668       2.47969423       0.24730701      -0.24818483       0.09375094
H       30.09675233     -12.76344702       1.17380321       0.12916759      -0.14357071       0.26217053
O       17.57808110       9.24528796      -7.43349114      -0.27914567      -1.67474175      -0.15429356
H       17.26834876       8.46638111      -7.74284999      -0.15734376       0.49055578       0.25722091
H       17.44231239       9.56797854      -6.51340090       0.17816998      -0.16517288      -0.12731697
O       -5.12101509       2.57562835      32.19893556       0.55616765      -0.26143165       0.52420852
H       -5.94799456       2.04899035      31.90359189       0.34070477      -0.09713065       0.42395102
H       -4.30181550       2.11768976      32.47438388      -0.04029958       0.00982676       0.00441714
O        3.83717267       0.88500549      -0.22093867       1.67045704       0.17615793      -0.23577133
H        3.43036390       0.01179073      -0.34186675      -0.08730312       0.19525210       0.06309053
H        4.22781363       1.10469271      -1.14675499      -0.00449206       0.16804389       0.32303789
O       23.20835012       3.23576409      11.66389117      -0.25194646       0.17251604       0.56645814
H       23.35472781       3.60815914      12.46719848       0.11457518       0.07415741      -0.36049812
H       23.81166706       2.49678598      11.72232756      -0.11727762      -0.07981402      -0.22253616
O       -1.43676338      31.84030074      15.04898245       0.09698898       0.46406660       0.87598948
H       -2.09660729      32.38177437      14.68946488      -0.05737244       0.12330134       0.11697783
H       -0.58825044      31.67168685      14.54858110       0.03102668      -0.30074912       0.03863047
O        4.82844710      19.39645715       5.21444546       0.28115674       0.47159853      -0.22570699
H        4.13019050      19.09900400       5.67953139      -0.25511795       0.09071008       0.20378924
H        5.62831220      18.79792525       5.22507703      -0.31703451      -0.12364621      -0.04863011
O      -10.19338407      10.50013364       9.50792398      -1.30458969       0.36060970       0.65788331
H      -10.79680139      10.84796767       8.94228286       0.05149511      -0.14257399       0.47756906
H      -10.39000276      10.78914151      10.47449411       0.28856013      -0.10970730       0.00533092
O       17.69893371      17.76127517      26.09385567      -0.01470720       0.35914844      -1.83259085
H       18.41638232      17.11230153      26.11300704      -0.22072735      -0.39303652       0.25957947
H       16.84594643      17.31508089      26.07274560       0.25688951       0.07160157       0.06867699
O        6.92344177      18.69191632      10.14352567      -0.24106129      -0.13185387       0.07198171
H        7.29422876      19.36005690       9.52053686       0.05334413       0.01533336       0.21104509
H        6.45956449      18.04501315       9.67909392      -0.30956027       0.02420448       0.20555343
O       -0.66375975     -13.81803279      13.26361007      -0.83683386      -0.57547781       0.07280093
H       -1.42912475     -14.24834907      12.87902355      -0.33264370      -0.11215373       0.02625322
H       -0.15548602     -14.55919832      13.39582340       0.14299824       0.18152961      -0.23690092
O        1.13238509       6.05270366       1.12435329      -0.06055415      -2.49978715       0.52454491
H        1.63171650       5.24202956       1.19694949      -0.34665967       0.64169216      -0.10932288
H        1.04943949       6.59665145       0.25045313       0.24327672       0.19197000       0.24232870
O        3.18425743       1.29708501       8.37922121       0.52962000      -0.64254188      -0.04039456
H        2.18203510       1.16978689       8.27615121       0.84900945       0.29545508       0.11085771
H        3.29926935       1.32587015       9.33034143       0.12793881      -0.25376613       0.25354340
O      -18.81795269      28.83642541     -16.17954340       0.06568270       0.59571042      -0.00813608
H      -18.75587267      29.10697542     -17.00364726       0.40753712       0.03813405       0.05418567
H      -18.20640592      28.43482429     -15.67651688      -0.22585042       0.42245211      -0.46609313
O        2.91329454      26.84176308      -9.09438995      -0.53390197      -1.07767709      -1.18476625
H        3.45809938      27.08743709      -8.32980634       0.85984919       0.47951898       1.28495186
H        2.04948001      26.34995897      -8.90611888      -0.19804747       0.26922002       0.00569597
O      -18.10903257      18.98157766       1.93766116      -0.91146270      -0.91876817       0.38025682
H      -17.59875363      18.86755975       1.23528971      -0.50043066      -0.01617220       0.06139673
H      -18.91016966      18.55383716       1.81555809       0.22485800       0.21630271       0.12938740
O       11.70542829      17.57759071       7.03099613      -0.17698672      -0.16260232      -0.36581169
H       12.52670442      17.32097071       6.58706816       0.09102399       0.20459043      -0.40025624
H       11.15980875      18.24407605       6.65107116       0.01277918       0.02760349      -0.09613265
O       -7.21245801     -11.23558215       5.17861169       0.36825092       0.03934634      -0.30110136
H       -6.61424321     -11.37263558       4.34272992      -0.29592564      -0.43616853      -0.20974090
H       -7.43037925     -11.99248197       5.66449907       0.04490986      -0.16991720      -0.02387724
O      -24.15533709       3.36139979      10.71427913      -0.17883912      -0.75360278       0.13611579
H      -24.82903801       3.96882228      10.46059969      -0.17244112      -0.10083188      -0.01040497
H      -23.40589656       3.69534951      10.32914121      -0.43297486      -0.32624487       0.16879621
O      -11.44419775      -8.25627664      18.45759488      -0.32653279      -0.96911960      -0.26260769
H      -10.73513211      -8.71868558      18.93183270      -0.21612367      -0.13975246      -0.32852260
H      -11.39879811      -8.11314784      17.49121987       0.00958180       0.07020491       0.48887267
O        8.55630812       7.36831707      16.87513085      -1.82752318       0.79005696      -1.02297899
H        9.46918016       7.30876351      16.87372820       0.21775542      -0.08685551       0.14838765
H        8.09594556       6.92506370      16.14149979       0.03135307       0.29783528      -0.09317292
O      -11.61406601      -0.47770024      20.43879173       0.17733797      -0.04576370      -0.33966512
H      -12.51334833      -0.22852915      20.71419914       0.09825948       0.14173535       0.12801055
H      -11.77683862      -0.54120168      19.45263065       0.16769489       0.00079784       0.50929783
O       24.13775862       2.49974370      16.19445756      -0.71283747       0.85588733      -0.27368904
H       23.99383276       2.31821143      17.12868604       0.15090091      -0.25157653      -0.28360146
H       24.11787229       1.70965723      15.78908162       0.22121820      -0.16913608       0.08095580
O       -5.67687238     -17.93186261      -5.06218906       0.41658051      -0.33038560      -1.52464061
H       -4.68303909     -17.93798334      -5.09888245      -0.10222297       0.19671015      -0.22698011
H       -5.89598910     -18.67805984      -5.68393472      -0.47893618       0.49343482       0.20469153
O       29.41555951      -8.95077115      -6.16473225      -2.12791843       0.76245264      -0.10147709
H       30.24352987      -9.05066363      -6.58205027       0.47070166      -0.33739970       0.15306508
H       28.99412611      -9.80392413      -5.88520458       0.16397185       0.36684986      -0.01838945
O        8.83577120      -0.65006762       3.45318254       0.83832001       0.72082821       1.00309956
H        8.36024811      -0.00114013       2.86915401      -0.09934323       0.06849347       0.01269383
H        8.44991219      -1.53139179       3.48494737      -0.02298359      -0.30534963      -0.27019797
O      -19.77794185      -3.14039220      24.77649055      -0.19906658       0.59025234       0.28755603
H      -19.96909032      -3.88971119      24.33196665       0.08744247      -0.15895032      -0.12342437
H      -19.18385803      -3.42489505      25.39845538       0.10982674       0.21294113      -0.04715981
O        2.44802862      -5.74753028      -6.01828717       1.04433649       0.53075445       0.80212507
H        2.39641214      -5.64524165      -4.97963857      -0.05825036       0.07690887      -0.08715413
H        1.98252127      -6.66276056      -6.06536847       0.39587209       0.40985712       0.01683792
O        9.89958932       8.24161838       7.95667612       1.23677538      -0.90126343       0.22982995
H       10.37470766       8.69069672       7.25786787      -0.16527824       0.24187332      -0.04334768
H       10.07589260       7.32009891       8.15648379      -0.22161426      -0.24226608      -0.40194853
O        5.37222144       9.73972033      -4.86285453       0.34992697      -0.11459409      -1.20174907
H        6.11964753       9.26494227      -4.77647408       0.13356697      -0.01146384       0.04272602
H        4.73947026       9.57343147      -4.12214020      -0.19158514      -0.14062096      -0.06890312
O       13.73358716      29.41733118      15.89325933      -0.76295545      -1.05184423       0.59430815
H       12.81675706      29.08067044      16.04082289       0.06835893       0.21028340      -0.12765531
H       14.34692563      28.70239121      15.84915089      -0.16935064       0.02851038      -0.08410200
O       -2.82565464       3.98526865       1.70901431      -0.17425868      -0.01964812       0.67207723
H       -2.37952276       3.42800275       2.47032243      -0.48105980       0.07238862      -0.32491965
H       -2.69075060       4.96310120       1.87051282       0.03397137      -0.07056933      -0.00932115
O        7.84886849     -14.01659100      10.92530464       0.13936331      -0.25085315      -0.47918385
H        7.00113632     -14.36186156      10.82481143       0.79277048       0.39644764      -0.27124249
H        8.18428649     -14.22960351      10.08702065       0.04117399      -0.18452971      -0.34892853
O       -2.50953468      10.57401301      24.31691951      -0.44162760       0.03334917      -0.48599844
H       -2.14992929      10.11470992      23.46092493      -0.33946722       0.27686691      -0.04347001
H       -3.22169405      11.20606390      24.25048931      -0.48209298       0.28739167      -0.33954970
O       20.04519937      21.76475548       1.54682838       0.01317734       1.15710575      -0.31446791
H       19.93434201      22.08448087       2.36486200      -0.21621222      -0.39938307      -0.11853827
H       19.72058800      20.86964891       1.43345519      -0.34815509      -0.35290569       0.24176010
O       12.19428310      10.01018783     -15.89184917       0.91082389       0.40035024      -0.12570004
H       12.75262697       9.28002141     -15.68494599       0.26710486      -0.35709561      -0.04507087
H       12.54020379      10.07313201     -16.73567761      -0.32218879       0.16293149       0.62379966
O      -11.38713236      22.26723097       1.03530990       0.07202854      -0.50584650      -0.79377481
H      -11.79395138      21.47363486       1.11122604       0.17696965       0.56289444       0.13036275
H      -10.95533436      22.67151713       1.81099685      -0.13791847      -0.06778576       0.21209765
O        2.92234540     -15.04406150      16.07502690      -0.43660303      -0.07299343      -1.34444962
H        3.25098336     -15.64349411      16.71795589      -0.03894802       0.05107009       0.22154542
H        3.69902320     -14.48179015      15.88502826      -0.08274648      -0.39569814      -0.06135025
O        2.39009545      16.29154197       0.36776491      -0.39565970      -0.72851951       0.74950075
H        1.78908164      16.24823765      -0.44875668      -0.63282174      -0.02707434      -0.49603346
H        3.04530885      15.62838195       0.55959756       0.04005195      -0.02136843      -0.16714168
O       -5.77018826      -7.32348791       5.60799243      -1.75144573      -1.04803972       0.67912641
H       -5.19270088      -7.83264376       6.28047653       0.02991013       0.28304690       0.05151823
H       -5.17973274      -6.89786181       5.09007914       0.05182268      -0.09826021      -0.14805658
O       -2.15556852       2.43053512       6.65082105      -0.00572742       0.27191652      -0.27484282
H       -2.18640090       3.32043335       6.77472041       0.04432205       0.26390713       0.04832737
H       -1.75483556       1.76293961       7.36476397       0.15617894       0.18663183      -0.02971509
O       13.20102815      -5.53089409      -1.47330283       1.07089505      -1.09267703      -0.30962684
H       14.06631211      -5.27897392      -1.95802530      -0.13519582      -0.39814626       0.07215211
H       13.00572129      -6.39171991      -1.53771788       0.17267249      -0.01716048       0.08847082
O       11.81637618       4.87964330      22.73934739      -0.04855010      -0.47850160       0.15812446
H       11.19477731       4.22092916      23.03112672      -0.19306396       0.14214016       0.31701648
H       11.97139821       4.67842787      21.78582549       0.17325980      -0.03878367      -0.12732690
O        8.11898372      14.46331407      23.86701880      -1.28667026      -0.62414560       1.52867314
H        9.02013854      14.78813478      23.62516822       0.07338448       0.00558359      -0.42744687
H        8.24808919      13.57701038      23.90103916       0.01168953       0.14115134      -0.24788733
O       -8.04523985       6.96402260      11.40998754       0.69883658      -0.98286478      -0.07616546
H       -7.28718999       6.72748589      10.89533454      -0.04347131       0.10064515       0.09762999
H       -8.36686307       6.59112899      12.27282368       0.25337028       0.32001741       0.16710279
192
Lattice="12.745280326605817 0.0 0.0 -5.290015080802113e-07 12.745280326605817 0.0 -5.290015080802113e-07 -5.290015080802113e-07 12.745280326605817" Properties=species:S:1:pos:R:3:momenta:R:3 step=140 time_fs=14.0 phase=production pbc="T T T"
O       11.68639085       0.73466402     -16.46058352       1.48628963       0.11116775       0.04579566
H       12.13292293       1.10463933     -15.68723352       0.03645846       0.06936823       0.32749721
H       10.97224849       0.13771679     -16.20216521       0.17190445      -0.01376191       0.54866768
O       26.39174371      24.79708155       4.97370873       0.24891583       0.78237091       1.91062851
H       26.74040283      23.98061620       4.59657350       0.29037509      -0.46370688      -0.25346640
H       25.71362141      25.12984614       4.37305390       0.22419783       0.13586737      -0.12069755
O        4.54676966      -0.33107063       6.58161776       0.01195023      -0.61715016      -0.90081363
H        5.20656437      -1.01749480       6.76876575      -0.01397335       0.31675590      -0.19138575
H        4.31587674       0.30061515       7.28976625       0.17528053       0.01745827      -0.08936921
O       -2.87960797      -4.36176027       1.08420367      -0.81965114       1.18506334       0.80646578
H       -2.66414670      -3.78570308       0.32994652       0.01195169      -0.37033614       0.17636987
H       -3.72096592      -4.03953694       1.32660200       0.18497726       0.08469666      -0.11308528
O        4.31570678      15.89575381      10.71257302       0.49122330       1.10187860       0.27070180
H        4.26123544      16.80779539      11.05081240       0.06828460      -0.22950797      -0.27752040
H        4.99212974      15.89388128      10.04543559       0.16739241       0.04153638      -0.54800389
O       -1.36288845       6.56249667       5.15417840       0.09276097      -1.45446256       0.29197460
H       -1.80389907       6.25339096       4.31388941       0.07355271       0.20497955       0.39840965
H       -0.67270383       7.19131688       5.26935781      -0.25162633       0.19047373      -0.23696814
O       22.81455658      12.31891118       5.76828219       0.06218302      -0.29429642      -0.19325569
H       23.19885809      13.23350088       5.92075836      -0.04207975       0.37485601      -0.14572885
H       22.14059056      12.28541348       5.16348305      -0.29731658       0.09792912       0.53719659
O       -1.11396519     -15.75158001       6.78515878      -1.46170384       0.09118011      -0.59177584
H       -0.66674047     -16.19392437       6.01169950      -0.20602516      -0.01592929       0.14394755
H       -1.31376773     -14.92016608       6.62589493       0.20421115      -0.12297134       0.04884194
O       15.48282677     -17.93642670       9.68855066      -0.48080293      -0.63131180       0.13253279
H       16.21151842     -18.32802446      10.09860040       0.62721113      -0.04711777       0.14755305
H       15.77211466     -17.00649700       9.51148200       0.27575781       0.04925476      -0.00148437
O        3.30197954     -14.64713271     -13.36503725       0.25492664       0.05461314      -0.17977693
H        4.24013724     -14.83222323     -13.15672876       0.47798721       0.03505481       0.00381701
H        2.71733061     -15.16846358     -12.82205482       0.15568745      -0.13007550      -0.24552390
O       -5.75798933       1.62486935       2.87718232      -0.11238696       0.34812949       1.04651111
H       -6.49280737       1.11692882       2.41530392      -0.04451488       0.09094848      -0.04663744
H       -5.62051849       2.51714435       2.58388607      -0.43454346       0.30237498      -0.32713573
O       -5.35597676      16.12386212      25.90464359       0.39793043       1.18217485      -0.90580598
H       -5.48013125      15.69507238      25.07325288      -0.07412743       0.35362850      -0.16953663
H       -4.21318915      16.10326602      26.16840615       0.00719262      -0.22083166       0.21537964
O        7.52448367     -15.67306892      -8.43501072       0.91657910       1.15943563       1.16170687
H        8.01795062     -16.43502151      -8.16287774       0.11190740      -0.30612328       0.23155908
H        6.58967960     -15.45340388      -8.06061192       0.32978462      -0.23668549      -0.10487940
O       13.66794133       8.54444748      17.98734868      -0.28651960      -0.08665260       0.65846174
H       14.11793436       8.67214874      17.08417897       0.07907035      -0.00948868      -0.13500467
H       14.21046229       8.07224122      18.65930424      -0.03368255       0.09174421       0.48839234
O       -0.17824677       1.24281232      -1.21480074      -0.71176711       1.06937075      -0.09663658
H        0.81748229       1.27679590      -1.22319793       0.15290759      -0.29267653       0.03514256
H       -0.45519993       0.48705876      -0.80045394      -0.20235099      -0.17775309       0.15310430
O      -14.16704890      12.67303818      15.75346648       1.02179794       0.63296847      -1.12031490
H      -13.75256957      12.33768767      14.86351065      -0.03433013      -0.05365539       0.19301801
H      -14.87481024      12.17152135      16.17151665      -0.17093392      -0.49121716       0.03519137
O      -16.34775930       5.93468166      12.31779483       1.66850755       1.40192158      -0.81018466
H      -16.86528568       5.89110769      11.51417799       0.25580527      -0.27037564       0.27652967
H      -16.19199671       6.99167391      12.29933089      -0.21602427      -0.60902508       0.09164490
O       -9.96852522      32.89594423      -9.58860862      -0.28237944       0.57553917      -0.19106015
H       -9.09466569      32.59848097      -9.38129194       0.26700927       0.01005612      -0.06259642
H      -10.72304494      32.39407436      -9.71445773      -0.32983163      -0.65195696       0.19841562
O       34.78260308      11.48590455      21.36045874       0.30752464       0.27402158      -0.60058171
H       34.71610879      11.73987794      20.52812562       0.12900727      -0.06170761       0.14593570
H       35.30323500      10.74371707      21.75153523       0.52158872      -0.30925294      -0.00636244
O       30.37555783     -12.58936286       2.14161238      -0.94984905       1.94614631      -1.00387114
H       29.59492200     -12.18861066       2.49218232       0.19826640      -0.20167844       0.17994046
H       30.11270098     -12.77509988       1.20823003       0.21747482      -0.11175084       0.41721250
O       17.57617761       9.23626659      -7.43322747      -0.08587401      -1.13385137       0.12033239
H       17.24402664       8.48933833      -7.72365966      -0.33499715      -0.02575997       0.12285005
H       17.46116706       9.54746542      -6.53076635       0.22006099      -0.23653001      -0.21074257
O       -5.11784292       2.57381929      32.20075071       0.42272707      -0.27105783       0.51592157
H       -5.90406617       2.04271318      31.94651418       0.52923742      -0.04531917       0.47709110
H       -4.31002716       2.11818504      32.47127400      -0.11977055      -0.00360223      -0.03455436
O        3.84765416       0.88606937      -0.22317114       1.79047872       0.18902127      -0.46882194
H        3.42178346       0.03153896      -0.33532645      -0.09190520       0.19920504       0.07119987
H        4.22166446       1.12021300      -1.10153175      -0.10575541       0.15823655       0.57805375
O       23.20560857       3.23613235      11.66559434      -0.31931363      -0.01216888       0.14757055
H       23.36605791       3.62915842      12.45469744       0.14042643       0.36061374       0.11594386
H       23.80152586       2.48486614      11.69743894      -0.07353707      -0.15922787      -0.27767160
O       -1.43529952      31.84120307      15.05390079       0.34650434       0.27973144       0.92652447
H       -2.10483482      32.39994976      14.69450297      -0.09978812       0.26607112       0.00616371
H       -0.59412177      31.64443173      14.55439230      -0.15299641      -0.22914464       0.09326875
O        4.83121292      19.39883380       5.21215574       0.63078910       0.56413045      -0.42248560
H        4.09135305      19.10089421       5.71024657      -0.50024437      -0.01713439       0.40495108
H        5.58866843      18.78951723       5.21902804      -0.47217572      -0.04476119      -0.07044248
O      -10.20004737      10.50142204       9.51334788      -0.99194610       0.19434047       1.23215030
H      -10.80719977      10.84342480       8.97498486      -0.28468944       0.06410191       0.19131580
H      -10.35850091      10.77445902      10.46029897       0.34465129      -0.17736348      -0.27007360
O       17.69844356      17.76278396      26.08139515       0.12970483       0.37672375      -1.86353225
H       18.39278112      17.07498954      26.13763241      -0.25201119      -0.34681103       0.26690193
H       16.86779814      17.32061322      26.07879324       0.18072782       0.04715536       0.07769206
O        6.92204257      18.69108785      10.14375309      -0.13193025       0.09969033       0.14326425
H        7.29678578      19.35684118       9.54362020       0.00889600      -0.05870191       0.26233119
H        6.42450618      18.03866586       9.69286497      -0.39465472      -0.12510122       0.09361201
O       -0.66945294     -13.82027646      13.26340396      -1.05152923      -0.37169428       0.03205221
H       -1.46748064     -14.25757380      12.87786736      -0.42783671      -0.07386384      -0.02520140
H       -0.12824418     -14.55303727      13.37622954       0.41199106      -0.05800697      -0.15656728
O        1.13136700       6.03834775       1.12699429      -0.29834483      -2.02266261       0.34973115
H        1.60341739       5.29522214       1.18391727      -0.18801250       0.38504872      -0.15359182
H        1.07552450       6.60503067       0.28376749       0.29173269      -0.01438819       0.43946865
O        3.18694348       1.29300613       8.37863279       0.49094660      -0.65660536       0.00335601
H        2.27127277       1.19835768       8.28532336       0.88106059       0.28080517       0.06942776
H        3.31332709       1.30144344       9.35377556       0.16460778      -0.24633193       0.21285132
O      -18.81835683      28.83903781     -16.17795145      -0.46292394       0.66087073       0.27882734
H      -18.70921483      29.11763053     -17.02523025       0.52891880       0.20454538      -0.49606609
H      -18.20830139      28.46399427     -15.70960239       0.17946924       0.19564498      -0.21662103
O        2.90972617      26.83381057      -9.10067825      -0.56499142      -1.12805998      -0.95944308
H        3.53210933      27.12751479      -8.21446396       0.64854229       0.35678610       1.04730188
H        2.04418262      26.38145608      -8.90531457       0.08383184       0.39300644       0.00364401
O      -18.11398355      18.97595238       1.94159930      -0.92832829      -0.64343661       0.93081755
H      -17.62741279      18.86140488       1.21516578      -0.10488416      -0.09271455      -0.47423497
H      -18.90472403      18.56515048       1.82677667      -0.15063400       0.02279458       0.10011473
O       11.70411121      17.57544234       7.02856333      -0.08181640      -0.29152387      -0.34438384
H       12.53106008      17.34388728       6.54765572      -0.00474556       0.28286681      -0.39222891
H       11.16095420      18.24950508       6.63770178       0.02481214       0.09347245      -0.16794465
O       -7.20933031     -11.23421160       5.17568169       0.54167078       0.22415599      -0.57721538
H       -6.64976968     -11.41561563       4.33293821      -0.43678723      -0.44876548       0.01348701
H       -7.42634819     -12.01653135       5.66294846       0.03473479      -0.31141283      -0.01433234
O      -24.15612122       3.35581518      10.71545167      -0.44632750      -1.01099294       0.39615356
H      -24.85303549       3.96622082      10.45704402      -0.32576100       0.03586837      -0.04793801
H      -23.42763572       3.67046345      10.33470906      -0.01431953      -0.17466587      -0.05593118
O      -11.44589641      -8.26174951      18.45528380      -0.41063960      -0.92306656      -0.18419705
H      -10.75566108      -8.73086952      18.89458756      -0.19050777      -0.13385444      -0.39859061
H      -11.39564697      -8.10980714      17.53952058       0.04769204       0.00570786       0.44690647
O        8.54398052       7.37303054      16.86813215      -2.01225683       0.85531242      -1.00715226
H        9.49752635       7.29933529      16.88631650       0.32269167      -0.09673536       0.12322264
H        8.10116126       6.95339464      16.13142704       0.07388630       0.27889689      -0.11475358
O      -11.61285009      -0.47796301      20.43549623       0.06621873      -0.04427499      -0.40769534
H      -12.50222738      -0.21406258      20.72870952       0.11710252       0.15548049       0.18809053
H      -11.75625585      -0.54143780      19.50296113       0.23752611      -0.00884639       0.49485207
O       24.13244148       2.50614365      16.19257736      -0.68561160       1.22712292      -0.16054979
H       24.00651480       2.29589011      17.10786093       0.12645663      -0.20819920      -0.10652740
H       24.13889913       1.67122836      15.78214805       0.23364431      -0.57710238      -0.18838194
O       -5.67356305     -17.93350874      -5.07166291       0.57523837      -0.41262769      -1.59957275
H       -4.69823753     -17.91451440      -5.11823098      -0.19620686       0.26794957      -0.17553005
H       -5.94552715     -18.62508184      -5.66143089      -0.55443130       0.53891940       0.22042326
O       29.40081401      -8.94592560      -6.16494969      -2.19058049       0.72617556      -0.09637825
H       30.28906770      -9.08505207      -6.56752794       0.43612865      -0.36463741       0.16499918
H       29.01366651      -9.76353359      -5.88791761       0.23839252       0.40896284      -0.02620345
O        8.84039552      -0.64535976       3.45889320       0.77488122       0.77459773       0.90307935
H        8.35299937      -0.00322563       2.87761187      -0.04095276      -0.11155120       0.16405092
H        8.44702688      -1.55678768       3.45740540      -0.01693423      -0.18848925      -0.29126614
O      -19.77878956      -3.13529603      24.77709939      -0.34569558       0.98508196       0.24686065
H      -19.96646629      -3.92233917      24.30534949      -0.03852127      -0.47486224      -0.37948181
H      -19.15838010      -3.40587447      25.40794396       0.38143130       0.18257024       0.24659460
O        2.45390216      -5.74459428      -6.01233229       0.92483930       0.38260418       1.04642457
H        2.39242260      -5.63658715      -4.99907269      -0.02104769       0.10085246      -0.30026880
H        2.02604566      -6.61358493      -6.06518971       0.47619666       0.54903515      -0.02517715
O        9.90661500       8.23556783       7.95786764       1.19080984      -0.95005694       0.26331924
H       10.36020022       8.71171506       7.25449249      -0.12708090       0.19303872      -0.01552193
H       10.05590149       7.30185554       8.11334710      -0.17812256      -0.12680442      -0.47529448
O        5.37262540       9.73919363      -4.86993477      -0.11849088       0.05645136      -1.16544988
H        6.15013673       9.25162239      -4.76984141       0.46613110      -0.23439026       0.08746597
H        4.72556265       9.56099188      -4.13545848      -0.08301299      -0.10535998      -0.21256896
O       13.72781717      29.40988688      15.89644308      -0.90439876      -0.94916225       0.65909461
H       12.82844100      29.10078919      16.02658132       0.15165569       0.21628222      -0.14631355
H       14.33240583      28.69924647      15.83994601      -0.10836310      -0.07569150      -0.09230419
O       -2.82639191       3.98505987       1.71344916      -0.11712735      -0.00318680       0.77745960
H       -2.43146266       3.44197423       2.43034956      -0.57711129       0.20739778      -0.47792047
H       -2.68722645       4.94548251       1.86883452       0.03928857      -0.26742428      -0.01938870
O        7.85055481     -14.01695064      10.92242268       0.61008924      -0.04624029      -0.35356255
H        7.05482912     -14.33128872      10.79886689       0.24107004       0.18607331      -0.26054490
H        8.19345638     -14.24710069      10.04290452       0.13273461      -0.17383495      -0.49248855
O       -2.51177025      10.57354657      24.31236458      -0.36337509      -0.00157346      -0.65743737
H       -2.18920015      10.14951473      23.46860444      -0.46048161       0.43622723       0.21093709
H       -3.26698309      11.22919048      24.21349009      -0.41593348       0.16773862      -0.39028167
O       20.04465002      21.77009566       1.54329367       0.06737588       0.84000395      -0.81561028
H       19.90846254      22.05373713       2.37609227      -0.29736548      -0.21350105       0.35008003
H       19.68715080      20.83668203       1.45760292      -0.30204404      -0.26130356       0.25542201
O       12.19886610      10.01207925     -15.89077507       0.76503681       0.30881192       0.30616723
H       12.77844285       9.24312346     -15.68513738       0.24495913      -0.35221438       0.01653708
H       12.51409129      10.09233119     -16.69602232      -0.18919432       0.24489579       0.13553345
O      -11.38525394      22.26499607       1.03024448       0.40038735       0.11102955      -0.83696664
H      -11.78677780      21.50324830       1.12849603      -0.05535027       0.03563019       0.22819733
H      -10.97115899      22.65942477       1.82922482      -0.19828495      -0.16093267       0.15642003
O        2.91951096     -15.04353554      16.06575572      -0.45493594       0.00359576      -1.42998865
H        3.24839253     -15.64397561      16.74448959      -0.02228140      -0.05686990       0.31945353
H        3.68943054     -14.51853979      15.87698143      -0.09151896      -0.35498750      -0.09649957
O        2.38698575      16.28667115       0.37176682      -0.58743415      -0.63256085       0.55601915
H        1.73820244      16.24229314      -0.48466041      -0.40710139      -0.07984825      -0.23602233
H        3.04680395      15.62196344       0.54041009      -0.00505926      -0.09859192      -0.22627789
O       -5.78062180      -7.33054004       5.61307424      -1.70983290      -1.32766463       1.02845726
H       -5.19870125      -7.80142967       6.28037921      -0.15356846       0.34502218      -0.04164003
H       -5.16497724      -6.89815672       5.06424002       0.22307336       0.06988736      -0.35949955
O       -2.15517752       2.43009924       6.64925322       0.10184726      -0.32614168      -0.14006255
H       -2.17964389       3.36172421       6.78430151       0.09468871       0.53812297       0.14682194
H       -1.74613277       1.79607786       7.34942155       0.02205534       0.48988510      -0.27541061
O       13.20816016      -5.53563448      -1.47522273       1.40252902      -0.55688257      -0.32374665
H       14.04269403      -5.32224374      -1.94625824      -0.30825264      -0.48263057       0.15251019
H       13.01685169      -6.41615109      -1.53313280       0.06905204      -0.47201967       0.00862246
O       11.81586556       4.87641207      22.73895473       0.03949935      -0.51766470       0.02517160
H       11.17205919       4.23295530      23.06315441      -0.25120790       0.11897719       0.35019429
H       11.98630162       4.67661389      21.77808704       0.13724882       0.00472897       0.00035797
O        8.11130435      14.46047562      23.87510991      -1.08712353      -0.10292732       1.43133074
H        9.01780306      14.78862169      23.58543915      -0.12790154       0.01185455      -0.35950637
H        8.24834627      13.56607871      23.87786805       0.00030792      -0.34307899      -0.20784731
O       -8.04141937       6.95785546      11.40965347       0.42835565      -0.92092946       0.11835258
H       -7.28616264       6.73181949      10.90523788       0.06858708      -0.00895962       0.10980349
H       -8.33300081       6.62223867      12.27779947       0.42912803       0.31802464      -0.04278004
192
Lattice="12.74476216954151 0.0 0.0 -5.289800016196693e-07 12.74476216954151 0.0 -5.289800016196693e-07 -5.289800016196693e-07 12.74476216954151" Properties=species:S:1:pos:R:3:momenta:R:3 step=150 time_fs=15.0 phase=production pbc="T T T"
O       11.69521263       0.73534025     -16.45946577       1.54251740       0.11615814       0.12355576
H       12.13318426       1.10897460     -15.65648787      -0.02646060       0.01559653       0.27491860
H       10.98943554       0.13757650     -16.14793444       0.19778605       0.01788211       0.54365187
O       26.39226604      24.80048050       4.98498022       0.28698518       0.61571140       1.80787890
H       26.76535266      23.94184056       4.57571993       0.22536267      -0.26937874      -0.15286758
H       25.73638766      25.14204009       4.36321180       0.26744652       0.13166827      -0.07567305
O        4.54657029      -0.33461483       6.57580241      -0.03888422      -0.52541158      -0.91942791
H        5.20268763      -0.98611496       6.75365781      -0.03592938       0.30077285      -0.10644583
H        4.33426418       0.29720775       7.28032858       0.20208357      -0.07978825      -0.09019611
O       -2.88399722      -4.35462971       1.08891649      -0.64584895       1.05643205       0.76715903
H       -2.65932831      -3.82053192       0.34411155       0.09378444      -0.32752639       0.08751029
H       -3.71671154      -4.02691339       1.32173745      -0.11211666       0.17560172       0.01710635
O        4.31854315      15.90177804      10.71373664       0.52688835       1.02615382       0.20022173
H        4.26832441      16.78673282      11.02445064       0.07901465      -0.14483196      -0.23952270
H        5.00846112      15.89643524       9.99185634       0.14177208       0.02552204      -0.50920717
O       -1.36285884       6.55272136       5.15575648      -0.07206960      -1.62287701       0.33597882
H       -1.78914122       6.27611190       4.35646631       0.20227727       0.24801670       0.43369295
H       -0.69294803       7.21441913       5.24338302      -0.16853531       0.28692308      -0.29127587
O       22.81529908      12.31731781       5.76787546       0.47925041      -0.05130179       0.12808577
H       23.18726946      13.25766854       5.90369035      -0.17886168       0.12126548      -0.19914185
H       22.09694316      12.29528513       5.20332648      -0.57486233       0.11503401       0.29323521
O       -1.12233063     -15.75234502       6.78131175      -1.29101962      -0.53002720      -0.55896134
H       -0.68898579     -16.19251380       6.03034742      -0.24240726       0.02171639       0.22764113
H       -1.30068616     -14.90308338       6.62426336       0.06806890       0.45257549      -0.07293524
O       15.47908715     -17.93892939       9.68882797      -0.47058094      -0.44555789       0.11606358
H       16.27728377     -18.33665746      10.11656622       0.67722320      -0.11424793       0.19686748
H       15.79512672     -17.00579824       9.51207061       0.20626078      -0.05606675       0.02291989
O        3.30410453     -14.64621072     -13.36558273       0.51428904       0.05473545      -0.17650643
H        4.27681789     -14.82944468     -13.15848856       0.25185090       0.01026532      -0.05628654
H        2.73167096     -15.18211654     -12.84389246       0.13769449      -0.16948764      -0.20570258
O       -5.75903427       1.62644165       2.88334316      -0.29734979       0.22585903       0.98714072
H       -6.48793606       1.13399808       2.41523980       0.13152252       0.25198958       0.04471382
H       -5.66439691       2.54488510       2.54969725      -0.47180240       0.23545324      -0.35592386
O       -5.35274901      16.13065528      25.89857915       0.58246746       1.23986146      -0.73147200
H       -5.48486170      15.72588066      25.05150626      -0.02736715       0.29374786      -0.25158165
H       -4.22240499      16.08236702      26.18538570      -0.20158314      -0.19379520       0.15268705
O        7.52915376     -15.66494817      -8.42741091       0.75548174       1.23299734       1.20494293
H        8.02543436     -16.46526114      -8.13929916       0.02645281      -0.29157953       0.23115600
H        6.63451160     -15.48188715      -8.07388056       0.56700684      -0.35257538      -0.16252813
O       13.66621701       8.54342759      17.99021280      -0.08952296      -0.13640176       0.51988114
H       14.11905635       8.66751843      17.08633908      -0.04459073      -0.07703632       0.19419491
H       14.20182240       8.08558658      18.69827938      -0.13648773       0.19331878       0.31889107
O       -0.18173025       1.25021279      -1.21600348      -0.43707482       1.31063884      -0.28753263
H        0.82084809       1.24691746      -1.21935801      -0.08900333      -0.31824588       0.04292748
H       -0.47829177       0.45623597      -0.77746134      -0.25471608      -0.40895590       0.29384996
O      -14.15995736      12.67611283      15.74537655       1.06433745       0.51001684      -1.27960126
H      -13.76162406      12.33495345      14.89141129      -0.15820591       0.00527031       0.38275103
H      -14.88829082      12.12503507      16.17094647      -0.08687579      -0.42602198      -0.05115334
O      -16.33660670       5.94391396      12.31250848       1.75756955       1.66054508      -0.72628837
H      -16.84409616       5.86088768      11.53599001       0.15019578      -0.34753304       0.15774779
H      -16.21223316       6.92096986      12.31104992      -0.20727048      -0.80962451       0.15768878
O       -9.96953579      32.89900881      -9.58931706      -0.22134400       0.78988803      -0.16988655
H       -9.07087483      32.59456576      -9.38678192       0.18595123      -0.05030623      -0.06411602
H      -10.75707537      32.32060808      -9.69585281      -0.30729653      -0.77488572       0.18221309
O       34.78345974      11.48613201      21.35813590       0.44615048      -0.06701188       0.12871404
H       34.72840798      11.73756681      20.51631889       0.15287076       0.02315539      -0.36522593
H       35.34621704      10.72354763      21.73914055       0.37447546      -0.07556060      -0.23751137
O       30.36888828     -12.57704378       2.13510947      -0.79199654       1.90549152      -1.04036950
H       29.60380489     -12.20202122       2.51681489      -0.00404416      -0.07822690       0.33290321
H       30.13449836     -12.78584274       1.24681942       0.24140019      -0.13109956       0.32500517
O       17.57562764       9.23037690      -7.43179262       0.13508392      -0.69883090       0.20678979
H       17.20162035       8.46150672      -7.71827924      -0.51172312      -0.51485304      -0.01122877
H       17.48288047       9.52368425      -6.54767097       0.23606016      -0.23086308      -0.10779404
O       -5.11514279       2.57243200      32.20266354       0.41086661      -0.11460079       0.53989368
H       -5.85106323       2.03582776      31.99204339       0.51563690      -0.11856547       0.47372419
H       -4.32205336       2.11549689      32.46603974      -0.11478101      -0.05662273      -0.04014974
O        3.85862959       0.88723113      -0.22607926       1.81020333       0.19105276      -0.41555187
H        3.41098120       0.04869882      -0.32790250      -0.13194240       0.14572262       0.08067394
H        4.21126994       1.13813343      -1.04366833      -0.07403206       0.22968404       0.54204444
O       23.20261341       3.23542640      11.66502686      -0.33175892      -0.15524613      -0.12656966
H       23.37966038       3.67546562      12.48364884       0.15045314       0.56125856       0.43229600
H       23.79425863       2.46695475      11.66754046      -0.06371464      -0.19402030      -0.32225690
O       -1.43260964      31.84124787      15.05902022       0.48884341       0.17090014       0.93590573
H       -2.11310448      32.42833324      14.69095801      -0.05842967       0.33008458      -0.05918587
H       -0.61739268      31.62447029      14.56529251      -0.31654884      -0.15576959       0.13870525
O        4.83484179      19.40170624       5.20927711       0.53163966       0.62871392      -0.40709306
H        4.04297496      19.09861602       5.75064952      -0.43218902       0.00878233       0.38937762
H        5.54077748      18.78412650       5.21120364      -0.47580992      -0.07313503      -0.08408131
O      -10.20468991      10.50156283       9.52174333      -0.66764769      -0.01469417       1.54558408
H      -10.85044989      10.85878026       8.97974876      -0.59030576       0.24622550      -0.06548258
H      -10.32341389      10.75580731      10.42797741       0.35633414      -0.17825639      -0.32482842
O       17.69929511      17.76439259      26.06883211       0.39025069       0.37775096      -1.88194384
H       18.36546310      17.04490690      26.16250353      -0.29226338      -0.25087743       0.26342566
H       16.87624371      17.32165162      26.08567050      -0.00274481      -0.01291467       0.08497297
O        6.92101090      18.69124915      10.14444033      -0.13532666       0.17016235       0.21463273
H        7.29631835      19.34874396       9.56875581      -0.00688623      -0.08106467       0.24965685
H        6.38486184      18.02277723       9.69882055      -0.39680405      -0.16436367       0.04987154
O       -0.67673557     -13.82189623      13.26282006      -1.32115049      -0.38338724      -0.04820520
H       -1.50721429     -14.25908144      12.87537198      -0.36360030       0.03822449      -0.00523379
H       -0.07854000     -14.56455982      13.36306899       0.57444116      -0.15271106      -0.11139544
O        1.12837552       6.02770978       1.12865715      -0.66381433      -1.37293417       0.22951078
H        1.59934856       5.31018587       1.16699432       0.11123056      -0.07925249      -0.19284181
H        1.10588388       6.59423519       0.33439020       0.32971548      -0.18672403       0.57844470
O        3.19122833       1.28903505       8.37897528       1.01725167      -0.61465849       0.24472070
H        2.33424542       1.22230938       8.28652432       0.34258429       0.20367416      -0.04674932
H        3.33091345       1.27796612       9.36731006       0.19729728      -0.23236375       0.05791838
O      -18.82198652      28.84233601     -16.17545956      -0.94776488       0.82068520       0.22458725
H      -18.65299832      29.14095529     -17.08773087       0.59362301       0.26354309      -0.69917802
H      -18.17028363      28.47088669     -15.71752821       0.57634018      -0.02364689       0.03297892
O        2.90623463      26.82576910      -9.10553403      -0.49799685      -1.11704956      -0.75471155
H        3.58614899      27.15491934      -8.12356178       0.46716739       0.22801930       0.81349462
H        2.06221561      26.42234072      -8.90386009       0.24855443       0.44797479       0.02992127
O      -18.11875753      18.97199097       1.94860098      -0.85040193      -0.42156380       1.30603830
H      -17.62166811      18.84881934       1.14781222       0.15942527      -0.14010231      -0.83861655
H      -18.93668657      18.55764506       1.83514164      -0.48918203      -0.14487077       0.07613061
O       11.70345491      17.57264020       7.02602005       0.01614800      -0.37811964      -0.40267794
H       12.52327624      17.37455523       6.51154705      -0.14577283       0.35768236      -0.33882627
H       11.16480038      18.25905408       6.61901626       0.06911140       0.10712551      -0.20208582
O       -7.20532232     -11.23223991       5.17120965       0.65727056       0.24206184      -0.79235305
H       -6.69810336     -11.45781305       4.34445352      -0.55292344      -0.42121570       0.21575425
H       -7.42223415     -12.04737088       5.65893325       0.04778236      -0.30576886      -0.07477197
O      -24.15909233       3.34897665      10.71814618      -0.84377055      -1.14224848       0.60512159
H      -24.88612012       3.97156321      10.45191090      -0.34988572       0.05688419      -0.04087354
H      -23.40696674       3.66069922      10.31730459       0.39463343      -0.03228234      -0.28196080
O      -11.44857490      -8.26685202      18.45429664      -0.62903263      -0.84262384       0.12692360
H      -10.76692975      -8.74725215      18.85643757      -0.03276729      -0.22303986      -0.35326250
H      -11.38837074      -8.10881933      17.56533831       0.09107262       0.01669609       0.06279937
O        8.53152227       7.37828004      16.86155245      -1.89583611       0.95595861      -0.90089651
H        9.52250532       7.28999757      16.89595072       0.16485723      -0.08605644       0.08658150
H        8.10825402       6.97714284      16.11516311       0.07357661       0.20865830      -0.21543916
O      -11.61220870      -0.47813803      20.43269256      -0.00732363      -0.01213282      -0.19067183
H      -12.48942235      -0.19825788      20.74893088       0.13744397       0.16807063       0.24226500
H      -11.73107083      -0.54353410      19.53783029       0.26321416      -0.03771091       0.19438869
O       24.12733150       2.51385876      16.19067065      -0.65941911       1.24980279      -0.27119335
H       24.01631569       2.27715631      17.10699728       0.09643947      -0.17419577       0.08788696
H       24.16141399       1.60979617      15.75755820       0.24617527      -0.60882785      -0.26455298
O       -5.66945644     -17.93497103      -5.08101937       0.67470618      -0.27274851      -1.49016834
H       -4.71700318     -17.88468630      -5.13314883      -0.17330403       0.32590255      -0.13912688
H       -6.00586239     -18.57834704      -5.64634019      -0.69709195       0.38077537       0.06312276
O       29.38699264      -8.94069361      -6.16581271      -1.88286770       0.88675982      -0.28819975
H       30.31860983      -9.11894207      -6.54614354       0.17644682      -0.33016681       0.27459052
H       29.03360484      -9.73202910      -5.88656811       0.17561598       0.19362408       0.06336572
O        8.84447851      -0.64080364       3.46401782       0.67570930       0.67846030       0.82114788
H        8.35094765      -0.02153613       2.89986893      -0.00245348      -0.24922551       0.28300885
H        8.44741826      -1.56466531       3.42833796       0.03671179       0.03258490      -0.29921683
O      -19.78042163      -3.12884900      24.77736253      -0.42998731       0.99151465       0.16134121
H      -19.97139614      -3.97002390      24.26343069      -0.05689417      -0.43385112      -0.40925748
H      -19.11335807      -3.38689390      25.43853870       0.48441656       0.21508669       0.35886724
O        2.45954004      -5.74171781      -6.00508315       0.97430550       0.53482700       1.21640482
H        2.39214001      -5.62424642      -5.03382921       0.01709914       0.15263144      -0.38868903
H        2.06941514      -6.56686959      -6.07110962       0.38563446       0.34043638      -0.10847830
O        9.91340194       8.22938438       7.95918918       1.15111486      -0.94290165       0.26856673
H       10.34844622       8.72693404       7.25481028      -0.10823854       0.12385736       0.02950200
H       10.04073307       7.29364582       8.06360008      -0.12275243      -0.04577319      -0.53606245
O        5.37093635       9.73923157      -4.87673098      -0.29293041       0.04896690      -1.11371569
H        6.20034154       9.22433912      -4.75999690       0.50742005      -0.28107668       0.10282381
H        4.72295772       9.55196860      -4.16267406       0.02823667      -0.07403864      -0.34042132
O       13.72172471      29.40336997      15.89997581      -0.86330643      -0.78086175       0.69752313
H       12.83871392      29.11800387      16.01185562       0.03977986       0.15000827      -0.13864100
H       14.32495183      28.68523612      15.82974723      -0.03750170      -0.18088705      -0.10336399
O       -2.82714509       3.98490389       1.71792935      -0.19949543       0.01703593       0.64358676
H       -2.48752503       3.46254736       2.38431281      -0.54336477       0.16926336      -0.40530558
H       -2.68213768       4.91612746       1.86741758       0.06708265      -0.29281916      -0.00417996
O        7.85628887     -14.01603280      10.91949937       1.35408414       0.14182776      -0.48785387
H        7.04128765     -14.32716984      10.77234175      -0.49621266      -0.10498223      -0.27256176
H        8.20589285     -14.25973802      10.00006881       0.12013529      -0.08807619      -0.34731292
O       -2.51420249      10.57352237      24.30713254      -0.49301097       0.16773009      -0.67583933
H       -2.23653288      10.19494090      23.49420172      -0.48911275       0.47240084       0.27983802
H       -3.29880980      11.23497071      24.17390665      -0.23274903      -0.04294633      -0.39468174
O       20.04417439      21.77307746       1.53699749       0.02630870       0.42822993      -1.15898449
H       19.87548700      22.03910550       2.42789374      -0.35317262      -0.08712786       0.65942573
H       19.66243661      20.82190713       1.48296553      -0.18199864      -0.01345299       0.26478760
O       12.20285170      10.01277933     -15.88651791       0.70893389       0.03787183       0.86496339
H       12.79564482       9.21569849     -15.68167894       0.11028594      -0.19173612       0.03937842
H       12.50288186      10.12073418     -16.71070359      -0.03546204       0.34925399      -0.44401969
O      -11.38128857      22.26664833       1.02496550       0.71883155       0.67950633      -0.86939959
H      -11.80388299      21.47939725       1.15554714      -0.28948810      -0.47033505       0.32312669
H      -10.99270688      22.63896255       1.84126098      -0.24854488      -0.23391860       0.09748234
O        2.91643395     -15.04318197      16.05647618      -0.51378336      -0.11927062      -1.35061667
H        3.24416897     -15.64916999      16.77445224      -0.07228297      -0.04074279       0.28506633
H        3.68443138     -14.54716717      15.86381666       0.00809988      -0.23447309      -0.16483105
O        2.38271745      16.28241212       0.37459641      -0.76716344      -0.54255279       0.37360627
H        1.70930340      16.23145766      -0.49504653      -0.18658349      -0.12787146       0.01885123
H        3.04403490      15.60797877       0.51539917      -0.05093665      -0.17256008      -0.28647608
O       -5.79045701      -7.33874582       5.61961418      -1.55511079      -1.40069175       1.12139009
H       -5.21999151      -7.76665075       6.27436810      -0.26925239       0.34879133      -0.05719275
H       -5.14250140      -6.88850105       5.02543235       0.19650936       0.09443017      -0.39842663
O       -2.15425179       2.42727153       6.64847324       0.14907411      -0.46892719      -0.05331004
H       -2.16724263       3.41345967       6.80104516       0.16009857       0.46961932       0.19324095
H       -1.74874666       1.85529797       7.31350705      -0.05523639       0.69372692      -0.41854031
O       13.21649440      -5.53797201      -1.47690247       1.42646281      -0.35160436      -0.22029888
H       14.01387882      -5.36976137      -1.93302662      -0.22241517      -0.48355880       0.08926658
H       13.01955260      -6.47481330      -1.53490625       0.00890754      -0.67649338      -0.04107340
O       11.81578391       4.87275346      22.73783321       0.08189529      -0.61807722      -0.07626366
H       11.14740912       4.24585596      23.09550925      -0.23313200       0.15876027       0.32370067
H       11.99634779       4.67858587      21.78502496       0.07648446       0.03653039       0.15672917
O        8.10506894      14.46050859      23.88257086      -0.83395247       0.24890218       1.31370241
H        8.99364942      14.78871987      23.55426129      -0.35504880       0.00218251      -0.25733626
H        8.24670137      13.51541726      23.85840974      -0.03485385      -0.62824684      -0.17192510
O       -8.03925286       6.95226626      11.41019968       0.18675103      -0.79541741       0.16889645
H       -7.27236610       6.72505907      10.91546362       0.20685932      -0.12219424       0.11058659
H       -8.28445904       6.65061600      12.26829269       0.54618252       0.25597392      -0.10303126
192
Lattice="12.744245998364173 0.0 0.0 -5.289585775847135e-07 12.744245998364173 0.0 -5.289585775847135e-07 -5.289585775847135e-07 12.744245998364173" Properties=species:S:1:pos:R:3:momenta:R:3 step=160 time_fs=16.0 phase=production pbc="T T T"
O       11.70435313       0.73597891     -16.45752334       1.58599791       0.09760988       0.30313212
H       12.12647745       1.10728578     -15.63428002      -0.09908764      -0.04764108       0.16299205
H       11.01107898       0.14220554     -16.09626959       0.25821485       0.07939199       0.49683681
O       26.39323760      24.80244981       4.99542866       0.38394313       0.34947248       1.66247520
H       26.78071952      23.92950621       4.56774340       0.11072418       0.04020426      -0.00571500
H       25.76347827      25.15334815       4.35771016       0.30620346       0.12338536      -0.03738966
O        4.54570283      -0.33736609       6.56963153      -0.19455956      -0.37149360      -1.01565320
H        5.20351349      -0.96305803       6.74835731       0.07341441       0.15650889       0.00514080
H        4.35393000       0.28702956       7.27351549       0.19960959      -0.11735690      -0.03369848
O       -2.88745472      -4.34855663       1.09378465      -0.54459701       0.86908314       0.84759294
H       -2.64454239      -3.84687895       0.34342383       0.20893827      -0.21322183      -0.10824314
H       -3.74101696      -4.00543948       1.32921215      -0.36284621       0.25255455       0.12865472
O        4.32210734      15.90666480      10.71375019       0.70185545       0.75766062      -0.07223330
H        4.27618737      16.78424751      11.00512754       0.08649357       0.12372974      -0.14392039
H        5.01562382      15.89794800       9.94994809      -0.00016925       0.02116712      -0.32880793
O       -1.36319042       6.54239309       5.15848859      -0.01309733      -1.62195402       0.66276202
H       -1.77001443       6.29749226       4.38823537       0.16309456       0.18059851       0.17840819
H       -0.70743307       7.24473162       5.21237451      -0.14474732       0.32395996      -0.33882250
O       22.81827015      12.31731000       5.76907885       0.74223185       0.20635850       0.30283850
H       23.16240280      13.25562217       5.88186921      -0.30742776      -0.14725423      -0.24062576
H       22.03143553      12.30683845       5.22437402      -0.70936358       0.13200277       0.17468493
O       -1.12997789     -15.75622257       6.77789236      -1.24076803      -0.86228579      -0.45918547
H       -0.71185223     -16.19057906       6.05167003      -0.21738603      -0.00568756       0.19576176
H       -1.29822434     -14.83779399       6.61277175      -0.00186063       0.80686481      -0.14415469
O       15.47630916     -17.94060271       9.68941321      -0.20870715      -0.34191219       0.21067519
H       16.33433263     -18.34480591      10.13195587       0.48624722      -0.05821211       0.11686583
H       15.81046955     -17.01734663       9.51542444       0.12029722      -0.19925820       0.05447988
O        3.30821924     -14.64523375     -13.36614421       0.87232356       0.07128441      -0.18320418
H        4.28680575     -14.82909368     -13.16702863      -0.04345269      -0.01578765      -0.12993838
H        2.74332921     -15.20115035     -12.86008676       0.10220238      -0.23500598      -0.13590171
O       -5.76102635       1.62794222       2.88901727      -0.40878274       0.31466928       0.90304403
H       -6.46963416       1.16315406       2.42229615       0.21399925       0.32565811       0.08846496
H       -5.71166815       2.55847167       2.51699387      -0.49870305       0.03535073      -0.30248381
O       -5.34840095      16.13769540      25.89343160       0.76291811       1.25823779      -0.61800553
H       -5.48482314      15.75200467      25.02420278       0.02520909       0.26240188      -0.27319827
H       -4.25242458      16.06437458      26.19553602      -0.42038295      -0.16115205       0.07437615
O        7.53397914     -15.65714189      -8.41965484       0.99322698       1.07166397       1.19103734
H        8.01978656     -16.48542573      -8.11924735      -0.14125259      -0.12038745       0.16636722
H        6.68918185     -15.51838281      -8.08759190       0.48900157      -0.39408779      -0.09901385
O       13.66568573       8.54205843      17.99239841       0.08303131      -0.19737863       0.44736076
H       14.10888148       8.65681954      17.11909790      -0.14204399      -0.13220698       0.47211049
H       14.18277111       8.10931568      18.71941209      -0.23821496       0.29707934       0.13245635
O       -0.18391255       1.25809252      -1.21785769      -0.30819517       1.22189330      -0.30521833
H        0.80089850       1.21496903      -1.21474455      -0.30579485      -0.33453462       0.05028198
H       -0.50066146       0.41818616      -0.74902917      -0.18670066      -0.32306808       0.26225386
O      -14.15317537      12.67813850      15.73684851       0.93017773       0.32285166      -1.24639063
H      -13.78037644      12.33640182      14.93314170      -0.21863662       0.02049344       0.44828087
H      -14.88716913      12.09071735      16.15841911       0.10461799      -0.25915803      -0.19483031
O      -16.32481832       5.95373035      12.30810329       1.86758072       1.52311810      -0.53436382
H      -16.83669601       5.82291666      11.54089460      -0.01980379      -0.42541068      -0.05675950
H      -16.22959952       6.84707391      12.32850443      -0.15622809      -0.60952210       0.20875008
O       -9.97085061      32.90228531      -9.58993770      -0.35543953       0.67427790      -0.15805088
H       -9.06101368      32.58795323      -9.39370365       0.00005098      -0.05094907      -0.08711765
H      -10.77212000      32.24907510      -9.67751517       0.01539790      -0.63809085       0.18595714
O       34.78531066      11.48415307      21.35995444       0.61280613      -0.40973090       0.68703766
H       34.74321529      11.74194691      20.46124313       0.18147563       0.06197844      -0.69225436
H       35.37204605      10.72954897      21.70339406       0.18494082       0.20556699      -0.47343622
O       30.36347792     -12.56479387       2.12916772      -0.58143435       1.93663911      -0.83371971
H       29.59245457     -12.20354157       2.55597608      -0.18307882       0.02414225       0.45654073
H       30.15522806     -12.80147306       1.26431973       0.20170486      -0.20566011       0.01764517
O       17.57616053       9.22624226      -7.43055199       0.23383899      -0.60279006       0.06865439
H       17.14742367       8.39809509      -7.72160802      -0.54864279      -0.70306313      -0.03500403
H       17.50535643       9.50292904      -6.54743980       0.23978964      -0.18733479       0.11005422
O       -5.11215867       2.57252382      32.20481889       0.50774697       0.19435337       0.58866723
H       -5.80935347       2.01545023      32.03466018       0.31210286      -0.31220781       0.42255293
H       -4.32926789       2.10616039      32.46171061      -0.02620204      -0.13383098      -0.01863543
O        3.86929101       0.88817471      -0.22760983       1.69723036       0.11310414      -0.05392039
H        3.39559498       0.05975679      -0.31978945      -0.17745847       0.08723804       0.08342713
H        4.21139385       1.16794407      -1.00601733       0.09270770       0.39261523       0.19895716
O       23.19989679       3.23430038      11.66385590      -0.23086208      -0.14388063      -0.05067978
H       23.39146588       3.72986620      12.52434776       0.10285288       0.51774511       0.35403477
H       23.78548615       2.44999916      11.63503511      -0.10390722      -0.13587478      -0.32676786
O       -1.42957118      31.84093797      15.06419052       0.43600952       0.17208579       0.95612487
H       -2.11336678      32.45893632      14.68331341       0.06651659       0.30921906      -0.07625177
H       -0.65224908      31.61062853      14.57829734      -0.36893998      -0.11041125       0.12226921
O        4.83670504      19.40506916       5.20700823       0.11482131       0.73200235      -0.25468458
H        4.01300637      19.10330410       5.78122539      -0.16791772       0.10654671       0.23384828
H        5.50030896      18.77001362       5.20235839      -0.33284176      -0.21432877      -0.09281522
O      -10.20780100      10.50043372       9.53040804      -0.52849775      -0.19907791       1.32209201
H      -10.91390890      10.88621281       8.96815674      -0.66963188       0.29813075      -0.12110128
H      -10.28980902      10.74218624      10.40700138       0.32067436      -0.08108343      -0.06317865
O       17.70174851      17.76590306      26.05619040       0.62606705       0.34068040      -1.89055179
H       18.33490825      17.02513944      26.18652822      -0.31459030      -0.14147298       0.25026513
H       16.86607966      17.31739857      26.09318076      -0.18055409      -0.05115547       0.09042571
O        6.91954257      18.69131431      10.14556612      -0.27389014       0.07047684       0.28683197
H        7.29579610      19.34130455       9.58927051       0.00665887      -0.04638049       0.16794563
H        6.35001689      18.00914051       9.70411094      -0.29547935      -0.08220076       0.07756117
O       -0.68538135     -13.82436067      13.26174531      -1.48300131      -0.63200830      -0.12583576
H       -1.53390166     -14.24860604      12.87722812      -0.16801197       0.16354857       0.05839772
H       -0.02415575     -14.57404269      13.35159240       0.50509473      -0.02321138      -0.12067189
O        1.12321037       6.02053545       1.13020617      -0.98905314      -0.94547016       0.34119099
H        1.62423043       5.28080779       1.14654773       0.38818944      -0.49949660      -0.22345277
H        1.13916753       6.57392548       0.38885586       0.35267153      -0.18354352       0.48720664
O        3.19952922       1.28535615       8.38109075       1.72076869      -0.57048520       0.55176182
H        2.33216211       1.23747002       8.27477338      -0.37344503       0.11248816      -0.18560075
H        3.35123232       1.25640599       9.36325643       0.22035244      -0.20833051      -0.13099588
O      -18.82801763      28.84689753     -16.17462347      -1.20191135       1.02954527      -0.16804147
H      -18.59484556      29.16112084     -17.14474048       0.57373752       0.15919695      -0.44642212
H      -18.09936046      28.46013834     -15.70561906       0.80948436      -0.14259064       0.16179960
O        2.90411948      26.81828194      -9.10925217      -0.08760917      -0.93818776      -0.57568285
H        3.62096294      27.16884726      -8.05759912       0.23159714       0.07344198       0.51448456
H        2.08207947      26.46172970      -8.89540703       0.10892411       0.36026350       0.15605450
O      -18.12277623      18.96883748       1.95638112      -0.70657753      -0.38629262       1.18778076
H      -17.60693601      18.83468994       1.06893095       0.08178138      -0.12752569      -0.71303016
H      -18.98944097      18.53961303       1.84164139      -0.55450187      -0.18558682       0.05804961
O       11.70322436      17.56950374       7.02295308       0.04916472      -0.40145548      -0.50705567
H       12.50267921      17.41107530       6.48132214      -0.25403978       0.39850130      -0.27847561
H       11.17418125      18.26716543       6.59926983       0.13280464       0.06877849      -0.19105042
O       -7.20087551     -11.23057999       5.16595491       0.67446847       0.13961832      -0.80032032
H       -6.75385330     -11.49659603       4.36951058      -0.57148179      -0.38929858       0.25748273
H       -7.41581153     -12.07074143       5.64635958       0.07871496      -0.16668555      -0.18096028
O      -24.16421262       3.34191385      10.72168217      -1.09596277      -1.08074814       0.65431570
H      -24.91505753       3.97404799      10.44925725      -0.24560997      -0.01313692      -0.00182704
H      -23.35824305       3.66053849      10.28338541       0.51900281       0.00936127      -0.37232638
O      -11.45272721      -8.27139292      18.45533051      -0.86442494      -0.74691620       0.43210320
H      -10.76009295      -8.77467205      18.82551440       0.15733526      -0.34307131      -0.26812105
H      -11.37743656      -8.10532990      17.54916694       0.12040275       0.04478175      -0.35756581
O        8.52022754       7.38417538      16.85575605      -1.66749214       1.05865948      -0.76874934
H        9.52558060       7.28227346      16.90158949      -0.10047107      -0.06561013       0.04280486
H        8.11465806       6.99327341      16.08764831       0.06741953       0.13103900      -0.33033298
O      -11.61198485      -0.47801881      20.43180003      -0.07380920       0.04528197       0.17263294
H      -12.47406159      -0.18141228      20.77382088       0.16812944       0.17701736       0.28279476
H      -11.70462004      -0.54907580      19.53493089       0.26908960      -0.07635401      -0.23757469
O       24.12239148       2.52078199      16.18791986      -0.63133185       1.02364073      -0.39288716
H       24.02390939       2.26189532      17.11874509       0.08259528      -0.13570522       0.13610786
H       24.18431914       1.56068820      15.73434456       0.24135226      -0.38436376      -0.18539200
O       -5.66499875     -17.93525382      -5.08939973       0.68523938      -0.05929534      -1.30803075
H       -4.72910978     -17.85043559      -5.14591916      -0.07349692       0.35679576      -0.13278547
H       -6.08075763     -18.55057230      -5.64998447      -0.83387464       0.18412448      -0.13518668
O       29.37551299      -8.93416920      -6.16810889      -1.46857820       1.11562812      -0.54125587
H       30.31992158      -9.14756316      -6.51369866      -0.12201194      -0.26061278       0.38050823
H       29.04329952      -9.72866791      -5.87342552       0.04344103      -0.13407272       0.20405816
O        8.84812475      -0.63723111       3.46888190       0.64853957       0.45948874       0.82892861
H        8.34926506      -0.04735889       2.92894768      -0.04255537      -0.25109682       0.29299553
H        8.45392145      -1.55075383       3.39946889       0.10365942       0.23980380      -0.28713909
O      -19.78217931      -3.12350389      24.77717241      -0.38318853       0.68772474       0.11755739
H      -19.97306002      -3.99812985      24.23033690       0.01227255      -0.13117017      -0.23490525
H      -19.07021302      -3.36226643      25.46809903       0.35740628       0.29105754       0.24309845
O        2.46589930      -5.73711651      -5.99727424       1.13754582       0.90247875       1.21132022
H        2.39531873      -5.60532251      -5.06705818       0.04724560       0.23529002      -0.25714500
H        2.09737196      -6.55494324      -6.08689728       0.18277733      -0.11887510      -0.22287739
O        9.91992628       8.22346690       7.96049852       1.10228511      -0.86649805       0.26404438
H       10.33801869       8.73496423       7.25949303      -0.09654832       0.04986941       0.06921959
H       10.03146321       7.29002372       8.00875385      -0.05833247      -0.03485078      -0.58047792
O        5.36931684       9.73869342      -4.88329566      -0.11829939      -0.10667250      -1.10413899
H        6.23909598       9.20148344      -4.75078572       0.26487673      -0.16542336       0.07731958
H        4.72857821       9.54510179      -4.19863694       0.07357074      -0.06398302      -0.38046931
O       13.71644913      29.39785111      15.90368347      -0.65607570      -0.64128583       0.71931709
H       12.83178902      29.12623662      15.99864327      -0.17461675       0.04005745      -0.11925006
H       14.32188594      28.66398407      15.81877047      -0.02839730      -0.21614889      -0.10662578
O       -2.82891654       3.98499564       1.72063495      -0.42703196       0.06102833       0.23495533
H       -2.53288373       3.46713183       2.35997468      -0.38047845      -0.09447792      -0.06837555
H       -2.67315580       4.89511232       1.86850858       0.11844298      -0.10643005       0.03056044
O        7.86578690     -14.01443960      10.91525219       1.74730616       0.15627873      -0.77100520
H        6.97020047     -14.34499170      10.74693490      -0.86296275      -0.23420241      -0.22257269
H        8.21590967     -14.26220548       9.97662007       0.09496544       0.02687373      -0.12634544
O       -2.51791744      10.57508822      24.30272476      -0.76609715       0.49937336      -0.39958109
H       -2.27965584      10.23451623      23.51015023      -0.37742231       0.32255538       0.02029951
H       -3.31194056      11.22061091      24.13600703      -0.04242064      -0.23432478      -0.35480634
O       20.04311367      21.77382869       1.52983764      -0.12512007       0.12351685      -1.08608478
H       19.84082876      22.03088434       2.49046161      -0.32704773      -0.07881832       0.56377125
H       19.65072023      20.83283638       1.50857070      -0.04114622       0.25184170       0.25784530
O       12.20678950      10.01173421     -15.87931579       0.75941327      -0.23423781       1.19722076
H       12.79856642       9.20531750     -15.67607266      -0.03813161      -0.01533918       0.06318633
H       12.50337491      10.15936851     -16.77424896       0.03080809       0.44266887      -0.79999302
O      -11.37598690      22.27064440       1.01951258       0.81346978       0.83587256      -0.88585052
H      -11.83583812      21.42292508       1.18924085      -0.33646700      -0.59321267       0.35458618
H      -11.01764985      22.61326630       1.84965387      -0.26829866      -0.27019841       0.08240120
O        2.91296158     -15.04400974      16.04812458      -0.57209772      -0.35339358      -1.14785555
H        3.23271357     -15.64752767      16.79505266      -0.16357530       0.07119959       0.13915651
H        3.69213216     -14.56241661      15.84330485       0.14881562      -0.09547556      -0.24058137
O        2.37741917      16.27861552       0.37632935      -0.92438684      -0.48737552       0.19365970
H        1.70149381      16.21636358      -0.48158167       0.02782736      -0.16641079       0.25443373
H        3.03614414      15.58794600       0.48469111      -0.11142589      -0.21958716      -0.34203878
O       -5.79924409      -7.34676397       5.62587503      -1.39627570      -1.28215257       0.95492969
H       -5.24703990      -7.73533403       6.27235432      -0.26863131       0.27357593       0.04208774
H       -5.13065148      -6.88277801       4.99058713       0.02977487       0.00575531      -0.29705714
O       -2.15355075       2.42512544       6.64750974       0.01914540      -0.13882992      -0.22001644
H       -2.14826641       3.44684047       6.82004098       0.22596034       0.20550166       0.19706991
H       -1.75047933       1.92240673       7.27729524       0.05228637       0.64161131      -0.26654696
O       13.22406964      -5.54030157      -1.47763898       1.18677746      -0.53538662      -0.03258163
H       14.00438531      -5.41459669      -1.93237371       0.05748920      -0.43795830      -0.08858748
H       13.01983529      -6.53607772      -1.54014705       0.01835997      -0.53440170      -0.06340616
O       11.81582424       4.86837928      22.73640674       0.08117654      -0.74165372      -0.06341256
H       11.12746955       4.26469819      23.12292573      -0.16109922       0.23411497       0.25276052
H       12.00013144       4.68254456      21.80461979       0.01260243       0.04343782       0.24430763
O        8.10033807      14.46150796      23.88930628      -0.61734302       0.20672981       1.19882838
H        8.95059812      14.78813050      23.53331636      -0.49872298       0.00147730      -0.15736562
H        8.23925861      13.45540906      23.84250208      -0.11637053      -0.53735115      -0.13389106
O       -8.03820334       6.94762941      11.41023586       0.07557011      -0.62143671      -0.04892101
H       -7.24691442       6.70831944      10.92687597       0.29345793      -0.20866561       0.14143863
H       -8.22836782       6.66903484      12.26454742       0.58890373       0.11792873       0.06965234
192
Lattice="12.743693073499996 0.0 0.0 -5.289356280630467e-07 12.743693073499996 0.0 -5.289356280630467e-07 -5.289356280630467e-07 12.743693073499996" Properties=species:S:1:pos:R:3:momenta:R:3 step=170 time_fs=17.0 phase=production pbc="T T T"
O       11.71367533       0.73645090     -16.45430697       1.61517256       0.06599154       0.51074171
H       12.11383024       1.10048333     -15.62349671      -0.14186258      -0.08382761       0.04802593
H       11.03838454       0.15261964     -16.05069722       0.30511708       0.12821654       0.42102046
O       26.39483437      24.80267327       5.00500804       0.51390090       0.07314220       1.53164324
H       26.78470874      23.94766009       4.57426222      -0.00385420       0.35047285       0.14368753
H       25.79286556      25.16467537       4.35464968       0.31345558       0.13603694      -0.02627068
O        4.54379332      -0.33918228       6.56270877      -0.35342552      -0.23360272      -1.14514876
H        5.21756996      -0.95647104       6.75380415       0.21334926      -0.01694697       0.10772911
H        4.37195568       0.27604962       7.27438109       0.17145532      -0.10267290       0.05934053
O       -2.89085170      -4.34339091       1.09930160      -0.63636026       0.77721226       0.96034959
H       -2.61927775      -3.86270508       0.32433900       0.29541454      -0.12648762      -0.26201434
H       -3.77906264      -3.98000459       1.34404032      -0.37147716       0.25077577       0.15904414
O        4.32683611      15.90977102      10.71189743       0.89847379       0.50184080      -0.37415817
H        4.28506926      16.80873951      10.99491001       0.10106538       0.36996853      -0.06542439
H        5.00724068      15.89965862       9.92833953      -0.16782718       0.02991872      -0.10276478
O       -1.36253838       6.53259018       5.16369771       0.22275459      -1.46027592       1.10592687
H       -1.76005389       6.30921566       4.38639598       0.03513860       0.06359582      -0.21571014
H       -0.72403724       7.27332835       5.17749934      -0.20825025       0.25351479      -0.36808530
O       22.82182999      12.31862567       5.77066620       0.68709996       0.36479812       0.26686233
H       23.12712407      13.23094495       5.85709211      -0.38162626      -0.31503609      -0.25746454
H       21.96574846      12.31979631       5.24282438      -0.58016478       0.14313318       0.23120149
O       -1.13780414     -15.76044428       6.77511823      -1.34751380      -0.65397873      -0.34631259
H       -0.72961273     -16.19372897       6.06478390      -0.13984338      -0.07930659       0.06426912
H       -1.29736748     -14.76158304       6.59851674       0.03247341       0.66865506      -0.13100778
O       15.47529118     -17.94172026       9.69065849       0.09098651      -0.29111362       0.33669430
H       16.36915062     -18.34592725      10.13784678       0.24148415       0.01748650       0.01346245
H       15.81748829     -17.04222288       9.52167332       0.04220265      -0.30949943       0.07875756
O        3.31441896     -14.64413429     -13.36669195       1.16976532       0.07514376      -0.18184540
H        4.26956532     -14.83130252     -13.18236698      -0.28743108      -0.04322406      -0.19280254
H        2.75157103     -15.22605392     -12.86990513       0.07254042      -0.28300670      -0.08365635
O       -5.76330217       1.63044988       2.89429961      -0.39299215       0.54071698       0.86954483
H       -6.45134240       1.19241776       2.42915357       0.12670182       0.24980634       0.03890576
H       -5.75991931       2.55174515       2.49186567      -0.48924313      -0.16170763      -0.20732337
O       -5.34291223      16.14465810      25.88865827       0.95367029       1.23138977      -0.58112881
H       -5.47918336      15.77690624      24.99895902       0.08669280       0.26750791      -0.21009836
H       -4.30477214      16.04974419      26.19703049      -0.66361969      -0.12427088      -0.02409176
O        7.54136560     -15.65067784      -8.41227345       1.54119533       0.81109943       1.08532484
H        7.99756576     -16.48637605      -8.10692195      -0.29893725       0.08145886       0.07881035
H        6.71869830     -15.55526933      -8.08883113       0.09226565      -0.37031455       0.07512336
O       13.66576781       8.54029183      17.99455538       0.09620826      -0.25497631       0.54837074
H       14.09388055       8.64202516      17.16953714      -0.12549786      -0.15625572       0.52138376
H       14.15595137       8.14135422      18.72427128      -0.28441792       0.35458864       0.00335958
O       -0.18590004       1.26479069      -1.21946973      -0.37959508       0.96930824      -0.23106757
H        0.76598355       1.18195238      -1.20961505      -0.37296724      -0.34083413       0.05257832
H       -0.51309424       0.39798754      -0.72894606      -0.06879902      -0.08348918       0.14489081
O      -14.14767417      12.67920258      15.72936158       0.64330916       0.22022227      -0.93077552
H      -13.79818472      12.33437635      14.96812115      -0.13567013      -0.06690390       0.23911985
H      -14.86659947      12.07429363      16.13221898       0.29868466      -0.06751060      -0.32076817
O      -16.31239583       5.96134887      12.30479961       1.92838693       1.00189336      -0.39975766
H      -16.84546830       5.77813524      11.52580567      -0.15378002      -0.48134807      -0.21207637
H      -16.24083758       6.81326590      12.35066357      -0.08844357      -0.04388365       0.25774171
O       -9.97313435      32.90427570      -9.59043308      -0.53352521       0.42856252      -0.13789630
H       -9.07056312      32.58275888      -9.40291158      -0.19928401      -0.02523988      -0.10811857
H      -10.75159601      32.19637295      -9.65901385       0.39540545      -0.40708041       0.18449046
O       34.78792285      11.48051706      21.36385859       0.70576006      -0.56549578       0.80434330
H       34.76119344      11.74536858      20.39274451       0.21877034       0.00305522      -0.62803199
H       35.38101917      10.75997757      21.64711099       0.05279170       0.39731123      -0.64420692
O       30.35888150     -12.55199588       2.12496059      -0.51984134       2.06757963      -0.50035892
H       29.57195756     -12.19981449       2.60056383      -0.17553471       0.02241041       0.43076882
H       30.17035959     -12.82470461       1.25085561       0.13349488      -0.27544425      -0.26911437
O       17.57660073       9.22144602      -7.43049254       0.13444781      -0.86150051      -0.14746820
H       17.09976475       8.33635757      -7.72010831      -0.39390044      -0.51927428       0.06929055
H       17.52841060       9.48579571      -6.52732176       0.25120684      -0.16031247       0.27910514
O       -5.10839508       2.57461431      32.20718590       0.64532865       0.50767076       0.63606944
H       -5.79150616       1.97411414      32.07153245       0.05527685      -0.52593145       0.36552013
H       -4.32622798       2.08993245      32.45976384       0.07943214      -0.18953945       0.00519890
O        3.87906322       0.88842309      -0.22663667       1.54478362      -0.02180871       0.35062483
H        3.37741553       0.06765886      -0.31224615      -0.18372495       0.08734582       0.06691342
H        4.22893209       1.21447478      -1.00563197       0.25819364       0.55214180      -0.17064563
O       23.19791249       3.23355064      11.66367196      -0.08847046      -0.04727847       0.15723319
H       23.39710816       3.77188012      12.54635537       0.03355856       0.33964199       0.10252713
H       23.77144470       2.44203133      11.60407716      -0.16172793      -0.02322371      -0.29434663
O       -1.42767130      31.84096070      15.06964795       0.13130147       0.30170780       1.04604508
H       -2.09787690      32.48342156      14.67631942       0.25426742       0.21444322      -0.04966083
H       -0.68294972      31.59839657      14.58407751      -0.23572509      -0.12113446      -0.00686630
O        4.83575426      19.40910438       5.20575810      -0.35137856       0.85081138      -0.07675149
H        4.01063531      19.11794628       5.79497075       0.12335532       0.21170329       0.05115845
H        5.47680324      18.73982717       5.19273667      -0.14867419      -0.38355013      -0.09967098
O      -10.21077588      10.49842417       9.53662646      -0.60665449      -0.29511249       0.82544282
H      -10.97242771      10.91213407       8.96163718      -0.51885408       0.23311889       0.01287432
H      -10.26026275      10.74002324      10.41722542       0.27787695       0.04565224       0.27936511
O       17.70518162      17.76698100      26.04345331       0.70979819       0.25337324      -1.88878965
H       18.30387066      17.01520701      26.20903783      -0.29831162      -0.05345658       0.23571792
H       16.84339111      17.31260992      26.10095120      -0.24511795      -0.01735337       0.09097584
O        6.91687613      18.69031706      10.14713357      -0.50393906      -0.13867826       0.36903375
H        7.29755425      19.33934388       9.59901954       0.03619752       0.02556760       0.03603941
H        6.32920017      18.00760351       9.71449928      -0.11974113       0.07202208       0.14696565
O       -0.69469711     -13.82865067      13.26017547      -1.54678379      -0.95921883      -0.19555006
H       -1.53837802     -14.22666060      12.88578268       0.07166447       0.26786959       0.12530185
H        0.01584406     -14.56505409      13.33771912       0.30617803       0.19796060      -0.15317995
O        1.11644583       6.01475951       1.13318397      -1.15561055      -0.93411280       0.66150018
H        1.66981192       5.21989755       1.12359258       0.50266476      -0.67833091      -0.24689821
H        1.17466941       6.56371413       0.42217741       0.37980363      -0.00508904       0.17968619
O        3.21149468       1.28185143       8.38481637       2.12782799      -0.55948983       0.74445376
H        2.27141936       1.24559955       8.25147900      -0.77179188       0.06296508      -0.26671128
H        3.37299979       1.23719408       9.34291693       0.22558534      -0.18546791      -0.26087452
O      -18.83424542      28.85220233     -16.17583056      -1.03073162       1.08204886      -0.42792368
H      -18.54102986      29.16816920     -17.17063700       0.50764986       0.00835052      -0.09660338
H      -18.02434488      28.44760167     -15.69275190       0.65715225      -0.06236124       0.05757340
O        2.90536858      26.81218006      -9.11187079       0.53704002      -0.67283910      -0.40945420
H        3.62835861      27.16628557      -8.02474111      -0.08131900      -0.10154781       0.15074473
H        2.07755398      26.48829963      -8.86996297      -0.19980185       0.21169862       0.36280905
O      -18.12626476      18.96540723       1.96275159      -0.71495307      -0.47475185       0.91309168
H      -17.60733912      18.82257469       1.01303790      -0.10657640      -0.10563736      -0.43121108
H      -19.03463016      18.52370169       1.84634814      -0.36085446      -0.11163821       0.04121010
O       11.70290520      17.56633663       7.01922693      -0.00091233      -0.37626954      -0.60137833
H       12.47623113      17.44906983       6.45563003      -0.25542995       0.38743123      -0.25144632
H       11.18892931      18.27071974       6.58213342       0.17148836       0.02356092      -0.15171970
O       -7.19665926     -11.22958512       5.16151269       0.58597073       0.03282270      -0.54327740
H       -6.80422325     -11.53416131       4.38537287      -0.45125146      -0.39852338       0.03577710
H       -7.40679306     -12.07753974       5.62420186       0.09433744       0.01356309      -0.25775136
O      -24.16997255       3.33573939      10.72492918      -1.09100244      -0.86884068       0.53717009
H      -24.92925519       3.96744236      10.45088161      -0.05938870      -0.12217568       0.04402068
H      -23.31514568       3.65850425      10.24989931       0.30658329      -0.05957256      -0.28369788
O      -11.45794958      -8.27538614      18.45754299      -0.96530433      -0.67865466       0.49186848
H      -10.73888446      -8.81080111      18.80060148       0.24119954      -0.38530806      -0.24251927
H      -11.36494546      -8.10139936      17.50398491       0.11870954       0.01284850      -0.48256468
O        8.51026515       7.39058174      16.85056209      -1.47050609       1.12407960      -0.70211989
H        9.50196125       7.27667660      16.90289851      -0.37073060      -0.04281523      -0.00024222
H        8.12173243       7.00316054      16.05181856       0.09177221       0.08554933      -0.37308633
O      -11.61215557      -0.47758105      20.43286826      -0.14651001       0.08447122       0.42434948
H      -12.45560522      -0.16379627      20.80130607       0.19984144       0.18391016       0.29204796
H      -11.67770863      -0.55779413      19.49457548       0.27178918      -0.09696976      -0.52430326
O       24.11755481       2.52616286      16.18475626      -0.60332784       0.76410042      -0.39063868
H       24.03087349       2.25091561      17.12666139       0.08308535      -0.08538992       0.02068832
H       24.20605437       1.53503756      15.72134692       0.22478367      -0.14276411      -0.06453716
O       -5.66080550     -17.93439685      -5.09682036       0.57771552       0.05634738      -1.20630491
H       -4.73113686     -17.81462806      -5.15948993       0.02151274       0.35765951      -0.15371726
H       -6.16377363     -18.53647924      -5.66849717      -0.84413219       0.12194506      -0.22042770
O       29.36635057      -8.92650988      -6.17182828      -1.12663314       1.21556837      -0.73810972
H       30.29376754      -9.16830107      -6.47277725      -0.37295498      -0.17102678       0.44480834
H       29.04028254      -9.75410672      -5.84709003      -0.06912700      -0.36225355       0.32022480
O        8.85195499      -0.63516812       3.47411240       0.74328996       0.21518786       0.93514330
H        8.33897343      -0.06512395       2.95288445      -0.17144092      -0.09262867       0.18819546
H        8.46625383      -1.52201370       3.37254598       0.14938729       0.31686051      -0.26150618
O      -19.78333090      -3.12021493      24.77682337      -0.26693617       0.33953526       0.12111593
H      -19.96697274      -3.99451712      24.21672164       0.09495000       0.20166221      -0.02050867
H      -19.04474285      -3.32988998      25.48151689       0.14338390       0.36795985       0.05134232
O        2.47325424      -5.73026028      -5.99004775       1.27635450       1.21640196       1.04259238
H        2.40045656      -5.57775330      -5.07885825       0.05709558       0.32334409       0.01467207
H        2.10579212      -6.58763180      -6.11359330       0.00939555      -0.51859175      -0.32294360
O        9.92606499       8.21810659       7.96180853       1.03438366      -0.76538148       0.28076916
H       10.32924015       8.73672321       7.26657503      -0.07068431       0.00015187       0.07498051
H       10.02852705       7.28447478       7.95012650       0.00621973      -0.07713240      -0.61452005
O        5.36941001       9.73709745      -4.89009817       0.24521130      -0.27171326      -1.19684871
H        6.24922564       9.19237587      -4.74504451      -0.05388891      -0.01202079       0.03483727
H        4.73311355       9.53765717      -4.23241783       0.00560733      -0.08521167      -0.29861351
O       13.71254854      29.39284178      15.90748185      -0.43473924      -0.59195476       0.74419668
H       12.80585343      29.12370721      15.98695553      -0.32047661      -0.05948695      -0.10912751
H       14.31545460      28.64344654      15.80813502      -0.10244135      -0.16836978      -0.09478836
O       -2.83217428       3.98529256       1.72057796      -0.66739810       0.09516252      -0.22121174
H       -2.56135493       3.44253404       2.37212451      -0.21194050      -0.39985533       0.31247833
H       -2.65844734       4.89687846       1.87341453       0.18115446       0.13693094       0.07142124
O        7.87608231     -14.01329038      10.90895354       1.67567365       0.00526900      -1.12999284
H        6.88841598     -14.36556005      10.73056111      -0.76027854      -0.18373577      -0.10265483
H        8.22376583     -14.25339373       9.97417986       0.06887559       0.13951132       0.08407685
O       -2.52345806      10.57882343      24.30039038      -1.06829105       0.85881125      -0.02359891
H       -2.30741416      10.25408598      23.49147383      -0.18922974       0.08431638      -0.38342605
H       -3.30810614      11.19046826      24.10433755       0.10696192      -0.36094296      -0.26652255
O       20.04085305      21.77295557       1.52393358      -0.32716480      -0.07889626      -0.80463603
H       19.81163945      22.02118579       2.53248069      -0.25065162      -0.09680066       0.29847169
H       19.65223895      20.86720933       1.53215868       0.08112093       0.44861598       0.22223981
O       12.21146845      10.00927497     -15.87155243       0.95263031      -0.40846043       1.04312053
H       12.78734953       9.21218703     -15.66877636      -0.17973231       0.16795972       0.06467354
H       12.50271470      10.20249659     -16.84737427      -0.04943775       0.43023413      -0.64314825
O      -11.37074991      22.27435625       1.01407813       0.71057311       0.65484450      -0.87241434
H      -11.86274004      21.37278400       1.22216503      -0.20943947      -0.38596439       0.31363184
H      -11.04340979      22.58492529       1.85806016      -0.26525797      -0.28740367       0.10058062
O        2.90933790     -15.04616341      16.04103161      -0.54765948      -0.54356777      -0.94515148
H        3.21212907     -15.63327603      16.79919574      -0.25161857       0.20567453      -0.03696470
H        3.71017349     -14.56669303      15.81665004       0.20147161      -0.02029023      -0.28472378
O        2.37117708      16.27496378       0.37688904      -1.07682247      -0.47945562      -0.01177218
H        1.71486671      16.19806556      -0.44569871       0.25062940      -0.19257179       0.48133148
H        3.02156326      15.56508631       0.44902759      -0.18706562      -0.22973162      -0.38743316
O       -5.80729946      -7.35363589       5.63048800      -1.32031954      -1.05076410       0.60895170
H       -5.26818990      -7.71491874       6.28577229      -0.15890480       0.13322323       0.24978088
H       -5.13759791      -6.88818069       4.96917348      -0.17930584      -0.12664976      -0.13157778
O       -2.15410221       2.42578332       6.64483096      -0.23960741       0.40056666      -0.57241429
H       -2.12351494       3.45231326       6.83808074       0.27613854      -0.08872234       0.17511071
H       -1.73362867       1.97466408       7.26783168       0.30630034       0.41814860       0.09670445
O       13.22987488      -5.54443082      -1.47719757       0.90716572      -0.89491361       0.14446698
H       14.02419781      -5.45467955      -1.95036802       0.34493330      -0.39191429      -0.27307568
H       13.02312464      -6.57282213      -1.54661219       0.06209535      -0.21516826      -0.06965856
O       11.81573633       4.86329673      22.73546631       0.05479675      -0.83738839       0.10336878
H       11.11544921       4.29102365      23.14228663      -0.07742434       0.30657259       0.16487353
H       11.99836357       4.68562946      21.82642120      -0.03444202       0.01880165       0.19881246
O        8.09646395      14.46137876      23.89538992      -0.56623927      -0.06854439       1.13394952
H        8.90138474      14.78908176      23.51982800      -0.46767774       0.04106089      -0.11191370
H        8.22319058      13.41524979      23.83043319      -0.20437774      -0.26149260      -0.09206478
O       -8.03735595       6.94397582      11.40835986       0.10603011      -0.48449864      -0.39974624
H       -7.21823937       6.68546595      10.94391749       0.26992730      -0.24551015       0.22577995
H       -8.16972281       6.67254081      12.28353148       0.60820768      -0.03490125       0.32227732
192
Lattice="12.74305993691778 0.0 0.0 -5.289093492995961e-07 12.74305993691778 0.0 -5.289093492995961e-07 -5.289093492995961e-07 12.74305993691778" Properties=species:S:1:pos:R:3:momenta:R:3 step=180 time_fs=18.0 phase=production pbc="T T T"
O       11.72309585       0.73672175     -16.44979956       1.64355928       0.03418556       0.67974407
H       12.09939431       1.09236681     -15.62211243      -0.13337177      -0.07388867      -0.02529317
H       11.06780656       0.16559361     -16.01291333       0.30085043       0.12953674       0.33911137
O       26.39709281      24.80110017       5.01380892       0.64061994      -0.16484684       1.42372784
H       26.77831407      23.99349194       4.59492846      -0.08849979       0.58831314       0.27665991
H       25.82094573      25.17842468       4.35150581       0.28319859       0.17674801      -0.03590863
O        4.54116557      -0.34035892       6.55507995      -0.40337040      -0.17114074      -1.21630795
H        5.24131054      -0.96350511       6.76730679       0.25326951      -0.10661629       0.16691711
H        4.38688368       0.26684695       7.28345727       0.14136371      -0.09183683       0.12398577
O       -2.89521422      -4.33831560       1.10528532      -0.83338347       0.82598404       0.98433350
H       -2.58988554      -3.87385213       0.29804100       0.28773648      -0.11966959      -0.24549399
H       -3.80559410      -3.95815322       1.35709027      -0.15351448       0.18876007       0.09938595
O        4.33269557      15.91181140      10.70830716       1.07394978       0.46741487      -0.60452314
H        4.29572546      16.84727882      10.98886254       0.12279713       0.39081481      -0.06140830
H        4.98286949      15.90246653       9.92897992      -0.32222949       0.04356961       0.12168520
O       -1.36033337       6.52393332       5.17131755       0.45615655      -1.25942817       1.41374154
H       -1.76190085       6.30999100       4.34912547      -0.05775495      -0.03152393      -0.50388329
H       -0.74899563       7.29172513       5.14104787      -0.30514289       0.12845809      -0.37000504
O       22.82410447      12.32010017       5.77161872       0.39621968       0.26581576       0.12992894
H       23.08941938      13.20194834       5.83223040      -0.34912846      -0.21450007      -0.24140354
H       21.92051954      12.33307110       5.27096730      -0.31735382       0.13820143       0.35363268
O       -1.14652294     -15.76238362       6.77303355      -1.50928318      -0.22904573      -0.22618665
H       -0.73840207     -16.20474671       6.06257271      -0.04302671      -0.15921774      -0.09956732
H       -1.29085651     -14.71215461       6.58727010       0.09921001       0.32393690      -0.09409645
O       15.47587296     -17.94279381       9.69271797       0.33772278      -0.37877407       0.49774888
H       16.37992841     -18.34031016      10.13393752      -0.00271363       0.07469235      -0.08118854
H       15.81858951     -17.07083515       9.52878594       0.00569814      -0.26063722       0.06941916
O        3.32179075     -14.64299153     -13.36713775       1.23230374       0.05934597      -0.18337342
H        4.23704811     -14.83660014     -13.20220399      -0.32691939      -0.08563621      -0.21987442
H        2.75771720     -15.25344686     -12.87650246       0.05779122      -0.28765363      -0.07073523
O       -5.76516418       1.63448378       2.89952634      -0.30479042       0.79186899       0.88476230
H       -6.44803647       1.20815927       2.42782499      -0.07239332       0.06622049      -0.06575568
H       -5.80519045       2.52934138       2.47644254      -0.44088171      -0.27908050      -0.10944047
O       -5.33610361      16.15125189      25.88383065       1.17848554       1.17552517      -0.57403493
H       -5.46747069      15.80315277      24.98242583       0.14652372       0.28736896      -0.10168841
H       -4.38274395      16.03882250      26.18773366      -0.93952100      -0.08332753      -0.14027920
O        7.55208258     -15.64557196      -8.40558435       2.03100896       0.62673828       0.95898781
H        7.96377603     -16.47102265      -8.10249479      -0.36430872       0.18859044       0.01189069
H        6.70536464     -15.58836624      -8.07242835      -0.34051317      -0.32294493       0.24249730
O       13.66506436       8.53821082      17.99780733      -0.14226446      -0.27475408       0.81252718
H       14.08828110       8.62699203      17.20833606       0.04477685      -0.13773751       0.25041242
H       14.12976626       8.17440180      18.72384585      -0.21857044       0.31472586       0.03985056
O       -0.18899891       1.26986444      -1.22054916      -0.66142378       0.70583044      -0.13888347
H        0.73588605       1.14858116      -1.20476208      -0.20847211      -0.34173183       0.04316132
H       -0.51483883       0.40197339      -0.72080101       0.02534090       0.16303436       0.02288038
O      -14.14399729      12.67983161      15.72414466       0.34085073       0.20349527      -0.52304653
H      -13.80255914      12.32075156      14.97334403       0.03939358      -0.19937882      -0.12508373
H      -14.82990373      12.07530853      16.09672414       0.41781342       0.08623509      -0.37377075
O      -16.29990337       5.96524650      12.30157929       1.85808380       0.37007313      -0.48459760
H      -16.85981442       5.73085773      11.50590848      -0.13093112      -0.46639075      -0.14676884
H      -16.24580421       6.83934374      12.37747277      -0.03681086       0.56368357       0.30078943
O       -9.97657999      32.90443931      -9.59074973      -0.76313236       0.16039331      -0.12324816
H       -9.09652683      32.57963531      -9.41326483      -0.32110252      -0.01039095      -0.10987223
H      -10.69490469      32.16774363      -9.64066160       0.74764788      -0.14575075       0.18234941
O       34.79032370      11.47676838      21.36716113       0.60127661      -0.42091145       0.58777212
H       34.78216453      11.74022720      20.34420345       0.24294540      -0.09516724      -0.33552734
H       35.38566825      10.79720388      21.58004557       0.11899607       0.32696843      -0.68946149
O       30.35394563     -12.53822491       2.12263486      -0.61428149       2.20539225      -0.25757442
H       29.56022486     -12.20042848       2.63535779      -0.02314870      -0.05274586       0.27306634
H       30.17864417     -12.85155774       1.21916739       0.07111604      -0.27217063      -0.33175161
O       17.57605015       9.21472542      -7.43139996      -0.03233128      -1.17255002      -0.23708319
H       17.07052064       8.29871230      -7.70711328      -0.18766481      -0.24232829       0.18687102
H       17.55308185       9.46974170      -6.49721733       0.27435294      -0.16599285       0.30204034
O       -5.10387075       2.57813217      32.20960674       0.72974378       0.63447901       0.67172617
H       -5.79401424       1.91686715      32.10390871      -0.08058563      -0.61479414       0.33787902
H       -4.31563156       2.07110454      32.45884572       0.11773945      -0.18204973       0.00319996
O        3.88808063       0.88793495      -0.22375753       1.48003204      -0.10214428       0.52702726
H        3.36114952       0.07883273      -0.30748672      -0.13945328       0.14935751       0.02701920
H        4.25683036       1.27140031      -1.03092017       0.28754394       0.58871426      -0.29027838
O       23.19658562       3.23352225      11.66466514       0.02250972       0.10251808       0.35174100
H       23.39594561       3.79502582      12.54320082      -0.03280871       0.13696954      -0.15249647
H       23.75270171       2.44453096      11.57704596      -0.19057197       0.06801859      -0.24725774
O       -1.42795685      31.84176218      15.07570010      -0.23769975       0.47138065       1.16839706
H       -2.06381914      32.49725865      14.67252709       0.43594334       0.10577721      -0.01490787
H       -0.69596947      31.58320931      14.57419052      -0.03545888      -0.15840931      -0.17907689
O        4.83214078      19.41351459       5.20559048      -0.71833103       0.87527575       0.10376088
H        4.03628019      19.14276880       5.79055857       0.40028096       0.31496989      -0.13277791
H        5.46803749      18.69655117       5.18260179      -0.04872074      -0.45975152      -0.10182266
O      -10.21444108      10.49596629       9.53982747      -0.75913370      -0.32230341       0.40913251
H      -11.01202790      10.92977751       8.97123765      -0.30083608       0.13852051       0.19536285
H      -10.23415539      10.74895415      10.45689182       0.25101400       0.13737086       0.50944608
O       17.70845091      17.76730125      26.03058916       0.61742718       0.13745667      -1.87955520
H       18.27649536      17.01175376      26.23029047      -0.23840571      -0.00739878       0.22899850
H       16.82101306      17.31474668      26.10817742      -0.18058600       0.08753821       0.08230183
O        6.91275324      18.68794628      10.14916199      -0.71289207      -0.31112939       0.45629348
H        7.30157372      19.34379596       9.59554012       0.04750032       0.07636561      -0.09158063
H        6.32589623      18.02100237       9.73138310       0.04951459       0.21016887       0.20162831
O       -0.70405443     -13.83470500      13.25819725      -1.48096985      -1.21503310      -0.22036939
H       -1.52283265     -14.19723567      12.89888393       0.21498345       0.30425660       0.14267382
H        0.03471135     -14.53445508      13.32047583       0.08060593       0.41004279      -0.18686957
O        1.10946416       6.00762470       1.13824000      -1.07394760      -1.32107952       0.98726283
H        1.71289159       5.16128446       1.09826498       0.35633123      -0.48218734      -0.27180995
H        1.21360810       6.57286846       0.42334155       0.42118245       0.18870024      -0.14070086
O        3.22405011       1.27832716       8.38890344       1.93597785      -0.56704026       0.67301375
H        2.20324246       1.25029070       8.22653710      -0.54493024       0.03423445      -0.21681674
H        3.39403867       1.22005788       9.31572166       0.20755431      -0.16575614      -0.25759669
O      -18.83852267      28.85737245     -16.17826334      -0.65218613       1.06676244      -0.62734692
H      -18.49547130      29.15985386     -17.16137786       0.40154775      -0.14848054       0.27319141
H      -17.97519283      28.44771880     -15.69554278       0.32177261       0.09761599      -0.13490342
O        2.91002597      26.80732532      -9.11338382       0.96417017      -0.50082473      -0.21796096
H        3.60562794      27.14695892      -8.02682125      -0.36868937      -0.26370077      -0.19456336
H        2.04910026      26.50340462      -8.82554356      -0.32552910       0.14765068       0.51828815
O      -18.13007247      18.96117435       1.96740497      -0.82708030      -0.59923383       0.63365947
H      -17.62584424      18.81217329       0.98491299      -0.28980512      -0.08904922      -0.14391441
H      -19.05506369      18.51736697       1.84963386      -0.07104035       0.00301792       0.02839995
O       11.70201466      17.56327882       7.01500242      -0.10329005      -0.33584734      -0.65542562
H       12.45551978      17.48342084       6.43017205      -0.14316907       0.32972178      -0.27001179
H       11.20470162      18.27104355       6.56940300       0.15457111       0.00724998      -0.10226692
O       -7.19305197     -11.22901043       5.15889659       0.47641762      -0.01562118      -0.24049503
H       -6.84000664     -11.57377729       4.37297439      -0.29427687      -0.42471104      -0.28083350
H       -7.39783292     -12.06872785       5.59783310       0.07645339       0.14002518      -0.26673026
O      -24.17518251       3.33097669      10.72721761      -0.98900214      -0.63407101       0.38537148
H      -24.92366149       3.94982125      10.45656438       0.14597521      -0.23148275       0.08011969
H      -23.29946534       3.64783259      10.22910277      -0.01200034      -0.15526170      -0.12993468
O      -11.46312324      -8.27907741      18.45910694      -0.87950305      -0.66844255       0.29166426
H      -10.71720442      -8.84489850      18.77368333       0.17113126      -0.30558844      -0.30064559
H      -11.35449878      -8.10464411      17.46465438       0.07941756      -0.09539179      -0.27242804
O        8.50111562       7.39719893      16.84534192      -1.40654250       1.14648113      -0.74390115
H        9.45537013       7.27304424      16.90026784      -0.54552575      -0.02716021      -0.03355804
H        8.13291051       7.01068283      16.01689800       0.14971761       0.08222087      -0.31121576
O      -11.61268236      -0.47702011      20.43450358      -0.20795704       0.08415315       0.39198983
H      -12.43398383      -0.14563949      20.82721324       0.22932616       0.18884101       0.25412961
H      -11.65101984      -0.56645832      19.44272316       0.26055285      -0.07426223      -0.46231744
O       24.11274575       2.52993189      16.18172406      -0.57142342       0.50551099      -0.33610473
H       24.03788114       2.24531278      17.11935768       0.08418755      -0.02717191      -0.15083437
H       24.22563294       1.53238651      15.72045304       0.20056769       0.08877517       0.06120796
O       -5.65763290     -17.93324653      -5.10405298       0.35113187       0.00780560      -1.25093303
H       -4.72612621     -17.77980076      -5.17579257       0.06647016       0.33571022      -0.18718913
H       -6.23844247     -18.51899693      -5.68694973      -0.66871436       0.23927693      -0.14461003
O       29.35844612      -8.91895981      -6.17625502      -1.02786500       1.05800862      -0.77059781
H       30.24953760      -9.18030076      -6.42861392      -0.46334509      -0.09053442       0.44061598
H       29.02993954      -9.78954300      -5.81358693      -0.09892846      -0.32746399       0.34393614
O        8.85656506      -0.63422361       3.48007369       0.90253421       0.11515618       1.05716432
H        8.31481534      -0.06381452       2.96495827      -0.30777002       0.11481238       0.07089729
H        8.48030876      -1.49529782       3.34799173       0.13767837       0.20103337      -0.24142945
O      -19.78360179      -3.11900237      24.77634889      -0.14202426       0.01551437       0.12610071
H      -19.95283494      -3.95893606      24.22416943       0.17289904       0.51608772       0.19421085
H      -19.04054789      -3.29092414      25.47574035      -0.07371839       0.42411794      -0.14136509
O        2.48101147      -5.72231146      -5.98400635       1.25948001       1.21385985       0.82471078
H        2.40575728      -5.54288789      -5.06567566       0.05206250       0.37593330       0.23103406
H        2.10431123      -6.64303275      -6.14655342      -0.00542074      -0.54687841      -0.33881417
O        9.93167574       8.21321057       7.96326722       0.95323764      -0.70904588       0.32662527
H       10.32392355       8.73545197       7.27204471      -0.02569400      -0.01111313       0.03906165
H       10.03142143       7.27453816       7.88848520       0.06099770      -0.11288525      -0.64072130
O        5.37194811       9.73449553      -4.89762930       0.66528907      -0.41467569      -1.33396550
H        6.22830405       9.19837668      -4.74376327      -0.36240323       0.14326593      -0.01401197
H        4.72704751       9.52708461      -4.25452102      -0.12876743      -0.12205659      -0.15841933
O       13.70952111      29.38766758      15.91135734      -0.36176755      -0.62878165       0.77673424
H       12.77435834      29.11371035      15.97538247      -0.28014011      -0.10582835      -0.11407833
H       14.29939172      28.62973080      15.79928197      -0.21313487      -0.08291223      -0.06927512
O       -2.83665155       3.98581877       1.71809982      -0.81004355       0.13310273      -0.50419115
H       -2.57637050       3.39369273       2.41562794      -0.11966364      -0.55251045       0.53207683
H       -2.63810315       4.91618536       1.88189079       0.22838240       0.22596881       0.10110460
O        7.88543006     -14.01310991      10.90042973       1.48900282      -0.16962641      -1.45786064
H        6.82625508     -14.37811760      10.72489454      -0.49409148      -0.08623905      -0.00982456
H        8.22752609     -14.23430055       9.99119585       0.01316570       0.23327449       0.26491514
O       -2.53055990      10.58436934      24.29982284      -1.24970212       1.07862978       0.18199485
H       -2.31709461      10.25161959      23.43827743      -0.02401367      -0.10417599      -0.63178551
H       -3.29381462      11.15217354      24.08257410       0.15976611      -0.39380509      -0.15567117
O       20.03735437      21.77129108       1.51987342      -0.46951177      -0.05651083      -0.49075578
H       19.79063499      22.01100969       2.54903753      -0.15787636      -0.08461123       0.04749399
H       19.66149779      20.91027785       1.55082479       0.10490966       0.39802370       0.15945409
O       12.21727732      10.00600255     -15.86526913       1.11461581      -0.46848429       0.74666006
H       12.76382610       9.23618705     -15.66320020      -0.27160873       0.31324434       0.03268919
H       12.49228125      10.23962701     -16.89306584      -0.14751096       0.33446969      -0.31087620
O      -11.36631285      22.27645203       1.00864424       0.54898291       0.38578526      -0.88344749
H      -11.87448722      21.34775680       1.24935066      -0.04379138      -0.10508782       0.24261015
H      -11.06749036      22.55587383       1.87064789      -0.23764173      -0.28316117       0.16385813
O        2.90616572     -15.04902706      16.03483084      -0.42956583      -0.60871028      -0.83879058
H        3.18461661     -15.60731340      16.78798681      -0.30106340       0.29801171      -0.15892609
H        3.72674578     -14.56775328      15.78783107       0.12479027      -0.02780846      -0.28388945
O        2.36400259      16.27115359       0.37615036      -1.20584066      -0.49966964      -0.20474546
H        1.74968104      16.17773145      -0.38872808       0.44622448      -0.20658053       0.66393447
H        2.99932236      15.54259577       0.40963487      -0.26379979      -0.21351682      -0.41631831
O       -5.81491142      -7.35900447       5.63282491      -1.24284859      -0.82910297       0.26065316
H       -5.27777009      -7.70797513       6.31973141      -0.05612536       0.01279281       0.43525409
H       -5.16505612      -6.90713330       4.96512699      -0.38673846      -0.26896713       0.05420380
O       -2.15623827       2.42972717       6.63995536      -0.47115333       0.89691166      -0.87963825
H       -2.09525784       3.43071875       6.85271243       0.29590383      -0.33737257       0.12820149
H       -1.69057588       2.00366689       7.29471951       0.56074218       0.19196787       0.43679137
O       13.23438183      -5.55075180      -1.47597422       0.82144436      -1.24970070       0.20206266
H       14.06411108      -5.49096031      -1.98182666       0.44414365      -0.35986764      -0.34830223
H       13.03061519      -6.57686184      -1.55350121       0.10335149       0.12526515      -0.07261562
O       11.81541170       4.85775856      22.73577517       0.03609394      -0.87747884       0.37376883
H       11.11035404       4.32293737      23.15328027      -0.02433724       0.34491584       0.08840900
H       11.99293791       4.68495597      21.83766789      -0.06244331      -0.03078283       0.04191934
O        8.09225188      14.45911267      23.90116538      -0.69549067      -0.44665389       1.14367147
H        8.86475538      14.79643821      23.50694851      -0.25358557       0.13032183      -0.13673627
H        8.19901860      13.40440411      23.82244677      -0.28172890       0.05509245      -0.04695187
O       -8.03601046       6.94081335      11.40458179       0.20856351      -0.45362185      -0.60157156
H       -7.19626375       6.66129518      10.97057238       0.16559676      -0.23792117       0.33199277
H       -8.10858199       6.66377529      12.32052791       0.64024360      -0.12313260       0.40515716
192
Lattice="12.742320401033222 0.0 0.0 -5.288786543609063e-07 12.742320401033222 0.0 -5.288786543609063e-07 -5.288786543609063e-07 12.742320401033222" Properties=species:S:1:pos:R:3:momenta:R:3 step=190 time_fs=19.0 phase=production pbc="T T T"
O       11.73258723       0.73678340     -16.44437102       1.66827033      -0.00163946       0.76024988
H       12.08793629       1.08723909     -15.62441325      -0.08129918      -0.02432092      -0.02733915
H       11.09446738       0.17653363     -15.98245879       0.25472461       0.09031125       0.26954519
O       26.39960335      24.79850740       5.02218702       0.64572339      -0.14950658       1.43013128
H       26.76906411      24.05013031       4.62367770      -0.03769564       0.53713629       0.28840792
H       25.84430869      25.19731111       4.34696531       0.22386578       0.24414182      -0.05212886
O        4.53865772      -0.34142236       6.54730302      -0.30693291      -0.19240231      -1.17516354
H        5.26136928      -0.97297052       6.78377775       0.14369176      -0.07130492       0.17057079
H        4.39949079       0.25673446       7.29551552       0.12423055      -0.12160500       0.12137823
O       -2.90070844      -4.33262236       1.11103621      -1.00318195       0.95322643       0.89636988
H       -2.56550416      -3.88734102       0.28108341       0.20022359      -0.16648364      -0.08719715
H       -3.80655666      -3.94316478       1.36214830       0.13051623       0.11391625       0.00363871
O        4.33939683      15.91426646      10.70360738       1.16691825       0.65828065      -0.68954941
H        4.30845420      16.87575768      10.97992159       0.14165379       0.19082868      -0.11262557
H        4.94616406      15.90606765       9.94819838      -0.40199455       0.04546326       0.25385103
O       -1.35713298       6.51626124       5.17975109       0.52967131      -1.13359176       1.36946674
H       -1.76642614       6.30498917       4.29858622      -0.01297846      -0.05055298      -0.47154544
H       -0.78285709       7.29782890       5.10566992      -0.38462165       0.01086638      -0.34615820
O       22.82405070      12.32013571       5.77162805       0.01205143      -0.03782344      -0.01474893
H       23.05947774      13.19531760       5.81016742      -0.22848231       0.11582977      -0.20229897
H       21.90179838      12.34458660       5.31076260      -0.04327951       0.10824670       0.46528383
O       -1.15611388     -15.76162826       6.77147215      -1.62347982       0.16616834      -0.17460413
H       -0.73915222     -16.22132303       6.04711935       0.01600321      -0.18738084      -0.19008513
H       -1.27822574     -14.69724216       6.57921582       0.15666835      -0.03659817      -0.06399344
O       15.47766912     -17.94475472       9.69578990       0.53640086      -0.61507043       0.68867689
H       16.36697829     -18.33024650      10.12132902      -0.24317122       0.10588207      -0.16357327
H       15.81838714     -17.08536156       9.53280326       0.01277613      -0.03859539       0.01914708
O        3.32855345     -14.64184016     -13.36752977       0.98766719       0.03515874      -0.19490435
H        4.21447490     -14.84761198     -13.22246150      -0.09335431      -0.16433762      -0.20666963
H        2.76305666     -15.27891826     -12.88349320       0.06054841      -0.24291082      -0.09554590
O       -5.76652771       1.63975781       2.90485587      -0.26653814       0.92688617       0.90207867
H       -6.46360419       1.20570809       2.41719525      -0.23720064      -0.10320488      -0.13645246
H       -5.84480698       2.50046515       2.46921856      -0.37939500      -0.29159484      -0.04388541
O       -5.32846516      16.15743889      25.87868101       1.11116163       1.16367762      -0.63565744
H       -5.45079690      15.83074191      24.97531824       0.18137903       0.29237803      -0.03086558
H       -4.47723712      16.03055729      26.17026153      -0.90048323      -0.08088176      -0.14908175
O        7.56468997     -15.64086247      -8.39950773       2.13531402       0.64650860       0.87625040
H        7.93012199     -16.45451998      -8.10162523      -0.29784943       0.09729552       0.00709187
H        6.65983308     -15.61653202      -8.04439926      -0.52240572      -0.27509139       0.29695763
O       13.66228453       8.53611229      18.00250359      -0.50905116      -0.24069889       1.03765808
H       14.10261122       8.61468445      17.21316706       0.26228702      -0.10597100      -0.12319319
H       14.11457842       8.19955028      18.73481579      -0.06904314       0.20604900       0.21977812
O       -0.19413132       1.27334379      -1.22103466      -1.00474729       0.45396403      -0.04291554
H        0.72901680       1.11573765      -1.20164319       0.06902623      -0.32630171       0.01636109
H       -0.50969469       0.42897095      -0.72401399       0.07051680       0.38566517      -0.08649455
O      -14.14151524      12.68055284      15.72084037       0.25385466       0.29073993      -0.30936080
H      -13.78930963      12.29582566      14.94400137       0.20563313      -0.28222186      -0.43278299
H      -14.78997673      12.08464387      16.06198111       0.34359688       0.08420827      -0.29575538
O      -16.28793555       5.96566721      12.29731715       1.73214079      -0.05073957      -0.67016647
H      -16.86562873       5.68993285      11.50086878       0.00023905      -0.35280263       0.06890575
H      -16.24808944       6.91248618      12.40621234      -0.03922136       0.86248749       0.29134259
O       -9.98151345      32.90289269      -9.59095198      -1.02312747      -0.00511721      -0.12655290
H       -9.12630056      32.57623616      -9.42239723      -0.26117850      -0.02386914      -0.08297631
H      -10.60939797      32.16254988      -9.62259205       0.94490124       0.04413897       0.17451155
O       34.79124648      11.47449065      21.36861640       0.34722547      -0.09252962       0.28753596
H       34.80405631      11.72621576      20.32573171       0.24432067      -0.17440236      -0.02000462
H       35.40596695      10.81588113      21.51270000       0.35358370       0.05417448      -0.66297419
O       30.34798234     -12.52373381       2.12112898      -0.75211630       2.26424437      -0.22285945
H       29.56456078     -12.20879520       2.65261713       0.14053207      -0.12993357       0.08591336
H       30.18174644     -12.87340350       1.19410996       0.03131830      -0.17969554      -0.15201087
O       17.57430486       9.20613996      -7.43225117      -0.20282858      -1.44500053      -0.15850544
H       17.06138299       8.28845470      -7.68348409       0.02075594       0.04258520       0.28579646
H       17.57998798       9.45129402      -6.47315547       0.29751332      -0.20573470       0.16198565
O       -5.09907996       2.58158800      32.21195896       0.71913912       0.50213372       0.70495059
H       -5.80063079       1.86030208      32.13478553      -0.03577815      -0.51509512       0.33617062
H       -4.30560223       2.05640691      32.45582380       0.07259519      -0.10861008      -0.03105463
O        3.89711027       0.88737199      -0.22075044       1.55367248      -0.04174498       0.41652642
H        3.35045926       0.09702003      -0.30743998      -0.07759617       0.21967803      -0.02830152
H        4.27934138       1.32404492      -1.05222040       0.16256680       0.47526849      -0.11590771
O       23.19555481       3.23464160      11.66671240       0.06775236       0.33896013       0.53454050
H       23.38837589       3.79770299      12.51547239      -0.09312019      -0.07960410      -0.40120510
H       23.73363753       2.45271628      11.55477457      -0.16199766       0.08960243      -0.19578068
O       -1.43008341      31.84313694      15.08228385      -0.43688999       0.55243620       1.24941272
H       -2.01508844      32.50234220      14.67081962       0.54410111       0.05281479      -0.01146997
H       -0.69296862      31.56505635      14.54991834       0.06865242      -0.16723025      -0.28077602
O        4.82691709      19.41748885       5.20632446      -0.83564609       0.77576273       0.20607488
H        4.08453000      19.17597716       5.77091158       0.55532377       0.37631441      -0.23479160
H        5.46231728      18.65351230       5.17255030      -0.07883038      -0.37886784      -0.09765981
O      -10.21904712      10.49354212       9.54127299      -0.93692681      -0.25037637       0.30164638
H      -11.02939554      10.93774935       8.99888883      -0.06643612       0.03677212       0.38321889
H      -10.20973811      10.76266221      10.50561960       0.23883872       0.13962841       0.44622881
O       17.71066163      17.76677342      26.01757554       0.42882129       0.02893090      -1.86732960
H       18.25647656      17.01069896      26.25111520      -0.14706416       0.00136707       0.23056431
H       16.80820617      17.32872992      26.11387547      -0.05786351       0.22198663       0.06415515
O        6.90765912      18.68485257      10.15166773      -0.78618026      -0.30601390       0.55600812
H        7.30457283      19.34984294       9.58197449       0.01487890       0.05778403      -0.16383788
H        6.33504310      18.04291301       9.75031087       0.12373614       0.23528117       0.18212103
O       -0.71237495     -13.84172979      13.25626814      -1.21615641      -1.29913768      -0.13766356
H       -1.50417202     -14.16968783      12.90874163       0.12331748       0.22534614       0.05651521
H        0.03249482     -14.48535912      13.29998777      -0.11124512       0.56323137      -0.21647969
O        1.10325279       5.99809568       1.14475991      -0.92322918      -1.62744204       1.10815770
H        1.73799272       5.12673420       1.07047057       0.16413671      -0.22581353      -0.29718809
H        1.25582728       6.59476397       0.40100415       0.43714519       0.22963214      -0.26998635
O        3.23455281       1.27478464       8.39168580       1.53977931      -0.55968706       0.36370972
H        2.17050689       1.25169461       8.21035076      -0.12034330      -0.00670795      -0.10083382
H        3.41328120       1.20458950       9.29766489       0.19346422      -0.15093911      -0.07725292
O      -18.84015184      28.86219644     -16.18182292      -0.23548637       1.05038396      -0.83682557
H      -18.46197485      29.13668966     -17.11522064       0.25957132      -0.28557469       0.64705567
H      -17.95989997      28.46337906     -15.71710103      -0.02299076       0.25293399      -0.31960263
O        2.91606330      26.80282317      -9.11337719       0.99973473      -0.48039471       0.05928705
H        3.55954854      27.11300893      -8.05982055      -0.55350576      -0.39364538      -0.47897114
H        2.02500586      26.51801628      -8.77327964      -0.12242138       0.19630490       0.51718704
O      -18.13450483      18.95600799       1.97031056      -0.95751017      -0.72324055       0.34963190
H      -17.66153964      18.80321393       0.98495871      -0.46041978      -0.07184892       0.14497368
H      -19.04611399      18.52235222       1.85171934       0.22766971       0.11934774       0.01696077
O       11.70041329      17.56029772       7.01043822      -0.18799680      -0.30584079      -0.70301426
H       12.44783195      17.51093879       6.40224537      -0.00428309       0.25567059      -0.29023899
H       11.21661996      18.27096685       6.56149068       0.09948707       0.01577262      -0.05275452
O       -7.18990120     -11.22844802       5.15756799       0.43179522      -0.00844156      -0.14809146
H       -6.86306356     -11.61402203       4.33483539      -0.20365356      -0.39881359      -0.45634832
H       -7.39220833     -12.05280895       5.57370833       0.02417202       0.14914006      -0.21027017
O      -24.17935118       3.32743384      10.72860278      -0.80349855      -0.47908710       0.27996112
H      -24.90038417       3.92391672      10.46428681       0.27888722      -0.27667697       0.08216343
H      -23.31477939       3.62814017      10.22348213      -0.32687404      -0.24300582       0.02569291
O      -11.46730951      -8.28280104      18.45900236      -0.69188723      -0.70652479       0.01953965
H      -10.70697652      -8.86713457      18.73924709       0.01991152      -0.15559082      -0.38255209
H      -11.34880301      -8.11954912      17.45207499       0.02206949      -0.21827647       0.03894546
O        8.49153929       7.40385775      16.83943115      -1.59955504       1.16550157      -0.87400393
H        9.40316549       7.26967584      16.89545183      -0.46383092      -0.03916740      -0.03861770
H        8.15015548       7.01927125      15.99155393       0.21121069       0.10476560      -0.18454987
O      -11.61336548      -0.47655199      20.43515238      -0.22532796       0.05611158       0.19497718
H      -12.41037960      -0.12666675      20.84791448       0.23443580       0.20311791       0.19459115
H      -11.62637432      -0.57136214      19.40874993       0.22809866      -0.02503016      -0.19964933
O       24.10797188       2.53211663      16.17875573      -0.52451197       0.25632404      -0.34538130
H       24.04431004       2.24509902      17.09823681       0.07344468       0.02259901      -0.23524797
H       24.24234133       1.55198673      15.73101390       0.17034458       0.31430591       0.16900079
O       -5.65591494     -17.93246854      -5.11173085       0.10614679      -0.09356292      -1.34821313
H       -4.71968669     -17.74787950      -5.19550811       0.04940378       0.29517443      -0.22387633
H       -6.29053273     -18.48614153      -5.69447183      -0.40042580       0.41387336      -0.01544120
O       29.34992378      -8.91280364      -6.18029639      -1.23859220       0.77664530      -0.64346904
H       30.20895043      -9.18673497      -6.38887070      -0.29048897      -0.06292382       0.35607024
H       29.01945755      -9.81097664      -5.78164314      -0.07883210      -0.10961046       0.29906638
O        8.86193501      -0.63330660       3.48654977       0.99040895       0.19917137       1.09749592
H        8.28130629      -0.04572720       2.96951766      -0.34640413       0.23208664       0.04830214
H        8.49099363      -1.48584804       3.32470881       0.09008719      -0.01271586      -0.23380906
O      -19.78294780      -3.11931739      24.77583761      -0.01990042      -0.11519152       0.20263258
H      -19.93214580      -3.89877020      24.24869589       0.21715644       0.65618176       0.29955368
H      -19.05589836      -3.24775543      25.45224432      -0.25201378       0.45318250      -0.29951597
O        2.48820761      -5.71523507      -5.97917883       1.12274382       0.97227688       0.65641619
H        2.41018448      -5.50649469      -5.03853315       0.04259952       0.35067371       0.28714405
H        2.10846909      -6.68322024      -6.17535297       0.10081146      -0.26256205      -0.24724975
O        9.93671419       8.20834443       7.96496019       0.87902625      -0.73504047       0.37137549
H       10.32322075       8.73446161       7.27290116       0.02236447       0.00344750      -0.01232717
H       10.03881803       7.26358698       7.82491558       0.09988350      -0.09137830      -0.65098660
O        5.37670439       9.73105702      -4.90584390       0.93377062      -0.50296493      -1.42294455
H        6.18180139       9.21760702      -4.74702042      -0.54285248       0.24038596      -0.05366012
H        4.70833381       9.51341379      -4.26430411      -0.23954503      -0.14159474      -0.06155131
O       13.70627786      29.38190905      15.91531216      -0.45965141      -0.68780831       0.81303000
H       12.75445772      29.10156852      15.96281775      -0.09946080      -0.10227106      -0.12478918
H       14.27340081      28.62334081      15.79293977      -0.29236358      -0.02410103      -0.04358755
O       -2.84148369       3.98634900       1.71491977      -0.79914972       0.11166831      -0.45655250
H       -2.58827390       3.34395886       2.46498311      -0.13911505      -0.43126786       0.44585740
H       -2.61483206       4.93356128       1.89217576       0.24016519       0.10895509       0.10816728
O        7.89338880     -14.01376057      10.89020299       1.23585900      -0.29523821      -1.62222440
H        6.79305569     -14.38063370      10.72637638      -0.17335793       0.01837702       0.04883436
H        8.22600465     -14.20792115      10.01984023      -0.02356813       0.27924633       0.29030609
O       -2.53797114      10.59033972      24.29933706      -1.16503843       1.02059554       0.07449578
H       -2.31470628      10.23747094      23.37779667       0.05684587      -0.15173456      -0.52741542
H       -3.28223786      11.11691791      24.07063723       0.04211842      -0.29353690      -0.06731629
O       20.03315784      21.77053048       1.51776027      -0.50539782       0.25309457      -0.16932824
H       19.77913858      22.00289147       2.54173503      -0.05313339      -0.05467180      -0.19403930
H       19.66632305      20.93224829       1.56303496       0.00364855       0.04345727       0.09482461
O       12.22347962      10.00289962     -15.86072150       1.10515376      -0.30995604       0.42527437
H       12.73801605       9.26572489     -15.65987420      -0.21388489       0.26332034       0.02488387
H       12.47324799      10.26561746     -16.90632718      -0.22631896       0.20752584       0.01982073
O      -11.36276328      22.27670668       1.00316937       0.39695869       0.12154147      -0.87088515
H      -11.87038541      21.34955045       1.26872601       0.11012146       0.16235718       0.15275602
H      -11.08834342      22.52767703       1.88949409      -0.20347087      -0.26666179       0.21800061
O        2.90375267     -15.05170655      16.02864228      -0.30753289      -0.52252131      -0.90810656
H        3.15518987     -15.57719027      16.77128151      -0.28711601       0.27891626      -0.13276458
H        3.73200660     -14.57197533      15.76054200      -0.01802310      -0.08049569      -0.25425414
O        2.35662339      16.26713820       0.37494951      -1.09784130      -0.49089051      -0.11089373
H        1.79180556      16.15598886      -0.32755919       0.35087851      -0.22242399       0.51321912
H        2.97151006      15.52142114       0.36927816      -0.28967961      -0.20840177      -0.40215430
O       -5.82178164      -7.36324860       5.63344375      -1.09896701      -0.71590277       0.08672385
H       -5.28219412      -7.70876302       6.36474944      -0.06054329      -0.02324030       0.46665318
H       -5.21108431      -6.93918892       4.97844805      -0.54999347      -0.38858413       0.21377968
O       -2.15926291       2.43602760       6.63385140      -0.51073767       1.14107268      -0.92476111
H       -2.06643744       3.38981453       6.86188497       0.29112481      -0.47032354       0.06878951
H       -1.62962165       2.01611686       7.34395056       0.64580424       0.09658805       0.52343693
O       13.23906398      -5.55911896      -1.47487412       0.98632749      -1.57019617       0.11068360
H       14.10134100      -5.52411695      -2.01321888       0.30893027      -0.32441125      -0.28059033
H       13.04135941      -6.54840268      -1.56032669       0.12793657       0.43869907      -0.06773760
O       11.81501420       4.85211886      22.73757791       0.06934598      -0.85940096       0.63057192
H       11.10750285       4.35613067      23.15803627      -0.03238933       0.33298188       0.04277798
H       11.98498192       4.67891683      21.83166114      -0.08806235      -0.08672876      -0.13269725
O        8.08700625      14.45431445      23.90687611      -0.84760155      -0.83318243       1.16122291
H        8.85166527      14.81276973      23.49048741      -0.01921218       0.21545171      -0.16574183
H        8.16770880      13.42454404      23.81887591      -0.34922896       0.37042979       0.00299341
O       -8.03388784       6.93745220      11.40029051       0.33210424      -0.52170384      -0.54373573
H       -7.18561161       6.63907305      11.00659495       0.04817220      -0.20877037       0.41212158
H       -8.04435414       6.65043013      12.35322099       0.66305174      -0.13273227       0.25074936
192
Lattice="12.741481599006136 0.0 0.0 -5.288438393136152e-07 12.741481599006136 0.0 -5.288438393136152e-07 -5.288438393136152e-07 12.741481599006136" Properties=species:S:1:pos:R:3:momenta:R:3 step=200 time_fs=20.0 phase=production pbc="T T T"
O       11.74209626       0.73658513     -16.43861297       1.67821853      -0.04950902       0.75219160
H       12.08292682       1.08835235     -15.62333783      -0.00247309       0.05157791       0.03576963
H       11.11555973       0.18256323     -15.95800125       0.19229786       0.03208983       0.21186240
O       26.40139579      24.79681749       5.03099350       0.47876288       0.16710451       1.55198306
H       26.77256068      24.08546925       4.64572618       0.16169261       0.19067940       0.15405498
H       25.86195764      25.22250278       4.34181596       0.18285872       0.29923675      -0.03617531
O        4.53699208      -0.34274965       6.54000069      -0.13200548      -0.24966703      -1.05446743
H        5.26635460      -0.97538072       6.79842028      -0.03823918       0.02339576       0.13386234
H        4.41053110       0.24256801       7.30473117       0.10631116      -0.16791547       0.07322425
O       -2.90704749      -4.32607368       1.11606325      -1.10751577       1.07981686       0.76207166
H       -2.55161197      -3.90608988       0.28225551       0.07949217      -0.22249365       0.11087189
H       -3.78113509      -3.93504171       1.35773094       0.36703513       0.05380585      -0.08834056
O        4.34610220      15.91805734      10.69903216       1.07945341       0.91766247      -0.53010275
H        4.32225194      16.88097726      10.96588658       0.14398407      -0.05575708      -0.15496121
H        4.91014105      15.90835768       9.96883282      -0.29731010       0.01740133       0.13761936
O       -1.35394831       6.50900146       5.18701899       0.46089466      -1.10986306       1.09065565
H       -1.76151657       6.30076582       4.26342812       0.11631447      -0.02526066      -0.22819566
H       -0.82201153       7.29496299       5.07347650      -0.40698174      -0.04352311      -0.30612155
O       22.82147680      12.31818535       5.77079611      -0.34422534      -0.30367956      -0.12239605
H       23.04251121      13.22258427       5.79214071      -0.09307599       0.43521189      -0.16112533
H       21.90821295      12.35184468       5.35999725       0.19182355       0.05393379       0.54482939
O       -1.16613432     -15.75853829       6.76976204      -1.65134777       0.49075508      -0.26046850
H       -0.73753944     -16.23664562       6.02914223       0.00462252      -0.13719403      -0.14973803
H       -1.26045659     -14.71774896       6.57412315       0.20504521      -0.40501963      -0.02969273
O       15.48054075     -17.94809870       9.69994083       0.72835232      -0.83731546       0.86133603
H       16.33106403     -18.31823394      10.10140548      -0.46107440       0.10919001      -0.22482298
H       15.81868565     -17.07592418       9.53103867       0.00694859       0.19362973      -0.04028439
O        3.33321434     -14.64081449     -13.36781451       0.60407722      -0.02162575      -0.17869290
H        4.22156195     -14.86735071     -13.24049313       0.23745483      -0.25904014      -0.18268725
H        2.77022940     -15.29716011     -12.89465249       0.09413364      -0.14664476      -0.15377696
O       -5.76801314       1.64522628       2.91014755      -0.36721177       0.85105915       0.87425473
H       -6.48859126       1.19123067       2.40440884      -0.25501320      -0.17237000      -0.10228821
H       -5.87868941       2.47598405       2.46573289      -0.32612709      -0.18725003      -0.03491362
O       -5.32269081      16.16373523      25.87261651       0.61656046       1.24435980      -0.79644593
H       -5.43299621      15.85724800      24.97021563       0.17027813       0.27009683      -0.05096204
H       -4.54186254      16.01900412      26.16188360      -0.38522703      -0.14037374       0.03552715
O        7.57645892     -15.63540178      -8.39358586       1.81558113       0.80756531       0.88398397
H        7.90706400     -16.45462856      -8.09859579      -0.15970763      -0.13349507       0.04803410
H        6.61450485     -15.64024442      -8.01821234      -0.36002457      -0.23262848       0.21493085
O       13.65730479       8.53422861      18.00798768      -0.78579773      -0.19164002       1.10196715
H       14.13468608       8.60447191      17.18819097       0.38841190      -0.09786027      -0.31383255
H       14.11442669       8.21385244      18.76356650       0.07636328       0.10596331       0.37609153
O       -0.20095300       1.27536162      -1.22097634      -1.17275406       0.24735178       0.02453293
H        0.74568372       1.08614081      -1.20193421       0.23917209      -0.27085015      -0.02611206
H       -0.50296345       0.47476013      -0.73627851       0.05399493       0.53060922      -0.15241295
O      -14.13857425      12.68188540      15.71772237       0.43235964       0.40479074      -0.41929259
H      -13.76410642      12.26802390      14.89446338       0.27193579      -0.25053599      -0.52038101
H      -14.76630793      12.08537352      16.03991487       0.11155511      -0.06431198      -0.13176322
O      -16.27657676       5.96486169      12.29195302       1.62088110      -0.02739932      -0.80383162
H      -16.85747490       5.66285311      11.51828203       0.14271009      -0.19111591       0.30230984
H      -16.25253220       6.98968984      12.43057013      -0.07550060       0.67162800       0.21797260
O       -9.98755376      32.90098687      -9.59113602      -1.12381147       0.14765556      -0.14048360
H       -9.13905671      32.57100482      -9.42716461       0.01144589      -0.03691625      -0.02344199
H      -10.52234374      32.16142496      -9.60615220       0.76802265      -0.08445586       0.14674009
O       34.79037600      11.47410538      21.36809595       0.14115982       0.18579445       0.00906759
H       34.82473076      11.70575080      20.33695986       0.22234895      -0.22352160       0.27046478
H       35.44950900      10.80731238      21.44827499       0.56719508      -0.19303336      -0.63021486
O       30.34109083     -12.50902279       2.11937017      -0.82084702       2.24715924      -0.32265331
H       29.58115582     -12.22304401       2.65306113       0.21672985      -0.16990244      -0.06059939
H       30.18121117     -12.88365426       1.19224762      -0.00165890      -0.04526887       0.11939113
O       17.57141036       9.19587271      -7.43228533      -0.35955771      -1.70046686      -0.00968463
H       17.07253393       8.30586954      -7.65097505       0.23058131       0.32245044       0.36827884
H       17.60853705       9.42809296      -6.46708980       0.31025597      -0.25730400      -0.04784923
O       -5.09455536       2.58367113      32.21430157       0.63707138       0.21878118       0.75123944
H       -5.79686905       1.82018317      32.16542034       0.11393990      -0.29389742       0.33432983
H       -4.30190147       2.05059168      32.44829798      -0.00206347      -0.00653994      -0.07994350
O        3.90682220       0.88752181      -0.21877656       1.70182062       0.12319688       0.21951161
H        3.34472229       0.12022313      -0.31325861      -0.04190143       0.24786332      -0.09294279
H        4.28654053       1.36203981      -1.05067360      -0.01087633       0.30183953       0.14994343
O       23.19439346       3.23738608      11.66969520       0.03771266       0.61733487       0.66304494
H       23.37553969       3.77956419      12.46487456      -0.13132519      -0.27302071      -0.59559402
H       23.71980087       2.45955888      11.53746976      -0.08457277       0.04624561      -0.14390357
O       -1.43263281      31.84427781      15.08903836      -0.39358026       0.47999067       1.26714224
H       -1.96080900      32.50661514      14.66678582       0.55288077       0.09284158      -0.05883718
H       -0.68736590      31.54846552      14.52164504       0.02926670      -0.12442745      -0.26455401
O        4.82204164      19.42068480       5.20699110      -0.59284811       0.69108895       0.08223049
H        4.13349573      19.21049716       5.75203239       0.40175435       0.34293982      -0.10351236
H        5.45061630      18.62285040       5.16293523      -0.15506977      -0.21828912      -0.09269987
O      -10.22470672      10.49176279       9.54284133      -1.12772267      -0.09594769       0.43256312
H      -11.02298342      10.93511927       9.04487697       0.18634844      -0.07909669       0.57253218
H      -10.18647995      10.77251469      10.53492921       0.22328557       0.07138654       0.15106624
O       17.71150205      17.76547508      26.00444487       0.23041437      -0.07019043      -1.85127004
H       18.24568824      17.00964704      26.27199903      -0.05115107       0.00164035       0.23243212
H       16.80768705      17.35577966      26.11718264       0.06524006       0.35377815       0.03803089
O        6.90259778      18.68230905      10.15478053      -0.68906522      -0.09092432       0.67843111
H        7.30223318      19.35037548       9.56466553      -0.05857471      -0.03091077      -0.16726234
H        6.34502766      18.05973744       9.76265793       0.07095042       0.11247684       0.07159724
O       -0.71893198     -13.84844097      13.25503599      -0.96702315      -1.14061638       0.02808849
H       -1.50448706     -14.15387080      12.90582708      -0.14702814       0.07519537      -0.10514404
H        0.01902438     -14.42847024      13.27698534      -0.12022925       0.54702838      -0.23608855
O        1.09809460       5.98737425       1.15113214      -0.72368659      -1.71004723       0.95756560
H        1.74513546       5.11579340       1.04044180      -0.01455428       0.00586596      -0.31530040
H        1.29638164       6.60976651       0.37919419       0.38620443       0.06136643      -0.14524189
O        3.24254447       1.27131745       8.39219948       1.13552113      -0.54281383      -0.00780476
H        2.17954620       1.24849651       8.20632261       0.30823769      -0.05763406       0.03001874
H        3.43139367       1.19047521       9.30130352       0.18053412      -0.13633674       0.15557540
O      -18.83916854      28.86663952     -16.18634379       0.13303493       1.00350297      -0.94100033
H      -18.44247673      29.10315399     -17.03865035       0.12630338      -0.33971966       0.83731023
H      -17.97563003      28.49194136     -15.75316982      -0.31255944       0.36020844      -0.41882114
O        2.92158627      26.79797749      -9.11144882       0.85914754      -0.52469592       0.37634710
H        3.49923279      27.06792905      -8.11749756      -0.68078121      -0.49175842      -0.71347903
H        2.02919339      26.53926983      -8.72686686       0.21522703       0.27532291       0.41765564
O      -18.13943694      18.95001161       1.97144613      -1.00966495      -0.81248300       0.06095592
H      -17.71228230      18.79614247       1.01270028      -0.59574006      -0.04452551       0.42403931
H      -19.01143576      18.53708366       1.85294358       0.42247536       0.19385172       0.01333893
O       11.69841217      17.55732079       7.00539505      -0.19825835      -0.28899060      -0.80136247
H       12.45113746      17.53119440       6.37463242       0.07503248       0.18422129      -0.25578104
H       11.22231125      18.27218949       6.55819569       0.03160927       0.03485123      -0.00651336
O       -7.18664689     -11.22771886       5.15582811       0.48686630       0.00451763      -0.34305208
H       -6.88162051     -11.64678195       4.29124960      -0.19504553      -0.27684751      -0.40314485
H       -7.39310512     -12.04191033       5.55810718      -0.05530970       0.04460887      -0.09466555
O      -24.18173330       3.32434374      10.72948894      -0.47338596      -0.48718005       0.25656632
H      -24.87238854       3.90015369      10.46931379       0.22683595      -0.17996683       0.02528309
H      -23.35892169       3.60038103      10.23228886      -0.59279329      -0.31748873       0.16025567
O      -11.47017566      -8.28675885      18.45707460      -0.49268550      -0.76027165      -0.24434412
H      -10.71177882      -8.87426956      18.69797354      -0.12414297      -0.01062423      -0.42756314
H      -11.34913371      -8.14509231      17.46891970      -0.04651411      -0.30700843       0.31251922
O        8.48002647       7.41064287      16.83246909      -1.98303285       1.20821209      -1.03063663
H        9.37131317       7.26365436      16.89200430      -0.15485513      -0.07690377      -0.00260862
H        8.17194698       7.03024395      15.97873704       0.23856104       0.12777273      -0.06424629
O      -11.61391459      -0.47630224      20.43432412      -0.19587007       0.01291123      -0.02690404
H      -12.38786971      -0.10551657      20.86262070       0.20585259       0.23294976       0.13620871
H      -11.60559953      -0.57113258      19.40191251       0.18076548       0.02899320       0.08466956
O       24.10335942       2.53279548      16.17517734      -0.45824424       0.02177452      -0.49701004
H       24.04858797       2.24889647      17.07776834       0.04383121       0.05653951      -0.12885958
H       24.25568598       1.59334394      15.75004371       0.13570746       0.53558179       0.23401794
O       -5.65553227     -17.93211915      -5.11994216      -0.09095830      -0.16791721      -1.42895462
H       -4.71771976     -17.72062101      -5.21881458      -0.02321909       0.23775232      -0.26170607
H       -6.31525318     -18.43679096      -5.68983000      -0.11856985       0.56543204       0.09558130
O       29.33926354      -8.90827059      -6.18326184      -1.61314008       0.51216948      -0.45173389
H       30.19461363      -9.19286790      -6.35969877       0.04623358      -0.07813336       0.23223879
H       29.01099525      -9.80868305      -5.75505126      -0.05674431       0.14429731       0.23775475
O        8.86730496      -0.63150670       3.49286348       0.92411620       0.37347066       1.01627207
H        8.25065783      -0.02332093       2.97785160      -0.25388297       0.20720968       0.14094911
H        8.49737883      -1.49595399       3.30204700       0.05963545      -0.17634993      -0.22454045
O      -19.78152794      -3.11912620      24.77606689       0.03225097       0.17214055       0.40832519
H      -19.91065069      -3.84426551      24.27012914       0.18518521       0.39776722       0.13112116
H      -19.08252347      -3.20314309      25.41871188      -0.28193908       0.45331584      -0.31824121
O        2.49444334      -5.70964232      -5.97491823       0.96061711       0.73251322       0.62267848
H        2.41408877      -5.47591922      -5.01467441       0.04237763       0.26195204       0.17405582
H        2.12401219      -6.69181143      -6.19271413       0.22061806       0.07905364      -0.11414923
O        9.94129477       8.20303229       7.96674726       0.83211683      -0.82696442       0.37071368
H       10.32647754       8.73505989       7.26936107       0.05429820       0.01897468      -0.04497046
H       10.04909104       7.25790269       7.76146928       0.12160119      -0.00703988      -0.63576753
O        5.38190530       9.72743504      -4.91437046       0.79953129      -0.44171607      -1.44828910
H        6.13249200       9.23788384      -4.75208216      -0.40414832       0.15341316      -0.04732183
H        4.68235298       9.49961840      -4.26917206      -0.26862898      -0.12063328      -0.06388962
O       13.70197115      29.37569963      15.91938125      -0.65912395      -0.69153389       0.85490988
H       12.75398320      29.09104181      15.94920694       0.10009413      -0.07142556      -0.13191511
H       14.24340967      28.61885845      15.78829420      -0.28762045      -0.04498051      -0.03414407
O       -2.84601615       3.98675019       1.71253318      -0.73687096       0.10932091      -0.27675506
H       -2.60379988       3.31196529       2.49884598      -0.18266405      -0.21705491       0.24663080
H       -2.59193411       4.93337555       1.90202731       0.22241092      -0.11509828       0.09379825
O        7.89939636     -14.01487002      10.87976347       0.87343404      -0.36006405      -1.50344680
H        6.79242647     -14.37251535      10.73260693       0.17233799       0.13003982       0.09252632
H        8.22476460     -14.18037095      10.03702163       0.02344089       0.25862727       0.03411430
O       -2.54415721      10.59525690      24.29750768      -0.89011448       0.79924096      -0.14914584
H       -2.30721666      10.22307523      23.33763390       0.08984424      -0.12539609      -0.26055162
H       -3.28973686      11.09660000      24.06532020      -0.21064449      -0.10298680      -0.01331638
O       20.02870866      21.77173491       1.51757801      -0.52091377       0.57979263       0.13966368
H       19.77785951      21.99768084       2.51114447       0.05290499      -0.02257648      -0.42825511
H       19.65962559      20.91540604       1.56943003      -0.10282733      -0.33542750       0.03891613
O       12.22903312      10.00139488     -15.85822587       0.95163023       0.05752232       0.03656606
H       12.72509596       9.27979966     -15.65486213      -0.01993010       0.01617734       0.06341301
H       12.44689372      10.27828876     -16.88640291      -0.29632737       0.06492450       0.37088813
O      -11.35996425      22.27523234       0.99800218       0.27676562      -0.12011917      -0.77323736
H      -11.85248619      21.37542523       1.27808906       0.23573734       0.38949214       0.03597112
H      -11.10576989      22.50166477       1.91083912      -0.16906407      -0.23317280       0.20971286
O        2.90193225     -15.05333937      16.02135674      -0.23255406      -0.32232100      -1.13850072
H        3.13011277     -15.55462246      16.76518803      -0.21739022       0.15173581       0.04783275
H        3.72255260     -14.58195020      15.73664053      -0.16719878      -0.14284936      -0.21494989
O        2.35070655      16.26319214       0.37530744      -0.75831097      -0.44354907       0.25725368
H        1.80844212      16.13200922      -0.29882831      -0.03089876      -0.24952433       0.05172237
H        2.94434106      15.49944049       0.33253167      -0.26043716      -0.22092294      -0.34766549
O       -5.82781580      -7.36721189       5.63377602      -1.02031205      -0.76555966       0.20298220
H       -5.29181093      -7.70930327       6.40498931      -0.15531473       0.01046923       0.34616526
H       -5.26656523      -6.97873242       5.00147256      -0.55641043      -0.40630318       0.22540120
O       -2.16177154       2.44261135       6.62835521      -0.33419323       0.99650430      -0.70491336
H       -2.03820151       3.34643489       6.86624797       0.28810428      -0.36714757       0.03857974
H       -1.57216871       2.02726653       7.38580408       0.50909199       0.14635843       0.31893773
O       13.24509854      -5.56896406      -1.47450637       1.28017490      -1.69765601      -0.02057764
H       14.12047478      -5.55275580      -2.03473831       0.10187796      -0.26670369      -0.16161082
H       13.05211856      -6.49714274      -1.56655438       0.09501633       0.54251803      -0.06540236
O       11.81495024       4.84667433      22.74045640       0.17585817      -0.80740125       0.76850870
H       11.10064720       4.38591602      23.15981156      -0.10237704       0.27848131       0.02945880
H       11.97370616       4.66796999      21.81189127      -0.13135728      -0.12756883      -0.22210679
O        8.08112415      14.44740771      23.91229918      -0.86679396      -1.05890798       1.10222022
H        8.85484527      14.83433439      23.47428743       0.06408634       0.23278618      -0.11845482
H        8.13040218      13.47228379      23.82011033      -0.40242603       0.59585201       0.05288315
O       -8.03096665       6.93348914      11.39679018       0.44070448      -0.61968778      -0.33687268
H       -7.18409079       6.61967230      11.04722718      -0.01051622      -0.18311181       0.42080180
H       -7.97987654       6.63823142      12.36526213       0.63962037      -0.10579022       0.01275172
