192
Lattice="13.066373825073242 0.0 0.0 -5.291772140481044e-07 13.066373825073242 0.0 -5.291772140481044e-07 -5.291772140481044e-07 13.066373825073242" Properties=species:S:1:pos:R:3:momenta:R:3 pbc="T T T"
O       12.71569130      -2.81608225     -15.45567989       1.22779032       0.20150777      -0.11129955
H       12.13743036      -2.42105087     -16.10065477       0.21454264       0.19962409      -0.11049395
H       13.39606097      -3.43278988     -15.74874842      -0.05378318      -0.07115873       0.24747164
O       25.27631820      24.44506107       0.40130497       0.39859158       1.29719437       0.80782169
H       25.50521627      25.37001287       0.75139763       0.09954033      -0.66690417      -0.31126653
H       25.55601640      24.69964075      -0.55938107       0.15246491      -0.15499019       0.47008623
O        5.38032238       1.49654346       8.04137177       0.24534047      -1.03564621      -1.29134815
H        5.86625178       1.91139215       8.74324671      -0.00782756      -0.10342603      -0.11927443
H        5.11424801       0.61774201       8.48803473       0.46015699       0.20557982      -0.31208409
O       -2.95892173      -5.68264080      -1.99821369      -0.07397083       0.82226861       0.91512557
H       -2.14356031      -5.63973313      -2.46203015      -0.42464759       0.42284498       0.06134648
H       -2.87854551      -4.66476037      -1.72877506       0.02763218      -0.33710211      -0.11044745
O        3.42130657      16.32478042      10.65700454       0.37111185       1.43164695      -1.11443961
H        3.85993883      17.09679056      10.99504219      -0.14133543      -0.08009502       0.47541868
H        3.14224295      16.36731593       9.72900995      -0.19081051      -0.28655443       0.15143602
O       -2.00569918       4.36824742       2.98034378      -1.07183645      -0.27026920       0.55603318
H       -2.53570571       4.44720885       3.71556764       0.05008733      -0.32409328      -0.45475789
H       -2.61589846       4.26265407       2.18618753       0.29140415       0.00176459       0.20300433
O       23.87317785      13.35186021       7.31858437       0.26929213       0.47646675       0.40714643
H       24.84493266      13.51647079       7.27859835      -0.14473763      -0.39456149      -0.05497359
H       23.61293755      13.13195612       6.42212188       0.06047115      -0.63003795      -0.30634848
O       -0.72139993     -14.98993033       3.89514103      -1.17411531      -0.32750887      -0.74466079
H       -0.64621934     -15.73236769       3.23897250      -0.10176466       0.14326381       0.19796910
H       -1.42433479     -14.36150481       3.88594221      -0.13877529      -0.15070855       0.55540721
O       18.45145682     -18.41016047       9.84777653      -0.04065223      -0.27923329      -0.44794572
H       19.34030409     -18.70874845       9.98639047       0.47798567      -0.29510498       0.18525988
H       17.83886938     -18.87078500      10.44521509       0.08644503       0.07256168       0.19214794
O        4.88175386     -14.19740263     -13.61074516       0.58223421      -0.30715308      -0.62517502
H        5.79574351     -14.01139556     -13.63471737      -0.11793961       0.27155614       0.10921031
H        4.51157344     -14.79966970     -13.00672752       0.27752156       0.25094513      -0.26110390
O       -4.81469803       2.24490447       4.35158260       0.37366082       1.08134063       0.15449538
H       -4.85863439       2.01598289       3.40989448       0.00258411      -0.09170007       0.14362103
H       -5.58827084       1.86609755       4.76710405      -0.46503329      -0.20402588       0.18938319
O       -5.85721232      15.27576628      27.71174291       0.18295344       0.00900785      -1.07252235
H       -6.90844221      15.31251581      27.62060051      -0.28014224       0.36378524      -0.37831618
H       -5.47154856      14.69067523      26.90934960      -0.17255131      -0.04011159       0.28197801
O        7.50300559     -15.53015444      -6.82612546       0.81589984       0.62807816       2.34130532
H        7.91489642     -16.38384807      -7.03982276      -0.01639862       0.10103381       0.15781399
H        7.15564443     -15.61577749      -5.96660960       0.22213694       0.37247341      -0.66596775
O       15.43760463       7.47649897      20.55055203       0.52740977      -0.06387920       0.15718373
H       14.71180369       6.96095605      20.16693640      -0.01546782      -0.07012297       0.09495332
H       16.42295494       7.16804214      20.61754070       0.08439956       0.32667792       0.15903177
O       -0.25754525       1.07135669       0.99294326      -0.20054068       0.89102944       0.67585357
H       -0.10438865       1.37613267       1.87907316      -0.14782733       0.35085381       0.00840047
H        0.27790264       1.32928450       0.26112116      -0.12565385      -0.10959338      -0.17103838
O      -16.13766919      12.57896753      17.75722149       0.14762170       0.25089108       0.71541322
H      -16.52099419      13.09966969      17.13394575       0.23824139      -0.25458207      -0.09821308
H      -16.72269543      11.96370317      18.11586283       0.23822621       0.13810626      -0.42291966
O      -17.76932099       6.29370266      12.96352256       1.83998745       0.63827827      -0.74843747
H      -18.54555977       5.66347015      12.55183043      -0.03121644      -0.14434551       0.05734438
H      -17.13454220       6.86542194      12.49602343      -0.21164081       0.48170996       0.18940246
O      -10.00181245      34.29729611     -11.50697080       0.03264479       0.56412063      -0.14213422
H       -9.46719817      33.66506922     -10.85173264       0.38247300       0.33969483       0.04008325
H      -10.05941307      33.27208984     -11.45422097      -0.30427915      -0.36593259      -0.14858750
O       36.56609201      10.89672644      21.76015813       0.96540198       0.24075650      -1.14401148
H       36.69231390      11.71250938      21.29476007      -0.23780211      -0.05323173       0.04180697
H       35.68945214      10.88036503      22.02635479       0.11476396       0.10108446       0.13651099
O       30.55140042     -10.99234885       2.37006355      -0.03267045       0.18442389      -0.51804771
H       30.56117777     -11.45965336       3.16425583      -0.15437493       0.24269530      -0.25840381
H       29.98814700     -11.33129833       1.59772467       0.41449067       0.26079764      -0.03938677
O       16.37017650       9.74198713      -6.89545102      -0.28865670      -0.82837855      -0.09551238
H       16.78297733       9.77165182      -7.78158429      -0.00521220      -0.02190775      -0.25571141
H       15.99488388       8.91937407      -6.54660535      -0.17142879      -0.07176080      -0.10032428
O       -9.26307608       3.48705876      33.46601850       0.76602788      -0.97790366       0.22644059
H       -8.94709507       4.40192511      33.56554780       0.11576053       0.29866494       0.06075586
H       -8.62049307       2.94884043      33.89238513      -0.07261710      -0.08229265       0.09567027
O        3.26563847       1.17385531       0.10315430       1.55955526       0.65208419       0.20383092
H        3.15988924       1.87546738      -0.50526901       0.19947828      -0.37852198       0.08805164
H        3.76841129       0.45352872      -0.30561933      -0.23152182       0.22361776      -0.03695707
O       23.47086662       1.95885948      12.99351231      -0.75562883       0.05742962      -0.11542298
H       23.27130586       2.76258566      13.55278029       0.07839527       0.32118075      -0.02207257
H       24.22616858       1.40273958      13.30169780       0.01163217      -0.36617800       0.02584464
O        0.07472501      32.51749396      15.68294609      -0.31441888       0.95417764       1.79225200
H       -0.58888665      31.81334980      15.50069822      -0.14248489      -0.49821142      -0.08379937
H       -0.08979477      33.38411208      15.33036033       0.11510068      -0.55685060      -0.21821278
O        6.02850326      20.25235276       5.06258271      -0.95166963      -0.71146478       0.97708636
H        5.24625637      19.96508910       4.43314641      -0.05447046      -0.07133311       0.12789744
H        6.53361887      20.94737348       4.64591780       0.52911840       0.31416333      -0.30860937
O       -9.64850710      10.93702612      10.42579225      -0.75163435       0.83032281       1.05889088
H      -10.20370034      10.14864211      10.37800483      -0.15377857       0.00704512      -0.02780694
H       -9.08405883      11.02865505      11.37280591      -0.05928947      -0.05884248      -0.10099023
O       17.19088144      17.97310157      28.11933320      -0.09962215      -0.82297319      -1.20824849
H       17.51429571      17.05974496      28.20872877      -0.04795290       0.59849070      -0.09305587
H       16.33423040      18.14210878      27.70308160      -0.11574622      -0.30473948       0.09442051
O        6.73055699      18.41994535      10.91370756       0.33046134      -0.74066725       0.63825560
H        7.22079700      18.77500638      10.22999944       0.08559859       0.07733762      -0.11896743
H        6.63994456      17.48171007      10.66963703      -0.26528808      -0.11175654      -0.17682034
O        1.02967864     -13.61948338      10.43040028      -0.13317637      -0.63228921      -0.14083382
H        0.28299459     -14.19477031      10.59767456       0.10705029       0.40677805       0.03642968
H        1.97041400     -14.03054484      10.34836482      -0.57996331      -0.19719174       0.31115769
O        0.01573608       9.18556853       1.89647896       0.12115647      -0.60536369       0.33130561
H        0.94183795       8.93989527       1.80218128      -0.01441178      -0.19004798       0.30668483
H       -0.15953790       9.74935670       1.15701373       0.04984759      -0.40500276       0.56193549
O        0.48782568       0.63518988       7.80252948       0.74110537      -0.46929915       1.11621298
H        0.97003399       0.32135608       7.10584219      -0.08163178      -0.01190490       0.05978362
H        0.69583119       0.14609077       8.62510583       0.24288803       0.11182477      -0.31417750
O      -18.84005237      28.92030698     -15.93614239      -0.05244508       1.50971320      -0.29658503
H      -17.92266558      28.77260309     -16.54346753       0.26505918      -0.01829790       0.04912329
H      -18.73529891      28.43767445     -15.10030510       0.41697326       0.07296966      -0.09645772
O        4.62695886      26.40594568      -8.26486986       0.81152101      -0.23901561       0.50555722
H        5.34086105      26.84572264      -7.83320512      -0.42511271       0.08429802      -0.32249229
H        3.68671881      26.56688074      -7.96358566      -0.42555931       0.13108708      -0.24031504
O      -18.22997925      21.55324108       1.47293294      -1.26656652      -0.78467789      -0.21892036
H      -18.22607612      20.65938312       1.08971438      -0.04499794      -0.07371412      -0.03743119
H      -19.14447304      21.73654865       1.18828956       0.25301963      -0.01370518      -0.15121489
O       11.42858037      20.28725869       6.91021312      -0.48516466       0.42594251      -0.18450313
H       11.67511780      21.22348622       6.72052590      -0.03913707      -0.59666085       0.12196226
H       10.50468477      20.11341907       6.76575082       0.69830337       0.17285489      -0.04115929
O       -9.48703010      -6.81222841       4.30578486      -0.22992901      -0.24058819      -0.21652757
H       -8.99390184      -7.49379052       3.67484751      -0.18211557       0.05607993       0.48868665
H      -10.22757136      -7.17924236       4.70016421       0.23245089      -0.35079079       0.13199928
O      -25.46721289       2.03135548      11.28353124       0.18403427      -0.40156223       0.35104276
H      -25.49474251       1.08109848      10.91749293      -0.09517335      -0.39042007      -0.69492337
H      -24.67982994       2.33474397      10.99293598      -0.49279414      -0.63821123       0.59950692
O      -12.46861645      -7.45937611      19.42900900      -0.38965544      -1.00411719      -0.21782293
H      -12.28092464      -8.20446155      18.84814429       0.21041292       0.11968622       0.07897528
H      -12.92330217      -6.95858559      18.75837982       0.17177283      -0.12495649      -0.04209138
O        8.10229039       8.62215652      17.41443930      -0.71824534       1.07839436      -0.25684776
H        8.79739018       7.95912222      17.65155209      -0.03659169      -0.29941511       0.28420480
H        8.24357811       8.61185863      16.43836753      -0.26723697       0.13467908      -0.12157550
O      -11.15942909      -0.73912233      18.51717545       0.37383748      -0.23862197       0.59850682
H      -10.69537885      -1.55118510      18.72818617      -0.05084367      -0.07265870       0.08454054
H      -11.86050070      -0.97941795      17.91409698       0.01235244       0.10210508       0.28109420
O       22.63466903       4.02105598      19.04041230      -1.19897221       0.53456106      -1.19216328
H       22.30316016       3.40030683      18.27918517       0.04449313       0.20658696       0.12394158
H       22.76428384       3.59391621      19.88472936       0.22810330       0.03540118       0.13633991
O       -4.97276884     -18.85838920      -3.81346701       0.43339323       0.05640704      -1.43301421
H       -4.15654259     -19.08717534      -3.34330991      -0.41001774       0.00999745      -0.05190825
H       -4.96941211     -19.31177994      -4.68210950      -0.24887433      -0.19866641      -0.09955097
O       27.58266472      -9.96912230      -7.17534446      -1.03016080       1.45974134       0.33757290
H       28.61317870      -9.96060020      -6.91027215      -0.09395110      -0.04614979      -0.01251552
H       26.90825428     -10.56419697      -6.86244998       0.04265407      -0.00428868      -0.12541169
O        7.01589868       0.37249286       5.94600848       0.68351639       0.73097035       0.63944046
H        6.86146591       0.59527774       6.82274794      -0.08617921      -0.23174932      -0.21948182
H        7.40196194      -0.47453890       5.72835843       0.24375345       0.01557450       0.16450805
O      -18.59007166      -2.02726119      24.52977855       0.45279651      -0.02213023      -0.79510819
H      -18.82660299      -2.26854264      23.63160228       0.13757460       0.19792997       0.29457615
H      -17.84769085      -2.51646968      24.95023890      -0.23790429       0.42950881      -0.12891605
O        4.94399625      -6.71804179      -5.55847023       0.89882346       1.03497404      -0.27512395
H        5.05301853      -6.11541729      -4.79392788      -0.23472229       0.01608668      -0.43659197
H        5.38246000      -6.35431411      -6.42044824       0.12573183       0.01272014       0.17151171
O       12.15126684       9.78431794       6.30600547       0.03190331      -0.31075756       0.13081697
H       11.83711662       9.94549123       7.27914397       0.08566002      -0.05876027      -0.67315285
H       12.10640139      10.18725967       5.47234297       0.16788513      -0.20648405       0.07883193
O        4.47194703      11.86328235      -5.12595194       0.80597463      -0.50005236      -0.56294033
H        4.00117749      11.63269753      -4.34175078      -0.23214348       0.24536124       0.00169264
H        4.23197668      11.24336429      -5.86018537      -0.06171118       0.20328716       0.38610272
O       13.18530364      29.00243497      15.90079836      -0.53894092      -0.53842058       0.18169414
H       13.62177541      28.89808390      16.76053098      -0.17725553      -0.16669552      -0.34664902
H       12.32558051      29.30831316      16.19132194       0.15115528      -0.11648482       0.20571067
O       -4.11550128       4.02523596       1.22531957       0.02664519       1.01689304       0.15638730
H       -4.53138728       5.03973875       1.25258360      -0.22905096      -0.26059598       0.07820775
H       -4.90465912       3.45092272       1.48066955      -0.06526753       0.08902280       0.05995192
O        6.58225609     -15.81773254       8.86220108       0.28114490       0.11088493      -0.64109421
H        5.77236673     -15.35339527       8.60766561       0.05856348      -0.48872944      -0.11102367
H        6.45884871     -16.76603416       8.91425952       0.14750624      -0.04961198      -0.10646890
O        1.56227363       8.71047366      22.75501316      -1.28676893      -0.37777308      -1.20298525
H        1.42409748       7.91779491      23.31922584      -0.12709540      -0.17305152      -0.12001547
H        1.98196103       8.60203324      21.94326683       0.14468778       0.29567289       0.21439162
O       22.86504202      22.88526853      -0.33253823      -0.86119397       0.22046712      -0.67058972
H       23.32267162      23.73456306      -0.14256568      -0.20878765      -0.02055889       0.29784057
H       22.14999506      22.69889678       0.24029685       0.05986300       0.04112584       0.26706661
O       12.00401152       6.00350455     -16.64581161       0.63530412       0.63531312       0.08508186
H       11.87645432       5.05688325     -16.63282221       0.10047664       0.18832516      -0.18421939
H       12.05433352       6.47880820     -17.53963197      -0.13860176      -0.26851333       0.48907984
O       -7.77076973      22.82895317       1.75116035      -0.44246699      -1.10184086      -0.26796148
H       -8.57689642      22.33309597       1.72200046       0.17474800       0.00415920      -0.00731798
H       -7.70455232      23.39299174       2.74912708      -0.03662931       0.22860832      -0.00907806
O        5.18989658     -15.66523539      17.48504817      -0.36680016       0.11423799      -0.13999310
H        5.81281008     -15.91201630      18.15818109      -0.04325821      -0.13547043      -0.42529580
H        5.08837787     -14.77286983      17.18267779       0.30427505      -0.25698224      -0.10072222
O        1.69335520      18.65390067       0.59906952      -1.13446368      -0.89909032       0.17023794
H        1.02680031      18.94144111       1.16191660      -0.24792093       0.01154141      -0.50840326
H        1.25580694      18.58865975      -0.30667649       0.21568633       0.19864106       0.42925259
O       -4.76956996      -6.57323672       6.54720089      -1.18938145      -0.97849805       0.38597410
H       -4.45157524      -7.45564007       6.43969596      -0.21146243       0.30105941       0.24342263
H       -5.58054656      -6.44226345       5.99147791      -0.45592256      -0.13001658      -0.23703432
O       -3.54409138       2.29505017       8.49113377      -0.41042873       0.52266889       0.34897263
H       -2.91371676       2.65157512       9.12893974       0.06490199      -0.00631797       0.21302788
H       -3.23102201       1.38434089       8.20770608       0.20838610       0.11496943      -0.30755133
O       14.32234174      -6.91419655      -2.46445303       0.81173837      -0.98426383      -0.35392933
H       13.69209377      -7.17696599      -3.09376612       0.38665653      -0.07038553       0.08715455
H       14.95965171      -7.65785213      -2.48423328      -0.43573117       0.11071381       0.21149075
O       11.48587285       3.47697809      23.59028405       0.04304010      -0.14593526      -0.00220545
H       10.91586714       3.19973933      24.32028842      -0.06172916       0.04632066       0.22311385
H       12.20678876       2.93882466      23.67693419       0.03862463      -0.19471537      -0.45769567
O        8.01756283      13.75537976      25.48791368      -0.61202173      -0.50166353       1.44416089
H        8.88823494      14.06017732      25.40125488      -0.24197793      -0.22967713      -0.19022563
H        8.02896235      12.75010372      25.36414820      -0.09824114       0.45956657       0.16088302
O       -9.11282196       5.78873485      11.50225736       1.62117437      -0.49169726       0.55837814
H       -8.25699060       5.50464258      11.63238476      -0.88403606       0.04679912      -0.16634048
H       -9.26451523       6.17497159      12.32430084       0.49477592      -0.17069377      -0.44171405
192
Lattice="13.066373825073242 0.0 0.0 -5.291772140481044e-07 13.066373825073242 0.0 -5.291772140481044e-07 -5.291772140481044e-07 13.066373825073242" Properties=species:S:1:pos:R:3:momenta:R:3 pbc="T T T"
O       12.78334838      -2.78359491     -15.46408369       0.99071879       0.58226930      -0.60665646
H       12.28990511      -2.56668672     -16.28896409       0.00821638      -0.23804076      -0.02724245
H       13.23754129      -3.57991639     -15.74896230      -0.17913101      -0.14460426       0.01770618
O       25.29072020      24.47689810       0.45752443       0.93643197       0.81383821       0.65806361
H       25.81690069      25.49062783       0.77420258       0.01865121       0.02218834       0.16008685
H       25.76396580      24.46306329      -0.34477232      -0.14125839      -0.52367150       0.54879292
O        5.41409554       1.42895752       7.96541005       0.60578342      -1.92935094      -1.29604524
H        5.99567732       1.80362135       8.65618567       0.37245951      -0.17177051       0.11506826
H        5.28831244       0.49265193       8.14890393       0.09627314       0.31699782      -0.52262889
O       -3.00067232      -5.66282302      -1.94765040      -0.99701482       0.37465545       0.81006616
H       -2.32110837      -5.14035822      -2.41915485       0.15273806       0.45013473      -0.22971768
H       -2.66861294      -4.68866530      -1.82016545       0.03581182      -0.13576583       0.09718254
O        3.41804563      16.37892378      10.61369983      -0.51103501       0.27768916      -0.28961714
H        3.69268350      17.18326792      11.07903909      -0.13957654       0.28697582      -0.30253977
H        3.25903637      16.43311606       9.68466270       0.41505045       0.44428861      -0.14628402
O       -2.05315227       4.35088311       2.99602066      -0.53908012      -0.15291648       0.04263021
H       -2.60137930       4.14838679       3.67098161      -0.12146488      -0.46393306       0.27465431
H       -2.54348014       4.30000587       2.17665099      -0.15622113       0.10319800      -0.18964636
O       23.89965432      13.34079830       7.30302226       1.07114493      -0.47244675       0.00790466
H       24.85432554      13.32895051       7.46488671      -0.02412759       0.07976563       0.42221247
H       23.64082540      12.78962643       6.53827435      -0.24961961      -0.45148441      -0.29751837
O       -0.77496812     -15.00066442       3.88206172      -0.72883314      -0.29467140      -0.05162603
H       -0.89067114     -15.65198601       3.21461549      -0.24418520       0.17261052      -0.00413226
H       -1.67308153     -14.77397127       4.16822926      -0.42309173      -0.50381288       0.15660893
O       18.47277273     -18.44656961       9.82523013       0.15372682      -0.76099628      -0.13895830
H       19.44944840     -18.72955896       9.97643138       0.21427787       0.08447477      -0.13580077
H       17.91510358     -18.66436997      10.57503539       0.14322687       0.39938093      -0.17746481
O        4.89704049     -14.18834601     -13.66892480       0.18203068       0.34315509      -0.93188260
H        5.86615378     -13.98144085     -13.55575494       0.15707856       0.00439952      -0.11052585
H        4.84196588     -14.93947695     -13.01778761       0.22634433      -0.46925275       0.06231090
O       -4.82871358       2.28972923       4.37324130      -0.44100166       0.41120866       0.00249755
H       -4.76525158       1.93183350       3.48523878       0.20547024       0.00268194       0.19454833
H       -5.56909920       1.75453230       4.86870036      -0.04224696      -0.25174457       0.28841025
O       -5.88903942      15.26221313      27.65010133      -0.85448086      -0.54158192      -1.30912373
H       -6.73493072      15.71713860      27.39915114       0.59520073       0.20225163      -0.06355631
H       -5.53458595      14.47987741      26.98168090      -0.19027727       0.14041443       0.31849594
O        7.57120055     -15.47305124      -6.71972163       0.98128299       1.34169009       2.00666034
H        7.84081270     -16.34950896      -7.00544222      -0.21180060      -0.01047910       0.02036108
H        7.13952297     -15.43937801      -5.94655411       0.33946613      -0.10624104      -0.49780856
O       15.44655931       7.50549367      20.55868650       0.32810919       0.48315154       0.04386348
H       14.92907103       6.79240530      20.20001132       0.36477639      -0.09813997       0.00458992
H       16.37286901       7.17636114      20.62307282      -0.56098685      -0.05445766      -0.13185803
O       -0.30102427       1.09430042       1.01716550      -0.81812692       0.26351373       0.03886219
H       -0.05574160       1.77594449       1.68638060       0.01983123       0.21502617      -0.21388162
H        0.31508854       1.45294724       0.30742098       0.02089925       0.06533299       0.08549606
O      -16.10534321      12.58785876      17.79968682       0.44934193      -0.12237599       0.42829930
H      -16.32611928      13.10853891      16.92624728       0.30207685       0.11877067      -0.09456760
H      -16.77071340      11.84494536      17.93220831      -0.06463221      -0.08624004       0.01428674
O      -17.66605443       6.32581487      12.95977271       1.77195235       0.85936496       0.16809232
H      -18.37828778       5.85192067      12.25107731       0.08077374       0.21304666      -0.44989322
H      -17.41062915       7.07694613      12.41382072      -0.26034441      -0.18556117      -0.12930034
O       -9.99605140      34.32455109     -11.51533665       0.07122481       0.60363337      -0.32028178
H       -9.38033562      33.86086321     -10.82230022      -0.14631260      -0.13147453      -0.01878656
H      -10.05788901      33.35256368     -11.71580870       0.31375737       0.34230223      -0.12133872
O       36.61692793      10.91792548      21.68716786       0.82239234       0.51579223      -1.34050964
H       36.64096227      11.85293136      21.33040471       0.07983579       0.19994024       0.03640952
H       35.76401091      10.80031663      22.21274497      -0.00369329      -0.19679408       0.29105800
O       30.57413313     -10.93538587       2.33721979       0.55257230       1.31666546      -0.64155189
H       30.24482652     -11.54004829       3.01148725      -0.49148273      -0.30910920       0.10677434
H       30.27284635     -11.36271186       1.56142298       0.33445668      -0.04793065       0.02007423
O       16.34987274       9.69928663      -6.90435646      -0.25552094      -0.79173168      -0.38173461
H       16.86324512       9.58827382      -7.73340329       0.09309836      -0.15816486       0.38746727
H       15.97707105       8.81598712      -6.73199025       0.07055919      -0.02036534      -0.12973531
O       -9.23569771       3.45703902      33.47212285       0.06423959      -0.17923549      -0.01909213
H       -9.02806030       4.43143745      33.65603415      -0.11779388      -0.19992766       0.13716635
H       -8.54855653       2.91046667      33.88604228       0.17274168       0.10858120      -0.08021791
O        3.35382956       1.20344427       0.11023640       1.24532251       0.25058920       0.06144007
H        3.23642918       1.90154580      -0.56436237       0.01698664       0.34792387      -0.32208174
H        3.71078996       0.36453132      -0.22896225       0.07942891      -0.28177810       0.14314840
O       23.42088506       1.94960756      12.98706660      -0.69100789      -0.27490462       0.06594652
H       23.44482815       2.84179084      13.40536568       0.09070791      -0.24219706      -0.25805441
H       24.09347026       1.42572909      13.45175963      -0.28493034       0.36349619       0.05497022
O        0.05125326      32.51807105      15.78324100      -0.62807806      -0.52934357       1.20892067
H       -0.57720289      31.75592571      15.56966959       0.12945048       0.22012108       0.37915297
H       -0.14262724      33.09909573      15.10852421      -0.09863969      -0.08967153      -0.09811020
O        5.98256200      20.22734387       5.11749805      -1.03617620      -0.69994811       0.92628216
H        5.12176072      19.91110915       4.60818950       0.09671017       0.13405247       0.27226152
H        6.67858720      20.80345964       4.61713096       0.10100460      -0.02950347      -0.05540787
O       -9.70276535      11.00757073      10.48074813      -0.93970780       1.29021691       0.98941439
H      -10.15584184      10.19351796      10.45117075       0.18577966       0.05719928       0.14064703
H       -9.12477542      10.95769852      11.42945958      -0.12318441      -0.02176499      -0.03657407
O       17.17415237      17.95856633      28.05153149      -0.29652139      -0.44033468      -0.92781200
H       17.48954369      17.10883625      28.12633181      -0.04684321       0.08245448      -0.07333032
H       16.24705622      17.75040473      27.84197450      -0.14250128      -0.26454967       0.12283036
O        6.74974887      18.36243912      10.94390336      -0.07379885      -1.36227613       0.72383692
H        7.25074678      18.81416656      10.26696518       0.26441469       0.24266911      -0.21107549
H        6.58497390      17.42740621      10.61516682       0.13894030       0.01492062       0.07849638
O        1.02590831     -13.63503205      10.41354409       0.72081459      -0.51891574      -0.21116328
H        0.24286868     -14.09796328      10.67788479      -0.41419816      -0.16219368       0.10427781
H        1.69982950     -14.29437963      10.66508012      -0.44191371       0.33655927       0.06483126
O        0.00085215       9.14663664       1.94831991      -0.71286183      -0.17344103       0.67048540
H        0.96336548       8.98908209       2.06070880       0.07053700       0.23181641       0.11596259
H       -0.11489127       9.78972287       1.31247765       0.24979875      -0.08032572       0.48136559
O        0.51676631       0.60347007       7.85814292       0.21658743      -0.67060209       1.18182940
H        0.92409266       0.25539858       7.00442024       0.06225086      -0.20592136      -0.47575261
H        0.95376571       0.19743304       8.60937404       0.18044527       0.13346843       0.11636863
O      -18.80282367      29.00777726     -15.95518634       0.97716278       1.30717677      -0.15316598
H      -17.90826670      28.85668373     -16.57041929       0.13115199       0.18253899      -0.40332236
H      -18.57043341      28.53678678     -15.15325296      -0.14704396       0.08596166       0.09700162
O        4.64306942      26.36993413      -8.25042477      -0.22748892      -0.82474624      -0.03753939
H        5.18095450      27.01120709      -7.88423605       0.06985025       0.28104052       0.14067991
H        3.72146601      26.71096816      -8.19938998       0.47030471      -0.00219247      -0.20690470
O      -18.32061144      21.47848996       1.44397263      -1.22212619      -1.14380016      -0.40649720
H      -17.93092912      20.70253400       1.03331432       0.18619774       0.06685465      -0.22871789
H      -19.05760972      22.03363950       1.24819213      -0.09939461       0.27099840       0.03312255
O       11.43739372      20.28818363       6.91273845       0.74107352      -0.30279671       0.34366432
H       11.74448268      21.15179180       6.82518442       0.16075763       0.19645268       0.13270903
H       10.56122121      20.22154957       6.67026976      -0.54741040       0.09872355      -0.22612543
O       -9.50018068      -6.82799473       4.30418345       0.23119936      -0.95407509      -0.40209703
H       -9.08719396      -7.55513269       3.72290686      -0.41837642       0.55405175       0.09174829
H      -10.03493145      -7.31359378       4.98996954       0.07726554      -0.01457193       0.51236671
O      -25.49434367       1.95816469      11.29490263       0.56042395      -0.68212836      -0.03622712
H      -25.61599492       1.18357864      10.56675716      -0.01282716      -0.05451219      -0.31639114
H      -24.60190902       2.17632293      11.29724926      -1.00964310      -0.41022613       0.31132428
O      -12.47985328      -7.51443800      19.41053228      -0.08308306      -0.61776250       0.25681006
H      -11.87947006      -8.17857950      19.11476221       0.51132423       0.11469026       0.06112277
H      -12.88951204      -6.86450247      18.81608730       0.01576957       0.07827217      -0.13575491
O        8.07828369       8.68686817      17.39301723      -0.45840367       1.23521693      -0.14808076
H        8.51452822       7.90535847      17.79491021      -0.37820717       0.08413867      -0.16119551
H        8.01044892       8.66872551      16.44675223      -0.04954927      -0.18179015       0.18131998
O      -11.13120806      -0.75422403      18.56580023       0.48155638      -0.24464158       0.93617536
H      -10.75430447      -1.64858486      18.78194262      -0.05019220      -0.15690750       0.01145447
H      -11.95971315      -0.91033149      18.09128543      -0.15515575       0.02633383       0.11516637
O       22.56750761       4.08739727      18.99884429      -1.22942591       1.00927416      -0.59405911
H       22.17214361       3.39144147      18.41166175      -0.02707272       0.42642945       0.47484578
H       22.87848306       3.53026281      19.74461665       0.07344775      -0.04658527      -0.23814810
O       -4.97366695     -18.86027097      -3.91098623      -0.36436388      -0.04370454      -1.57847276
H       -4.30783441     -19.08065197      -3.31292684      -0.00829685      -0.00288647      -0.00960999
H       -4.98231501     -19.43721711      -4.70646502       0.26437537      -0.09869469      -0.02139649
O       27.52445347      -9.87036885      -7.17135556      -0.63944679       1.19658518       0.18147065
H       28.49826094     -10.02684489      -6.62315806       0.00618335       0.24384852       0.33522894
H       27.11292346     -10.63616265      -6.75839847       0.02803895       0.00222169       0.10085623
O        7.05364266       0.41479340       5.95939384       0.63920329       0.49865995       0.40359411
H        6.62635945       0.42003721       6.79910491      -0.54913082       0.00736180      -0.06882312
H        7.55545734      -0.43780695       6.09045475       0.09566483       0.06649674       0.29098830
O      -18.57768492      -2.00155749      24.49250586       0.24657829       0.58800873      -0.21456182
H      -18.61784737      -2.22745305      23.57995953       0.27523748      -0.07578599      -0.44000098
H      -17.80382032      -2.34604927      24.85739106       0.08583772       0.08262814      -0.13500506
O        4.99107985      -6.64864025      -5.58656429       0.70101636       1.45299288      -0.57141902
H        5.05518114      -6.06703839      -4.89317087       0.22671411      -0.09396293       0.00605345
H        5.47043028      -6.34580164      -6.34376845      -0.08831058      -0.04851184       0.24768214
O       12.18125546       9.72562239       6.28839582       0.29808122      -0.81406325       0.34657626
H       11.64396672      10.26551165       7.08075257       0.07841390       0.06874925      -0.68278019
H       12.14108040      10.26516794       5.48671660      -0.01305536       0.22262368      -0.07925240
O        4.52561242      11.83104436      -5.13487617       0.83387625      -0.81163937      -0.20562311
H        3.85331929      11.91655376      -4.41362405      -0.14348346       0.30240446       0.07147439
H        4.11275763      11.30056513      -5.77452078       0.04119045       0.20995186       0.06585931
O       13.15109070      28.98160974      15.91838464      -0.30144840       0.02305129       0.25296825
H       13.68299446      28.51429675      16.53765935       0.05466718      -0.60676778      -0.09154348
H       12.27414224      29.32536139      16.17810849      -0.24190109       0.10141868       0.05760672
O       -4.11062920       4.09462213       1.23625759      -0.23118345       1.28802275       0.19835888
H       -4.66400414       5.03162798       1.05001333       0.15900305       0.01377402      -0.35022666
H       -4.77792931       3.51632519       1.53067689       0.46031257       0.19043278      -0.03727590
O        6.60234219     -15.81539371       8.81555719       0.16541592       0.05934009      -0.81580047
H        5.75139939     -15.58942657       8.48624280      -0.02126729      -0.05697960      -0.03468540
H        6.70442084     -16.77750555       8.91041284       0.33303011       0.00470294       0.10371256
O        1.48648266       8.67221714      22.70813366      -1.23735246      -1.04157987      -0.41254453
H        1.32645967       7.74047602      22.98237240      -0.08061400       0.01101113      -0.36829920
H        1.99170652       8.58338992      21.87828773       0.05439458      -0.15341344      -0.43752105
O       22.79167141      22.91237018      -0.36706822      -1.41513597       0.93075674      -0.30732713
H       23.24946065      23.61475056       0.09289318       0.11712855      -0.28666327      -0.00939218
H       22.29572692      22.59395250       0.42523685       0.00430374      -0.41981865       0.17474519
O       12.04967239       6.04083535     -16.61656609       0.70455313       1.08157996      -0.28931230
H       11.93033985       5.10701191     -16.73225756      -0.03123753      -0.25938848       0.02088064
H       11.83957669       6.38758347     -17.55524951      -0.19178052      -0.24493568       0.50780492
O       -7.77957238      22.76985796       1.73800903       0.08933926      -0.94920990      -0.33915776
H       -8.60994528      22.33811245       1.68610023      -0.18543087       0.02077073      -0.10317977
H       -7.82464543      23.39666268       2.70949236      -0.15315031      -0.06997132       0.20378695
O        5.15228749     -15.67506977      17.46579714      -0.44604601      -0.17968403      -0.38430918
H        6.00844461     -15.95907255      17.81477294       0.30470934      -0.24780440      -0.30500729
H        5.31171960     -14.72665986      17.31948815      -0.08867635       0.33145778       0.23084574
O        1.62275895      18.59662509       0.61999066      -0.90079867      -1.11899399      -0.28365404
H        0.84907655      18.89689924       1.06766525      -0.55446344       0.05257726       0.45095123
H        1.48858157      18.68999174      -0.29782830       0.50748846       0.02959822       0.15160292
O       -4.86776914      -6.61620342       6.57168424      -1.45523638      -0.78494810       0.68664756
H       -4.50667155      -7.50014928       6.52974027       0.18104349      -0.19906899       0.02429310
H       -5.76896217      -6.72777593       6.07561257      -0.49304705      -0.26973596       0.05241937
O       -3.56833280       2.33133523       8.52916256      -0.31207361       0.62265417       0.73066051
H       -2.92591928       2.64832053       9.19546898      -0.03325189       0.05012801       0.00188807
H       -3.07942499       1.71066167       7.96229759      -0.02760125       0.57039194      -0.04750985
O       14.36480150      -6.95805493      -2.48916525       0.66476170      -0.43746499      -0.40846085
H       13.70652950      -7.14021455      -3.10856589      -0.38280680       0.10945654      -0.16144589
H       14.89054327      -7.71093020      -2.30150477       0.25355763      -0.23147073       0.27150258
O       11.49548148       3.45374399      23.58195084      -0.17152560      -0.16479268      -0.23212182
H       10.99155799       3.32707690      24.40204215       0.28590736       0.06753120      -0.11185877
H       12.19595793       2.92085709      23.47604853       0.22854877      -0.20095342       0.04772845
O        7.97668740      13.74460605      25.57695208      -1.10147665      -0.34237272       1.36506595
H        8.85256955      14.03336743      25.36993064       0.53164924       0.20550001       0.00324101
H        7.88509721      12.82885698      25.51761545      -0.12338159       0.07742537       0.18415512
O       -9.05117375       5.76426534      11.50118857       2.20372202      -1.01225328      -0.41866801
H       -8.00112019       5.41071678      11.53928187      -0.49649984       0.36396424      -0.38072459
H       -9.04130805       6.10940075      12.39171628      -0.03205810       0.12509102       0.76275433
