192
Lattice="13.066373825073242 0.0 0.0 -5.291772140481044e-07 13.066373825073242 0.0 -5.291772140481044e-07 -5.291772140481044e-07 13.066373825073242" Properties=species:S:1:pos:R:3:momenta:R:3 pbc="T T T"
O       12.82127335      -2.90677326     -15.62460914       0.02864457      -1.22731419       1.05502598
H       12.07898196      -2.30684615     -15.44354956       0.30238402      -0.02950510       0.31893872
H       12.74333120      -3.74944922     -15.20997830      -0.00394455      -0.08921843       0.03551619
O       24.01034378      24.75229119      -1.52581169       2.23133538      -0.45293019       0.27459484
H       24.28982277      25.67495432      -1.71541229      -0.22544024       0.08106866      -0.11329072
H       23.70015615      25.10157878      -2.36997200       0.18168582       0.02549927      -0.19273702
O        6.46756220       0.92936565       9.21026935      -0.80431416       0.61173337       0.83678769
H        6.24975827       1.42276206       8.43444567       0.10445212      -0.04811124      -0.06915447
H        5.69844422       0.99368257       9.82233599      -0.34302492      -0.04498648       0.03291275
O       -2.86736238      -4.03506094      -1.73817085       0.73174382      -0.41311535       0.84475876
H       -2.61124209      -4.92281137      -2.17820393       0.01336808       0.21547141      -0.17828613
H       -2.08488030      -3.54541703      -1.49673551       0.14005434       0.12912520      -0.10929932
O        3.55501068      18.59486974       9.93895495      -1.32545804       0.20608295       0.32589655
H        4.23640740      18.62190746      10.65796169      -0.07731763      -0.21240469      -0.10113990
H        4.05585286      18.43400301       9.12658163      -0.05749125       0.08740951       0.00132392
O       -4.42612680       1.33417482       2.06692992      -0.65415271      -0.93883585       1.14851042
H       -4.92717719       0.64878859       2.51538620       0.07025802      -0.45859344      -0.15431648
H       -4.71621022       2.19786923       2.46596738      -0.03039021      -0.01195769       0.43212268
O       23.88437496      13.74607690       8.65946590       0.11595984       0.79352273      -0.41660108
H       24.83677779      13.67822953       8.58910102      -0.10141612      -0.03883796      -0.04687688
H       23.62157171      13.36796824       7.81964723       0.03869162       0.07692642       0.35855190
O       -1.14185027     -14.92995540       6.55262305      -0.34380796       0.59954774      -0.35407565
H       -0.28218113     -14.45071070       6.51840660       0.08837707      -0.19491933       0.19558015
H       -1.79354394     -14.32529847       6.94725186      -0.05831096       0.06344973       0.04089516
O       19.23015799     -17.96087240      10.96545090      -0.70358331      -0.30387677       1.30861349
H       20.01863425     -17.70183143      11.47178239      -0.10095183      -0.14638890       0.10528653
H       18.99646623     -18.81040059      11.35195791      -0.01146782      -0.20519533       0.04237223
O        4.80953486     -15.89810908     -15.56591429      -0.05214663      -1.76308219       0.13550114
H        5.72507819     -16.21784475     -15.35301216      -0.08367521      -0.16472916      -0.25270025
H        4.18501773     -16.47467931     -15.15896389       0.10720053      -0.29237920       0.17482234
O       -6.06125010       2.23401849       7.04334917       0.34349106      -0.16631477       0.13486712
H       -5.50829297       2.96292014       6.87192505       0.25312513      -0.14988342       0.03095768
H       -5.51778929       1.46271678       6.89494320      -0.07828828      -0.19707694       0.01285382
O       -7.36778931      15.80950987      24.65322732      -1.11107742       2.35023824      -3.06992820
H       -7.97381551      16.50621064      24.52132888       0.14131659       0.41566558      -0.35458887
H       -7.74017214      14.99143757      24.25599339      -0.01303984       0.36365658      -0.42392583
O        9.12082176     -16.38241058      -7.26180141       0.30632801      -0.55345901       0.34352021
H        9.49920924     -17.24019889      -6.94206234      -0.17826178      -0.02471074      -0.34364116
H       10.02150800     -16.42945805      -6.96559759      -0.17802729       0.01378168       0.01202985
O       14.61694037       7.19948816      20.53154365       0.45948837      -0.67910386      -0.28959982
H       13.75087221       6.80182701      20.55795711       0.06012759      -0.06396787      -0.05692028
H       15.34891043       6.60963560      20.33409076      -0.15622026       0.28687168       0.00698330
O       -0.77001718       0.73753132      -1.41156781       0.25876584      -0.30419853      -1.98930675
H       -1.24227316       1.51385413      -1.17215529      -0.05629891       0.17199383      -0.20606667
H       -0.09626687       0.88642169      -2.05721382      -0.03387058      -0.17830201      -0.20098543
O      -16.54992005      12.13075126      19.81078339      -0.32043446      -0.08480060       0.59553223
H      -16.83961984      12.55256346      19.01119898      -0.01801997      -0.05163468      -0.19433686
H      -16.57954630      11.19258209      19.65008459      -0.12352684      -0.17112733      -0.18574021
O      -17.22425810       6.21013216      11.30693308      -0.44131224       0.19825772       0.25456032
H      -16.97377734       5.52652468      11.96515351       0.22080751      -0.11312696      -0.05821582
H      -16.36810678       5.71471116      11.24616699       0.46950251      -0.03105243      -0.03942083
O       -9.62953938      34.55579085     -14.07661471       0.25740458      -0.17967168      -1.21815458
H       -9.73119078      33.65326248     -14.35475823      -0.03764784       0.33973047      -0.00602300
H      -10.38355084      34.26247688     -14.66613995      -0.08219183      -0.51336144      -0.08639579
O       36.22396126      11.19583528      22.39374056       1.02030093       0.05318472       0.63251321
H       36.44032215      11.31269093      21.45214886       0.00244444       0.16560843      -0.05436190
H       35.26848217      11.28759677      22.57938592       0.13361115       0.24460255      -0.04465483
O       29.98812829     -10.77804996       1.77213969      -1.07694790       1.04145678      -0.56175896
H       30.09682297     -10.96320957       2.70806639      -0.20043384       0.22632141      -0.79607382
H       29.69631772     -11.63433399       2.09025569       0.33440429      -0.02438483      -0.10877960
O       15.56180595       9.73826282      -6.35203893      -1.51266061       0.65770004       0.35047630
H       16.32301361       9.45175217      -6.87903570      -0.00963402      -0.08346092       0.02256917
H       15.06790168       8.94228526      -6.10907477      -0.24164480       0.17137502      -0.02135357
O       -7.22181888       4.82550636      33.93581982      -0.60160669       0.73028992      -0.18630994
H       -6.65215350       4.15380830      33.54014339      -0.02468248       0.08448932       0.01935552
H       -7.86526170       4.31531807      34.45972857      -0.25051506      -0.13469747      -0.04456345
O        4.82957213      -0.25617733      -2.40405063       1.53251063       0.79114077       1.45843771
H        4.17952230      -0.11666163      -1.66391518       0.03967564      -0.13887790       0.01061627
H        5.20944302      -1.13465005      -2.28471427       0.18430228      -0.06931893      -0.17716460
O       22.85264343       2.21299746      11.52913587       0.40034648      -0.73422689      -1.46055913
H       22.07410704       2.71180549      11.85988790      -0.22111007       0.23639911      -0.06688673
H       23.55881416       2.27747860      12.17864617      -0.28939438       0.08583373      -0.06878957
O       -0.68047929      32.24177001      15.29258240       2.27784906      -0.61407647       0.44212763
H       -1.18795562      32.47533182      16.06884257       0.10613060      -0.03494600      -0.02655272
H       -0.89437003      33.21796835      15.44110000       0.12094383       0.24090849       0.11932462
O        4.75316859      19.94580286       6.58755327       0.12050839       1.05341419       0.28488511
H        3.94395929      19.96429056       6.14663548      -0.11918354       0.18484759       0.07234554
H        5.29760961      20.67189082       6.30552514      -0.16754625      -0.22161042       0.12756792
O       -9.51887386       9.82348534       9.07896038      -0.07973244      -0.83018240       0.40872972
H       -9.77789062       9.82685629       8.19263053      -0.28019432      -0.41318535      -0.13872681
H       -8.87035427       9.13486414       9.19169059      -0.15840365      -0.09355356      -0.14777973
O       17.00001689      19.51991849      27.59424448      -0.33287527       1.92651538      -0.89799833
H       17.77314084      19.17765923      27.11837615      -0.08121707      -0.05497386       0.14014994
H       16.32399964      19.80382558      26.97424633       0.37214331       0.09488575       0.05271780
O        8.68923739      17.88558997       9.43864368      -1.12650581       1.26169584      -0.43007568
H        8.13080842      18.28719181      10.11564423      -0.32343402      -0.09898820      -0.04186136
H        7.77112552      17.82441894       9.18664406      -0.00412935       0.07001198       0.25184187
O        1.75172729     -14.52408312      10.30707458      -0.90246225      -0.66220971       0.02540443
H        1.21114410     -14.96367007      10.93972685      -0.27568206      -0.18150399      -0.10979781
H        2.48001826     -14.02536070      10.72487308      -0.30532272      -0.07215494      -0.21599460
O       -0.80565652      10.68724856       1.39790690      -0.16497749       0.56381241      -0.17635583
H        0.05068387      10.91467382       1.84640645      -0.14880613      -0.32511006       0.02296716
H       -1.48236021      11.02045300       2.04592934      -0.20688636       0.15887417       0.16004653
O        0.65272978       1.18260587       8.36043152      -0.41371870       1.16473777      -0.46056195
H        0.56236978       0.49788787       7.67979317      -0.05716956       0.31232535       0.09666301
H        1.10196482       1.05761953       9.21066975       0.15738241       0.15836049       0.06007404
O      -17.82327534      29.14447579     -17.00847318       2.12356392       0.22289481       0.08753365
H      -16.85575971      29.03417624     -17.11369418       0.29548380       0.13281740       0.11359311
H      -18.16371426      28.68021059     -16.25910993      -0.08796800      -0.06951007       0.26973449
O        4.72341130      25.47057934      -6.36857149      -0.22388983      -0.94689755       1.52024244
H        5.03309017      26.40969538      -6.31977796      -0.07102423       0.17133896      -0.02309279
H        3.77522639      25.42986401      -6.43216711       0.02236560      -0.07137503       0.15859330
O      -18.16095312      21.28417332      -0.22772743      -0.07435906       0.24645968      -0.91731344
H      -17.49555120      20.87666355      -0.80249258      -0.10276252      -0.15406284       0.01897585
H      -18.05201921      20.97367475       0.63564960      -0.27352571      -0.21119615       0.12396093
O       11.26766146      20.37414761       7.82880429       0.29326254       0.21210450       0.21308267
H       11.74681673      21.14174752       7.49952220      -0.07517726      -0.01841147       0.54035388
H       10.44395411      20.33408758       7.44872804       0.03010960       0.25313631      -0.05381902
O       -9.85730410      -6.90936909       4.62708694      -0.13077743       1.57294310       1.29485275
H       -9.53404373      -6.39053086       3.89217176      -0.11085096       0.14887158      -0.28362706
H       -9.75783962      -7.90137112       4.46206107      -0.27465050      -0.02229675      -0.11925675
O      -24.57339358       1.48088383      10.85235745       1.23047980      -0.02559165      -0.16594054
H      -23.82883513       0.81398102      11.11572947      -0.16379693       0.06842174      -0.17644013
H      -23.87576419       1.62502186      11.51310534      -0.19152234       0.42601103       0.02513092
O      -13.28223007      -7.82976821      21.38637530      -0.97306114      -1.71953900       0.57916289
H      -12.77090150      -8.60194329      21.08793345       0.01810614      -0.02961945       0.12457749
H      -13.74510238      -7.44025424      20.65056932      -0.00319140      -0.23155157      -0.12958240
O        7.37158850       7.05200818      17.30309861       1.42188240      -0.11995196      -2.39817091
H        7.45676171       6.17143158      17.67885346      -0.00108853      -0.08051370      -0.30901610
H        7.34678937       6.93358470      16.34841476      -0.13198544      -0.32061458      -0.08521832
O      -11.78305675      -0.80149833      19.77565255       0.36075143       1.23528184       0.59505161
H      -11.23876789      -1.59051175      19.93660963       0.23433212       0.16143652       0.18727020
H      -11.65141149      -0.57949708      18.83962162       0.21740642      -0.21118027      -0.09569693
O       22.92505395       4.99585031      19.61860324       1.05133132      -0.02407332       1.33754920
H       22.29367377       4.38568718      19.27656066      -0.06743945       0.06398390       0.03286879
H       23.44829683       4.54234634      20.29287202       0.12263326      -0.04971756       0.40726530
O       -4.36941722     -17.98285591      -3.56657322       0.54260568       0.45650224      -0.51897023
H       -4.02277110     -17.10652148      -3.43225053       0.07582144      -0.11849368       0.14239822
H       -4.02838855     -18.26514132      -4.43876986       0.11307799       0.16969954       0.16518824
O       28.03924245      -9.32139316      -5.21104247      -0.51516185      -0.21524535      -0.32311530
H       28.93131145      -9.01003089      -4.92120335      -0.04217427       0.09304546       0.24131854
H       27.91522425     -10.19726363      -4.86042731      -0.02782698       0.26256515       0.10022499
O        7.13870975      -1.16455313       7.58091921       0.92663237      -2.17189666       1.69316407
H        7.14299967      -0.27847416       8.01972110       0.06150431      -0.12037584      -0.12857988
H        7.85845726      -1.15696088       6.88882311       0.13874010       0.15656336       0.16969505
O      -19.17491663      -2.00574682      23.27064018      -1.26444108      -0.01216040      -1.57473009
H      -18.83152789      -1.94290264      22.36744473      -0.21493419      -0.10946435      -0.44240781
H      -18.39607829      -2.13986814      23.83723232      -0.18076695      -0.10288122      -0.07186396
O        6.27000630      -5.64202731      -4.59819610       0.60273041      -0.22163589       1.63055323
H        5.98097412      -5.32427837      -3.75259230       0.18174513      -0.02901558       0.20552997
H        5.45133041      -5.84364968      -5.05105677       0.05732688       0.03145486      -0.15756341
O       12.96722734       9.37366230       7.98727267       0.37445586      -1.25929405      -0.22944738
H       12.80717197       9.68680466       8.93713921      -0.22087341      -0.25791052       0.16945429
H       12.99906409      10.09228019       7.40286834      -0.22828566      -0.00923601      -0.00372359
O        4.50298197      12.05393487      -3.97413966      -1.04034301      -0.47347969       0.45176566
H        3.95149330      11.29344714      -3.82604068      -0.05088023       0.09508679      -0.11554522
H        4.88034714      12.04269375      -4.84710080      -0.03336921      -0.08225683       0.03795462
O       12.17240119      29.54380232      16.09472649      -0.17926811       0.62645008      -0.01728520
H       12.71135384      28.90175272      16.61288818       0.16383786       0.02538458      -0.24647088
H       11.64139989      28.99822690      15.44310906       0.18860564       0.02233357       0.21366256
O       -5.26539105       3.75232667      -0.39464989      -0.30101547       0.78893783      -1.24855225
H       -5.09473828       4.70782456      -0.40298781      -0.11053027       0.43313643      -0.45871033
H       -6.15898191       3.59183163      -0.61386030       0.25907066      -0.19888717      -0.28064028
O        7.85566504     -16.72571503       8.24121469       2.19577110      -0.39032217       0.40619438
H        7.51638945     -15.82625866       8.21345809       0.14288076       0.13001937       0.27977779
H        7.13921931     -17.33181030       8.43953996       0.17365848       0.10768352      -0.02086511
O        1.30068305       9.08948870      22.98635158      -1.06843935      -1.56245077      -0.15699931
H        1.35194750       8.26891859      23.49277563      -0.14125492      -0.17841420      -0.17664482
H        1.37681264       8.97676134      22.02433616       0.02878495       0.19160295      -0.09852398
O       21.93385441      23.63956726      -0.98645730       0.59741665      -0.54028352      -0.56166694
H       21.25710272      24.23209446      -0.64899686      -0.01469092      -0.06129029       0.14808789
H       21.66137091      22.71675556      -0.88951598      -0.17202017      -0.01650981      -0.13574791
O       11.27284016       6.88356883     -15.96754415       0.47167134       0.35005278       0.52805864
H       11.16517114       6.08748432     -15.47470393       0.02931532       0.20744552      -0.06275618
H       11.62548487       6.85064161     -16.89230770      -0.15143804      -0.02430580      -0.05103409
O       -7.69681585      22.73292012       2.33017166      -1.02574390      -1.18283912      -1.04324127
H       -8.39300591      23.45518878       2.59289236      -0.15405048      -0.01149738       0.24346539
H       -7.59756842      23.62771191       2.08513882      -0.14957192      -0.39748838      -0.22004255
O        5.44373950     -16.35618540      19.75745507      -0.35976868      -0.83028381       1.34907227
H        6.37990671     -16.54041296      19.71762891      -0.10107423       0.02668091       0.10722928
H        5.32050086     -15.39233468      19.77647157      -0.06908448      -0.03786191       0.25798550
O        0.73834100      16.84789881       0.07410904      -1.40398875      -0.66076998       1.78504757
H        1.18457722      16.45676355      -0.69855044       0.04738641       0.04242114      -0.28068256
H        1.10775462      17.38612928      -0.65729693      -0.18960429       0.46073942      -0.28921573
O       -4.32998581      -5.70778219       7.07354111       0.52498231       1.14829746      -0.89745216
H       -4.24565674      -6.65082218       6.83021301       0.07846099       0.12119032       0.01176949
H       -5.18097111      -5.54858813       7.58902828      -0.08697831      -0.02788191       0.12643666
O       -2.29953299       3.19555625       8.13515510       1.97120001       0.24941546       0.07015883
H       -1.78345777       3.57482036       8.84055728       0.08929223       0.16055870      -0.09409913
H       -2.10558645       2.25264130       8.04582628      -0.15519729       0.09339219       0.04394782
O       14.88594903      -6.51726944      -2.35377659      -0.00225051      -0.35682271      -0.01377806
H       13.95518247      -6.67528094      -2.18579573      -0.19154087       0.44569852      -0.07801436
H       15.08475544      -6.87080071      -3.22824878       0.08452105      -0.24413028       0.05940277
O       11.48693271       4.15213635      23.57852584      -0.85941126       0.75983722      -0.45488541
H       10.96438541       3.60601851      24.12165338      -0.25618914       0.18241766       0.06826669
H       12.16306095       4.65053076      24.11562854       0.06093754      -0.25454105       0.13710276
O        7.57347052      14.11106364      23.89040495       0.50595345       0.15512545      -0.10433550
H        8.41703004      14.10000799      24.31829205       0.09920123      -0.06166971      -0.12558623
H        7.83213716      13.18885781      24.15081720      -0.06642332       0.23058334       0.03622245
O       -7.33081423       5.55862797      11.64450269      -0.23430988      -0.19671268      -0.72738576
H       -7.42642696       4.97175377      12.35201333      -0.11125895       0.06396283       0.40057886
H       -7.90094128       5.82102608      12.35791541      -0.22314345       0.09723746       0.38878406
192
Lattice="13.066373825073242 0.0 0.0 -5.291772140481044e-07 13.066373825073242 0.0 -5.291772140481044e-07 -5.291772140481044e-07 13.066373825073242" Properties=species:S:1:pos:R:3:momenta:R:3 pbc="T T T"
O       12.84630720      -2.98652204     -15.56735178       0.71033141      -1.33828756       0.74758189
H       12.28239767      -2.34012777     -15.18787184       0.23295852      -0.07828700       0.14875313
H       12.69330572      -3.86482656     -15.19444340      -0.06504777      -0.20618263       0.01833038
O       24.13660781      24.75006363      -1.51916667       1.89117039       0.13637193       0.31378122
H       24.15661579      25.62891498      -1.76644865       0.04731215       0.03979070       0.01840464
H       23.93888810      24.98299285      -2.37996573       0.15558555      -0.15468726      -0.16536171
O        6.42263105       0.97113521       9.26415862      -0.69333962       0.65132741       0.95262284
H        6.35847097       1.31771006       8.36857300       0.04531990      -0.11750299      -0.09972781
H        5.50775766       0.87963454       9.62467973       0.02083605      -0.03149294      -0.35490231
O       -2.82331052      -4.05455738      -1.68572208       0.74573147      -0.56274013       0.52568282
H       -2.59569653      -4.74003164      -2.39194998      -0.05710093       0.36562637       0.10892250
H       -2.04061514      -3.50734696      -1.67421759      -0.00924522       0.06148105      -0.16757698
O        3.51057240      18.59525878       9.95651226      -0.30552984      -0.17150865       0.34481452
H        4.13660875      18.45189460      10.64694721      -0.11075381      -0.11903937      -0.09417826
H        3.82211506      18.54725295       9.05540787      -0.20610894       0.11116950      -0.09625354
O       -4.47054953       1.29442364       2.12291236      -0.75863511      -0.77631365       0.78490952
H       -4.74378210       0.39037008       2.48826261       0.26245291      -0.19530375      -0.13654570
H       -4.80264686       1.88226747       2.82171200      -0.17376674      -0.05432979       0.27709472
O       23.90379063      13.78775891       8.65274694       0.28060986       0.55074901       0.10686768
H       24.86313542      13.77203551       8.56559742       0.26698738       0.14019863      -0.11544413
H       23.50006970      13.46651785       7.87849786      -0.13940899       0.12998108      -0.09200734
O       -1.15063554     -14.89562479       6.53316585       0.12826022       0.44614701      -0.34412834
H       -0.25522226     -14.56907508       6.60676297      -0.15173413       0.02824113      -0.00730744
H       -1.80443048     -14.30155381       6.91357934       0.05483856       0.05789999      -0.06002186
O       19.17928273     -17.99335971      11.05930278      -0.77568669      -0.51169035       1.66871806
H       20.01682162     -17.75216236      11.45109346      -0.04673223      -0.02297542      -0.16092354
H       18.91544023     -18.91092925      11.25279506      -0.16475037      -0.14282971      -0.09375582
O        4.79460026     -16.01336107     -15.56583899       0.05723355      -1.79924308      -0.24804071
H        5.71124918     -16.34077138     -15.56838098      -0.19705198       0.03874771      -0.20306120
H        4.26000484     -16.64045851     -15.06934411      -0.11354135      -0.19489420       0.15002272
O       -6.02844266       2.22188264       7.04841403       0.52373631      -0.25355645       0.06052378
H       -5.29180555       2.84419848       6.95423826       0.27319707       0.04045731       0.16975657
H       -5.70804865       1.30037053       6.91437833      -0.23604610      -0.14914102      -0.01989756
O       -7.44599735      15.95923484      24.47442640      -1.38347462       2.13153303      -2.87599742
H       -7.79306650      16.83116536      24.22093758       0.07515122       0.46345990      -0.30116802
H       -7.81728797      15.30201257      23.88593238      -0.04306466       0.39055105      -0.23968865
O        9.12441427     -16.42649509      -7.25877304       0.28773257      -1.19402346       0.02326027
H        9.39882282     -17.35954350      -7.03413065      -0.33204450      -0.09017467       0.01880655
H       10.01959062     -16.63202477      -7.00414284       0.00873624      -0.01593123      -0.17644113
O       14.63288254       7.18771913      20.51130295       0.22574426      -0.05952440      -0.42678216
H       13.87426541       6.58262690      20.52028287       0.08006727      -0.29010107       0.01179007
H       15.33898419       6.61051203      20.35172859       0.01571427      -0.00555524       0.06591640
O       -0.75940893       0.71345088      -1.53474792       0.13508332      -0.39786961      -2.10025161
H       -1.19418294       1.60003782      -1.44446760       0.05712881       0.00652464      -0.28386327
H       -0.01461788       0.78136918      -2.15190330       0.17314325      -0.06964281       0.06148747
O      -16.57202837      12.13078612      19.82534021      -0.24866808       0.21943169       0.22809177
H      -16.85128319      12.72865090      19.14150217       0.03251128       0.04982500       0.32110631
H      -16.67205527      11.19986093      19.59315990      -0.13086393       0.22666051      -0.18281237
O      -17.22755821       6.19661753      11.32370551      -0.61521547      -0.14607700       0.16322659
H      -16.90096465       5.51770032      11.85951969       0.29693995       0.10434174      -0.24228787
H      -16.29426492       6.04310765      11.30568717       0.26681324       0.16565399       0.37179211
O       -9.63612962      34.54685608     -14.16401326       0.05743509      -0.03933559      -1.18488681
H       -9.62614636      33.61190477     -14.29379249       0.01400309      -0.05770800       0.06374783
H      -10.40579587      34.12536774     -14.64529366      -0.34458332      -0.25912497      -0.20798688
O       36.27900294      11.19705741      22.42874412       0.75408705       0.04361348       0.50904549
H       36.49595127      11.42572495      21.52913757       0.10441151       0.05276241       0.18728177
H       35.42626932      11.48932904      22.68990599       0.20984430       0.10961817       0.25059478
O       29.92105444     -10.70379641       1.68259246      -1.07945934       1.51064796      -2.33262686
H       29.99786301     -10.83526076       2.63504889      -0.07035001      -0.43232216       0.22199542
H       29.86415115     -11.59582129       2.07771849       0.09140851       0.29947607       0.53225859
O       15.46512926       9.77680181      -6.33424284      -1.66649826       0.57028668       0.34545645
H       16.17119775       9.36956531      -6.83673765      -0.28345788      -0.10017634       0.03882892
H       14.81533717       9.10376565      -6.16064527      -0.22543493       0.19329127      -0.08339689
O       -7.26417634       4.85822347      33.92646484      -0.68562536       0.39239119      -0.21658010
H       -6.67064758       4.23282419      33.53471550      -0.07966863       0.06594664       0.02879237
H       -7.98859354       4.38516254      34.37911703      -0.01159957       0.20105074      -0.09826430
O        4.92347934      -0.21379649      -2.30710794       1.37946636       0.60754207       1.68467614
H        4.24960835      -0.23126055      -1.66674498       0.16761941      -0.06181679      -0.08964501
H        5.36774123      -1.07796358      -2.29566542       0.16323625      -0.00788918       0.13184027
O       22.84463769       2.18746444      11.44403493      -0.42628017      -0.12665933      -1.16650487
H       22.06063504       2.76132986      11.74914141      -0.15346603      -0.00915766      -0.12976373
H       23.33459079       2.27394247      12.23338912      -0.01840250      -0.16376488       0.05158773
O       -0.53905435      32.21645488      15.32205407       2.06266700       0.02635283       0.81222326
H       -1.17190249      32.57459630      16.00245697      -0.03853608      -0.13064816      -0.16155342
H       -0.69994349      33.14429133      15.43853437       0.34714525      -0.12518982      -0.33813162
O        4.74445356      19.98824995       6.60474248      -0.03961464       0.51271324       0.28920752
H        3.87130423      20.12439462       6.16794640      -0.31820141       0.13332258      -0.08150846
H        5.24948058      20.74914196       6.33331082       0.03076734       0.25219926       0.03731385
O       -9.53060517       9.73877801       9.09761335      -0.13057039      -1.70882086       0.63368339
H      -10.04800287       9.60999169       8.26521423      -0.35406163      -0.15058430      -0.12236080
H       -8.88457126       9.04800637       9.31479228       0.02227813      -0.04126287       0.22782933
O       16.98601657      19.63941083      27.56482377      -0.12213756       1.93025692      -0.24767493
H       17.72611210      19.08041183      27.21519089      -0.08892679      -0.04270884       0.03318916
H       16.41544741      19.84269733      26.78930366      -0.07330174      -0.05791521      -0.31553078
O        8.61341413      17.95446876       9.41524533      -1.27986562       0.79731643      -0.51053874
H        8.05975809      18.27891316      10.06501459       0.04818234       0.17974821       0.06009021
H        7.73856715      17.87634234       9.24892913       0.04055613       0.03682679      -0.10857098
O        1.67876209     -14.56203583      10.27688729      -1.03393874      -0.28586496      -0.74539557
H        1.13969894     -15.05542504      10.93722183      -0.07365922      -0.15622309       0.14275270
H        2.28628324     -14.13484173      10.85545973      -0.30561798      -0.30378736       0.17658691
O       -0.83124041      10.73688062       1.40336412      -0.52806134       1.01148542       0.26942019
H        0.07827651      10.81928546       1.83890131       0.14417275       0.15327805      -0.00811760
H       -1.41747133      11.17626743       2.04908257       0.28034891       0.15789647      -0.04919510
O        0.62090691       1.28072281       8.34602014      -0.53864412       1.63914347      -0.20216576
H        0.73305286       0.58083419       7.73945083       0.33507922       0.12515629       0.13421197
H        1.17946072       1.00677351       9.11827648      -0.02837810      -0.09701985      -0.13948453
O      -17.70377096      29.15978558     -16.99735019       1.85601028       0.49407053       0.06148525
H      -16.71356978      29.11444120     -17.10874970       0.03067755       0.00634601      -0.14166433
H      -17.95841136      28.65336301     -16.17509774       0.32425413      -0.10244357       0.16167286
O        4.71014656      25.43171168      -6.29669675      -0.26709342      -0.15360608       0.77149080
H        4.95040796      26.38708763      -6.32245125      -0.00746209      -0.27959628       0.00475956
H        3.76183609      25.43982005      -6.28114223      -0.04977165      -0.00611405       0.12604006
O      -18.16194340      21.28455387      -0.27284608       0.18910061      -0.38733193      -0.71712861
H      -17.58085179      20.68963117      -0.77225330      -0.18657749      -0.07108246       0.10011255
H      -18.26087981      20.85344306       0.62883011      -0.15485732      -0.04381355       0.00709590
O       11.28360074      20.38754317       7.83254752       0.42343521       0.19167525      -0.00814280
H       11.76601352      21.20748719       7.89766459       0.11230364       0.06825944       0.34035231
H       10.51399695      20.56862456       7.34154493      -0.14923844       0.23329444      -0.34943679
O       -9.87090920      -6.81816996       4.68354039      -0.46336164       1.36024587       0.46118443
H       -9.69066937      -6.43293143       3.81434744      -0.03597643       0.10962818       0.02939460
H      -10.00429099      -7.70718856       4.45277112      -0.18298100       0.11164107       0.26571850
O      -24.52426232       1.49533003      10.81787555       0.72081340       0.29430254      -0.67559386
H      -23.77747603       0.83528982      11.23410825       0.06224485      -0.18189208       0.08696822
H      -23.84706713       1.70740190      11.51778486       0.09135093       0.09927291       0.00034398
O      -13.33649447      -7.93747561      21.42286531      -0.73214124      -1.92704585       0.44851106
H      -12.72776420      -8.58435590      21.06545702       0.03170952       0.10590203      -0.01846302
H      -13.80478257      -7.61142450      20.64286388      -0.17259486       0.01428087       0.14106477
O        7.45386313       7.02538256      17.14401290       1.27637989      -0.79349865      -2.71328957
H        7.55758076       6.18524458      17.66147264       0.16695190       0.20753606       0.10095424
H        7.36682982       6.79008081      16.19689976       0.19158049      -0.05358818      -0.09762962
O      -11.73847410      -0.74956992      19.80241241       0.95172612       0.54358547       0.56401337
H      -11.13566327      -1.47238560      20.04327382       0.00488893      -0.03434717      -0.10320350
H      -11.63334950      -0.54418462      18.88765974      -0.13802935       0.26443679       0.00019084
O       22.98098378       5.00456048      19.70358242       0.59872326       0.33642133       1.34198286
H       22.23380277       4.45575098      19.41815202      -0.00250403       0.13646916       0.23595269
H       23.38614402       4.53467782      20.48680021      -0.11626918       0.00979270       0.08056557
O       -4.34188199     -17.94673277      -3.59247865       0.46045125       0.72169928      -0.47690052
H       -3.82639789     -17.31048255      -3.10736699       0.19102743      -0.30119596       0.47888908
H       -3.90068803     -18.10063922      -4.41931512       0.10582112       0.18413898       0.02593705
O       28.01788159      -9.32964983      -5.22551786      -0.20945585       0.01873237      -0.18257479
H       28.77124253      -8.92796106      -4.76820559      -0.25081359      -0.03941496       0.06478201
H       27.73495965     -10.14556263      -4.83068587      -0.32017667      -0.16668998      -0.00763562
O        7.20521973      -1.27157642       7.67093891       1.16256610      -0.85048180       1.20842059
H        7.03494033      -0.40143137       8.10865427      -0.21344320      -0.31273120       0.06187650
H        7.90871726      -1.09032222       7.05152383      -0.10955730      -0.10430189       0.20139680
O      -19.25067496      -2.00662882      23.17984902      -1.41816116      -0.07121262      -1.05489529
H      -19.06372328      -1.79224873      22.24249213       0.04398442       0.11139792       0.09230436
H      -18.57845933      -2.22957520      23.80850958      -0.16077314      -0.02953272      -0.11237500
O        6.30785079      -5.66430177      -4.48926103       0.85317908      -0.46889259       1.65408264
H        6.16970250      -5.50056997      -3.54421363       0.09870427      -0.19776083       0.26730085
H        5.53116728      -5.73038418      -5.05807906       0.05697014       0.17586962       0.19847222
O       12.98698076       9.29611880       7.98596587       0.21339117      -1.29403511       0.41126401
H       12.65131779       9.47390391       8.90457264       0.07904503      -0.15088122      -0.31419844
H       12.66719909      10.00031763       7.40972038      -0.43529430      -0.12325172      -0.07275499
O        4.44873942      12.03717422      -3.95104184      -0.90660627      -0.19063699       0.69762691
H        3.73942963      11.42815241      -3.78396388      -0.21002579       0.25047310       0.09806765
H        4.73899906      12.01826747      -4.84868990      -0.24749165      -0.05080183      -0.12908136
O       12.18408506      29.55210159      16.09606105       0.65638104      -0.31921299       0.18501972
H       12.80269775      29.02451810      16.65606562      -0.26488115       0.18703803       0.08230638
H       11.60775420      28.95892420      15.60905609      -0.12245300      -0.16817722       0.28564705
O       -5.26270677       3.81090049      -0.46899666       0.31138831       0.86082787      -1.31926623
H       -5.21874644       4.76599495      -0.81426994      -0.07514417      -0.07409216      -0.24347442
H       -5.99136092       3.40777229      -0.92439398       0.15429329      -0.25976474      -0.29959294
O        8.00022072     -16.75234277       8.27226872       2.27337504      -0.71549204       0.62572271
H        7.69645287     -15.85353470       8.07404442       0.16684180      -0.00249648      -0.35775998
H        7.23402610     -17.26346096       8.54875996       0.19961835       0.01398951       0.17319622
O        1.22282216       9.00020722      22.98436382      -1.43588453      -1.26529384       0.00320358
H        1.38960563       8.12129834      23.28807249       0.22183577      -0.05514431      -0.17983127
H        1.38560736       9.11278261      22.03679317       0.00917493       0.07771112       0.10540506
O       21.96280566      23.60702655      -1.02912652       0.27268159      -0.60050955      -0.84035353
H       21.33844389      24.18235901      -0.59956405       0.15878501       0.00460804      -0.07882398
H       21.59869122      22.72460498      -0.98678707       0.10466135       0.07770102      -0.11571734
O       11.31066755       6.92072619     -15.92174633       0.76239960       0.55067738       0.83070449
H       11.31468020       6.06085428     -15.54087256       0.31315079      -0.18194847      -0.09040918
H       11.42190036       6.77039201     -16.86079343      -0.23796566      -0.01577076       0.25526842
O       -7.78404392      22.65005918       2.27217030      -1.72763708      -1.14514760      -0.88612141
H       -8.41448698      23.26356091       2.60084058       0.09315032      -0.28526467      -0.25616522
H       -7.71397813      23.65565267       2.08758993      -0.15923095       0.09955466       0.32911116
O        5.42450283     -16.40563941      19.83537757      -0.26373318      -0.84590842       1.20242351
H        6.35777791     -16.54298137      19.82333363      -0.00135880      -0.00066432       0.10045991
H        5.23391738     -15.47128825      20.01996459      -0.07585808      -0.10797639       0.24325821
O        0.67646886      16.82100252       0.13307525      -1.14735229      -0.56886247       1.25663939
H        1.12051158      16.70972069      -0.68926690       0.01966277       0.55543272      -0.15855835
H        0.79626485      17.54279735      -0.48863892      -0.07616985       0.04108701      -0.13211881
O       -4.31154015      -5.64209570       7.01135957       0.10480534       0.66593761      -1.04936145
H       -4.06164360      -6.54458091       6.84224455       0.24282424       0.30499091       0.04053032
H       -5.13841855      -5.68679237       7.58524087       0.14697728      -0.09514730      -0.14767135
O       -2.19210813       3.21585643       8.14058489       1.51637772       0.30708274       0.02761024
H       -1.66544363       3.60148791       8.84711796       0.18592688      -0.06990101       0.16327385
H       -2.15459933       2.27497076       8.12898561       0.07058600       0.01789063       0.11755031
O       14.86445375      -6.52879508      -2.34835683      -0.65387353      -0.03367406       0.24246511
H       13.91579857      -6.34349753      -2.24723410       0.02365919       0.09631034      -0.03358611
H       14.98468835      -7.02902299      -3.16222264      -0.29967532      -0.06781022       0.05996251
O       11.43470409       4.20683175      23.56371283      -0.49264259       1.15017532       0.08508425
H       10.78618451       3.76007382      24.10884597      -0.33998492      -0.01741598       0.01937681
H       12.17014676       4.33050495      24.16685482      -0.15030480      -0.33816637      -0.21166048
O        7.59989146      14.13986854      23.87134043       0.89026591       0.20040859      -0.06330050
H        8.45126162      14.01962490      24.28344161      -0.24955407       0.15892996      -0.06033542
H        7.93039161      13.26232629      24.33184964      -0.07431324       0.25060797       0.02739791
O       -7.37695705       5.54163517      11.63456021      -0.85281519      -0.29180498      -0.58709223
H       -7.39992868       5.04367894      12.39380430      -0.07685032       0.17928868       0.16248581
H       -7.88283581       5.95523050      12.33802251       0.07434327       0.01049845       0.17522320
