192
Lattice="12.749513626098633 0.0 0.0 -5.291772140481044e-07 12.749513626098633 0.0 -5.291772140481044e-07 -5.291772140481044e-07 12.749513626098633" Properties=species:S:1:pos:R:3:momenta:R:3 step=0 time_fs=0.0 phase=equilibration pbc="T T T"
O       11.58024883       0.72498864     -16.52445793       1.11768299       0.20408896       0.69008038
H       11.81181717       0.78436756     -15.53965855       0.36097603       0.29840838      -0.15413935
H       10.76372814       0.18189090     -16.44460487       0.15239367      -0.02783003      -0.01289933
O       26.36344719      24.79401588       4.85561371       0.24636511       0.03920975       0.99621760
H       26.70196342      23.84678841       4.58326721       0.12184479       0.01628950       0.07550418
H       25.49327087      24.94361305       4.49529648       0.05278673       0.23805757      -0.02937182
O        4.55044222      -0.28422797       6.68408966       0.18357736      -0.60336600      -1.58355279
H        4.83529854      -1.07390165       7.11166525       0.10448683       0.13631298      -0.11614725
H        4.04536915       0.15737888       7.41435432       0.36563978      -0.23838440       0.01117406
O       -2.84938097      -4.43740463       0.99063027      -0.13847139       0.93324112       1.00592910
H       -2.61852217      -3.73749900       0.44086069       0.02390609       0.05773556      -0.13967824
H       -3.60226274      -4.18081188       1.49332213      -0.32121079      -0.05959153       0.02904448
O        4.24721289      15.84552383      10.73478317       0.77406131       0.72053872      -0.18935610
H        4.32293320      16.65563965      11.23829556      -0.04998140      -0.17280874      -0.22568214
H        5.19970036      15.68020821      10.36292934      -0.27684983       0.31185556      -0.07857528
O       -1.38442278       6.65292120       5.13221407      -0.29998804      -0.86003830       0.56052247
H       -1.16714787       6.34425259       4.30304146      -0.26192329      -0.03774898      -0.14091939
H       -0.51785862       7.04266024       5.23280573       0.06138793      -0.08591356      -0.18699957
O       22.81806755      12.30516911       5.78538847      -0.03611034       0.22222706       0.10281672
H       23.17335701      13.23964310       5.97626257       0.04774470      -0.10587278      -0.05483579
H       22.49505615      12.44190884       4.78045988      -0.10979553      -0.06147261      -0.12761717
O       -0.99380004     -15.77508926       6.81807756      -1.12930256       0.06070057      -0.19866128
H       -0.45485213     -16.08402252       6.13538647      -0.26455731       0.07140934      -0.14283130
H       -1.49262893     -14.86474609       6.47252512       0.00726189       0.11444236       0.02462237
O       15.45499039     -17.88147926       9.66319847       0.71554873      -0.84846998       0.31901162
H       16.20885658     -18.30376244      10.29202080      -0.11179112      -0.14408501      -0.08975696
H       15.70476151     -16.92102242       9.71442318      -0.05147608       0.00570373      -0.18449776
O        3.25135970     -14.66133022     -13.33013248       0.56196096       0.24625949      -0.92899846
H        4.07719374     -15.24898148     -13.27065277       0.23935606       0.30298645       0.19426001
H        2.57298112     -14.89321613     -12.72210789      -0.03020624      -0.17639601       0.17416975
O       -5.74231339       1.54765272       2.85520196      -0.27752205       0.73345619       0.19407663
H       -6.46929693       1.30210924       2.21823668       0.15668401       0.05421351       0.11795573
H       -5.43554926       2.35845280       2.31344628       0.00056469       0.28520842       0.02428775
O       -5.38575363      16.01581192      25.98963737       0.24082278       1.15880104      -0.80765703
H       -5.29129553      15.31565762      25.36113358      -0.20643089       0.15327365      -0.18578622
H       -4.35831404      16.55647278      26.03186607       0.31293957      -0.07020916      -0.11700203
O        7.41874647     -15.71936703      -8.56404495       1.21997197       0.89959466       1.26227987
H        7.76011896     -16.59404373      -8.22976398       0.14527660      -0.14253835       0.31242910
H        6.70255852     -15.71397018      -8.01100159      -0.04443893       0.12629761       0.15684724
O       13.68023586       8.54409504      17.93683052      -0.11775878       0.34180640       0.65368701
H       14.04198074       8.80058670      17.02638245       0.05969494      -0.18102529       0.05197249
H       14.22989178       7.91326284      18.49035072       0.21319994      -0.11560795      -0.02039969
O       -0.15136531       1.17568886      -1.25246716      -0.29810774       1.13698550       0.49280032
H        0.81402797       1.41365457      -1.19074392       0.06471013      -0.12778354       0.09091769
H       -0.07980151       0.32297695      -0.61002493      -0.11009807       0.00177145      -0.09896707
O      -14.19501877      12.66273403      15.80837536       0.41750254       0.31767226      -0.07410255
H      -14.08447456      12.39100170      14.93772030       0.06285908      -0.18000092      -0.23719382
H      -15.12377834      12.22245789      16.00036049       0.06986971       0.02356085       0.10639523
O      -16.50709915       5.89053583      12.35020161       1.51623836       0.55450928      -0.52765617
H      -17.07337189       5.99335480      11.63549519       0.17936770      -0.21601080      -0.07080799
H      -15.87981319       6.77748966      12.58092308      -0.01215924       0.27348859      -0.11656573
O       -9.93085670      32.95535660      -9.56657028      -0.55000669      -0.11690284      -0.36713513
H       -9.34108829      32.25430298      -9.17445087       0.18092215      -0.17787923      -0.18164064
H      -10.60434055      32.31637573     -10.11273479      -0.07187977      -0.08384961       0.31557481
O       34.72598267      11.51679993      21.45279121       0.59324470       0.00284148      -0.72890836
H       34.76889801      11.55188560      20.38697433       0.13530940      -0.16499782      -0.24584112
H       35.17197418      10.55581474      21.38193321       0.19084284       0.04784298       0.15258235
O       30.39016914     -12.69961739       2.17083836       0.18722109       0.49808324      -0.35911841
H       29.79241180     -12.15017319       2.64960074      -0.16825629       0.10676742      -0.12604383
H       30.32688141     -12.61913013       1.28064585      -0.11255702      -0.07698201       0.00660438
O       17.59328842       9.34982014      -7.42393255      -0.24585931      -0.93867906      -0.35434986
H       17.75654030       8.24436951      -7.47171736      -0.36041383       0.09765966      -0.25509811
H       17.49332619       9.50084782      -6.49755478      -0.17959036       0.00505733      -0.11572678
O       -5.19974279       2.63030171      32.17810059       0.97538472      -0.88582886       0.23191499
H       -5.76909018       2.18207788      31.62262344      -0.00747976      -0.19212541       0.08833667
H       -4.51727343       1.96271300      32.26456833      -0.02885235       0.12134229       0.13685072
O        3.72383595       0.83603644      -0.23808952       1.37466686       0.80689973      -0.17767484
H        3.50995302      -0.10580844      -0.28170851      -0.03981352       0.17432296       0.10966459
H        4.04864979       1.22581255      -0.97762311       0.10230744      -0.26465753      -0.00015098
O       23.25961304       3.22112799      11.66518211      -0.49309219       0.12668637      -0.00319194
H       22.89178276       3.69758320      12.53435612       0.14594465       0.04788751       0.13084338
H       23.95712090       2.57524610      11.70460510      -0.07650112      -0.15598604      -0.06248042
O       -1.44264293      31.80788803      14.97783184      -0.02892466       0.19056619       1.51447818
H       -1.90867865      32.56244278      14.49384594      -0.00796039      -0.15784413      -0.05212762
H       -0.63238788      31.96923447      14.54845619      -0.07604493       0.07443097      -0.24519894
O        4.83401251      19.39249229       5.20213461       0.02275903       0.04723308       0.20946672
H        4.19375563      18.92559814       5.89170027      -0.09765288      -0.04181807      -0.22633545
H        5.66431284      18.99529266       5.20644188      -0.08084804      -0.09109358       0.07100982
O      -10.11733818      10.47273445       9.45824909      -0.76228711       0.44939303       1.02210441
H      -10.56179523      10.95322704       8.62468815      -0.33562285       0.06550747       0.11316211
H      -10.49601841      10.85548878      10.17052078      -0.10413607      -0.06756761      -0.01769240
O       17.70605659      17.76738930      26.21935463      -0.20967728      -0.25245609      -1.01897234
H       18.51691628      17.23879242      26.00022125       0.18507433       0.17108451      -0.12765240
H       16.93769073      17.24535561      26.08018112      -0.23809291       0.08082729      -0.08926222
O        6.93529034      18.72588730      10.12019539       0.07341833      -0.25909691       0.50518909
H        7.17553711      19.43673134       9.56392574       0.11113316      -0.12062204      -0.21975919
H        6.77701330      17.86063004       9.62658024      -0.25692053       0.09525970      -0.18832899
O       -0.61552304     -13.79612541      13.26192093      -0.34424236      -0.43741294       0.02615325
H       -1.32075751     -13.98700047      12.60902309      -0.31401730       0.02713283       0.08843595
H       -0.07504050     -14.52363777      13.75675488       0.01315619      -0.05360847       0.01951889
O        1.14059913       6.22465849       1.06936646       0.23892814      -1.83844376       1.31915943
H        1.58913505       5.20397615       1.11494458       0.06190353      -0.10879540      -0.05939462
H        0.86076492       6.21000004       0.19304278       0.07865219      -0.02213342      -0.32436032
O        3.08428288       1.33452666       8.34316635       1.31109867      -0.12468486       0.71675497
H        2.14491916       0.71188623       8.18653011      -0.11296100       0.24489254       0.05005045
H        3.21509027       1.66781306       9.25075817       0.09725164      -0.17227556       0.19949001
O      -18.86823654      28.79443550     -16.13371277       0.42611937       0.78457256      -0.34435151
H      -18.57898712      28.67098045     -17.17761993      -0.07886164       0.36892000      -0.16750906
H      -18.02880287      28.11259079     -15.81260872      -0.02310026       0.18033927       0.01957137
O        2.89657831      26.89320755      -9.10925674       0.35732283      -0.31067644       0.29822691
H        3.39167643      26.84923363      -8.50101948      -0.21225492       0.26456683      -0.01531434
H        2.37178278      26.07023048      -8.79159164      -0.11104265       0.10430939      -0.07066824
O      -18.04356575      19.06403160       1.91016555      -0.87692777      -0.92050290       0.50662754
H      -17.35203743      18.82579613       1.07529342      -0.02691764      -0.02497704       0.17793354
H      -18.82352066      18.41457176       1.64946640      -0.18321686      -0.12144299      -0.05841319
O       11.69502831      17.57333946       7.08430672       0.04277370      -0.08067057      -0.12469572
H       12.57938862      17.40537834       6.63619947      -0.01109028      -0.02071164      -0.11250165
H       11.44980621      18.34218216       6.52200270      -0.13250432       0.04098728      -0.14018391
O       -7.21591282     -11.17987347       5.19630289      -0.76304215      -0.25456721      -0.04150717
H       -6.55555296     -11.33497524       4.52568722       0.36353407      -0.11724526       0.15620229
H       -7.33566570     -12.14186478       5.44856691       0.11960685      -0.19549482       0.12873058
O      -24.11656189       3.45878673      10.69699860      -0.78011849      -1.76542662       0.45032720
H      -24.75385094       4.16675711      10.53126049      -0.28486803       0.06949485      -0.10675007
H      -23.20468330       3.72668266      10.25629997       0.26703637       0.16928937      -0.06948314
O      -11.42477703      -8.17853928      18.47018814      -0.46077907      -0.83511270      -0.22385967
H      -10.61190796      -8.51080894      18.81251335      -0.04643492      -0.06230325       0.02910183
H      -11.33889198      -8.48281574      17.61085892       0.09235182       0.05312892      -0.11969884
O        8.64130497       7.31222343      16.93864441      -0.94357958       0.82492790      -0.38385450
H        9.65557957       7.37318468      16.82402420      -0.10653675      -0.08759155      -0.29404345
H        8.34004402       6.79352379      16.19911957      -0.07836829      -0.08088011       0.10402419
O      -11.66915131      -0.47635421      20.40851212       0.43168092      -0.05109410       0.65989409
H      -12.51255322      -0.31226641      20.80952263       0.05380325      -0.00590616       0.02978444
H      -11.54479408      -0.51122749      19.37783432      -0.03193989      -0.06717618      -0.03948341
O       24.20710564       2.47224188      16.24833298      -0.74415130       0.12701927      -0.57935209
H       23.82329369       2.48642898      17.10057259       0.13486798      -0.04368233       0.01177784
H       23.88504791       1.49528539      15.90733051       0.07866754       0.10058171      -0.25001862
O       -5.65780354     -17.97080421      -4.97955227      -0.15116650       0.51311426      -1.03320103
H       -4.91104460     -17.61366272      -4.62017727       0.06144900      -0.36785083      -0.16144795
H       -5.84719610     -18.62328148      -5.61049509       0.00511033      -0.27108224      -0.15546971
O       29.51348114      -9.01765537      -6.13924885      -0.96549591       1.00750409       0.16572019
H       30.18786430      -9.07189655      -6.90846157       0.09053696      -0.03935436      -0.05333147
H       29.35758591      -9.90000534      -5.99594784      -0.26233961      -0.05053035      -0.11927034
O        8.81016541      -0.69567221       3.37943673       0.53434142       0.68108958       1.00413937
H        8.13959217      -0.08129326       2.97969079       0.13663266      -0.10010913      -0.17653895
H        8.18504810      -1.42161870       3.76989532       0.12275381       0.05420162      -0.28199990
O      -19.77704430      -3.17595220      24.77496529       0.21088243       0.47084467       0.09792943
H      -20.24594879      -3.93345857      24.23261070      -0.03103501      -0.13388076      -0.22996701
H      -19.22686005      -3.35188770      25.64948273       0.12818889      -0.05332217      -0.03394620
O        2.33822227      -5.82634640      -6.04426193       1.09751282       0.38714205       0.29872204
H        2.60435629      -5.58678818      -5.23193264       0.02182389       0.24224533       0.28164996
H        1.84410310      -6.58979034      -6.15263700       0.14906759       0.09071014      -0.33468899
O        9.83052444       8.29157162       7.94427252       0.06168154      -0.13728112       0.12047930
H       10.55507374       8.67099094       7.39429855       0.15125569      -0.44607910      -0.08821577
H       10.27916145       7.62031031       8.47927094       0.04248208      -0.07881009      -0.22517930
O        5.33315372       9.75194168      -4.79990673       0.54144840       0.12472113      -0.56517681
H        6.11570072       9.05035877      -4.75399590       0.04973959       0.12938873       0.00463515
H        4.79601765       9.65584373      -3.99316049       0.12823201       0.00927406      -0.06008552
O       13.78490734      29.46945572      15.87139988      -0.76437171      -0.10884166       0.18507536
H       12.97367859      29.05727959      16.07074165       0.14039463      -0.02197240       0.07769412
H       14.51437759      28.85084534      15.94469070      -0.15700458      -0.12983786      -0.01405801
O       -2.79554796       3.97514725       1.67142200      -0.69690935       0.47453222       0.35814578
H       -2.09789133       3.54244971       2.37876797       0.04396733       0.05139176       0.33036224
H       -2.66680431       4.90871143       1.82570362      -0.07689622      -0.35910506       0.03598501
O        7.81044340     -14.01097202      10.98301983      -0.05054459      -0.38668680      -0.57015015
H        6.86072922     -14.50368881      11.26676464      -0.07210106       0.02593057      -0.07747072
H        8.08376408     -13.91688442       9.99806213       0.38869865      -0.15858089      -0.12438068
O       -2.40225267      10.55052280      24.40655136      -1.49132057       0.10837733      -1.23811470
H       -2.11677766      10.18962383      23.63982582      -0.08830300      -0.04791794      -0.11090571
H       -3.26164699      10.98137951      24.01273727       0.27985406       0.15731305       0.21694048
O       20.08693123      21.72748566       1.53467739      -0.58604532       0.67303738       0.37930701
H       19.91960526      22.10029221       2.53567410       0.12352020       0.16297592      -0.14306801
H       19.85652733      20.72363663       1.67248571      -0.06969790       0.13601563      -0.42534410
O       12.13112259       9.99456882     -15.93627644       0.95627332       0.30257013       0.03057169
H       12.65966415       9.41337395     -15.31909752       0.03450003      -0.16980029      -0.05276778
H       12.34766197       9.94609737     -16.98574066       0.17666397       0.20637652       0.43946529
O      -11.40509129      22.31270409       1.06221199      -0.06555812      -0.47748072      -0.27105557
H      -11.54109001      21.21931839       1.16522169      -0.16563836      -0.01595270       0.06562600
H      -10.82580090      22.41965103       1.83509648      -0.00666526       0.17378764      -0.03406725
O        2.95212603     -15.01799583      16.16424561      -0.24164693      -0.42772701      -0.99105234
H        3.49181795     -15.75963783      16.56245232      -0.25446908      -0.19391332       0.21407889
H        3.56264305     -14.31895351      16.05730057       0.14353394       0.21880966      -0.21149344
O        2.46401834      16.36612701       0.35240024      -1.28531600      -0.47844854       0.17318229
H        2.10474420      16.02274513      -0.38129756       0.07945182       0.16597073       0.04971692
H        2.72625208      15.46308708       0.61630619       0.28046748      -0.03934314      -0.14376543
O       -5.64552689      -7.28079033       5.59652519      -1.10029130      -0.62581800       0.21586385
H       -5.41443539      -8.04312229       6.03960514      -0.14474116       0.14799702       0.23199927
H       -4.82533407      -6.73557901       5.23846245      -0.38403580       0.13625095      -0.35811983
O       -2.16926670       2.36249566       6.64598942       0.24050713       0.73501765       0.10174734
H       -1.92925835       3.32724380       7.01350307      -0.20791820      -0.09797246      -0.03849963
H       -1.87211776       1.97126448       7.38212776      -0.03058112      -0.03615837      -0.01397616
O       13.16375923      -5.43200397      -1.44062662       0.11946546      -0.83156953      -0.09581129
H       13.87253857      -5.19277859      -1.97007370       0.24420524      -0.06552730      -0.06793999
H       12.83011246      -6.28154516      -1.97071934       0.17309491      -0.41691315       0.19467999
O       11.83367157       4.88765526      22.73101616      -0.42477033       0.05201119       0.12200384
H       11.19543076       4.19066000      23.06752205       0.15116230      -0.04661297      -0.10578292
H       11.82980919       5.03477716      21.78167343       0.20858811      -0.38540116       0.00706572
O        8.21489334      14.51268387      23.75709343      -0.88572619      -0.54380255       1.35478868
H        9.03183746      14.96227264      24.07449341      -0.00833823       0.02814942      -0.28410452
H        8.11122799      13.52015972      24.14614296      -0.11893903       0.02838982       0.06110553
O       -8.10852909       7.02339840      11.40487957       0.37916792      -0.04796728       0.39926609
H       -7.33910561       6.59090185      11.03143883       0.07219503      -0.29904156       0.00975969
H       -8.30591202       6.27672958      11.91421318       0.12295406       0.09194716      -0.05501639
192
Lattice="12.749457211308583 0.0 0.0 -5.291748725139639e-07 12.749457211308583 0.0 -5.291748725139639e-07 -5.291748725139639e-07 12.749457211308583" Properties=species:S:1:pos:R:3:momenta:R:3 step=10 time_fs=1.0 phase=equilibration pbc="T T T"
O       11.58683746       0.72585544     -16.51938570       1.05584996       0.08715737       0.92330061
H       11.84940013       0.81407416     -15.56264866       0.40977502       0.30930564      -0.30840651
H       10.78274429       0.18144469     -16.44976425       0.22907123       0.01245360      -0.08991092
O       26.36546342      24.79285122       4.86159952       0.43265202      -0.36856953       0.96127911
H       26.70601687      23.86698948       4.59638025      -0.03302940       0.38779149       0.19092587
H       25.49623243      24.96719896       4.49114881       0.02068564       0.24605537      -0.05100685
O        4.55117529      -0.28735451       6.67431661       0.07080241      -0.42350209      -1.60509103
H        4.85232628      -1.07092346       7.10209661       0.24746671      -0.07805705      -0.07952482
H        4.07984919       0.13847721       7.41333988       0.33072500      -0.13814957      -0.01597721
O       -2.85004409      -4.43239693       0.99702619      -0.10872829       0.72066456       1.08839729
H       -2.61088325      -3.72176927       0.41690009       0.12085053       0.24326209      -0.33159694
H       -3.64058308      -4.18313211       1.50157509      -0.42261728       0.00168508       0.11071327
O        4.25278066      15.84958027      10.73306216       1.02164262       0.60400636      -0.36321480
H        4.31922063      16.64587045      11.21943223      -0.03041743       0.00614484      -0.13882805
H        5.16263235      15.70991405      10.35696513      -0.45670457       0.28682111      -0.05593830
O       -1.38652452       6.64786398       5.13646813      -0.37154713      -0.78141612       0.81545978
H       -1.18889227       6.33684364       4.27522144      -0.19148160      -0.10805807      -0.41219641
H       -0.50920456       7.03524435       5.21382680       0.10848856      -0.06817170      -0.20106634
O       22.81787666      12.30750228       5.78520569       0.00272164       0.54345711      -0.15605901
H       23.17285622      13.21555812       5.96924007      -0.05050049      -0.37466552      -0.08458234
H       22.48817601      12.43320473       4.78673581      -0.03078506      -0.11635272       0.25565542
O       -1.00166837     -15.77342278       6.81717215      -1.42849510       0.45723527      -0.09293454
H       -0.47221338     -16.08049881       6.11062476      -0.09732032       0.00071408      -0.35711125
H       -1.48401249     -14.86712354       6.47844469       0.16802686      -0.16536333       0.09880299
O       15.46003052     -17.88629385       9.66582794       0.94350428      -0.74709822       0.54798670
H       16.18700741     -18.31232997      10.27499828      -0.32982647      -0.03519079      -0.25475375
H       15.69680419     -16.92848355       9.69509407      -0.10809776      -0.15642388      -0.21068930
O        3.25563312     -14.66010965     -13.33601138       0.80297737       0.12470586      -0.97877146
H        4.09256300     -15.21323856     -13.25453806       0.08111453       0.42358900       0.13419055
H        2.56721988     -14.91218541     -12.70594287      -0.06104258      -0.20539229       0.13049262
O       -5.74423950       1.55273638       2.85551418      -0.34447891       0.92862179      -0.07230072
H       -6.45107603       1.30324149       2.23666217       0.20163637      -0.03611950       0.24673715
H       -5.43432500       2.37996188       2.32474526       0.02366911       0.15713717       0.20629808
O       -5.38385535      16.02342421      25.98482265       0.37282133       1.33691407      -0.72982425
H       -5.30853442      15.32874449      25.33795911      -0.14899925       0.12399754      -0.28078676
H       -4.34020553      16.54129357      26.02156032       0.05707110      -0.23978965      -0.09193733
O        7.42730077     -15.71453828      -8.55664461       1.55215583       0.63980342       1.16392337
H        7.77598713     -16.60088971      -8.20464985       0.18528092       0.00356754       0.19520700
H        6.67876698     -15.69563518      -7.98378453      -0.42209074       0.25573870       0.37790516
O       13.68019379       8.54597883      17.94003261       0.11719632       0.27900255       0.43185559
H       14.04141607       8.77831218      17.04778095      -0.06345216      -0.26869992       0.37014622
H       14.24169194       7.91211183      18.47945457       0.03013190       0.09132068      -0.19936033
O       -0.15238680       1.18213463      -1.24900785      -0.04173586       0.96192443       0.63232533
H        0.80952443       1.40067928      -1.18515474      -0.14792459      -0.13334795       0.02297192
H       -0.09550726       0.32897075      -0.62513630      -0.21385259       0.12007465      -0.21062588
O      -14.19328920      12.66435806      15.80869975       0.13468793       0.21869699       0.15727034
H      -14.07165429      12.37091483      14.89863507       0.18922501      -0.21714836      -0.51567029
H      -15.10864177      12.22789791      16.01127382       0.24266213       0.08941657       0.11460842
O      -16.49626998       5.89460050      12.34789220       1.98067571       0.78131990      -0.21241326
H      -17.06338193       5.97564687      11.61746121       0.02912974      -0.14752329      -0.29157651
H      -15.89473978       6.78919778      12.56319636      -0.29466145      -0.03395004      -0.24524765
O       -9.93427073      32.95330842      -9.56893495      -0.57504211      -0.50645313      -0.41664900
H       -9.33175728      32.24799102      -9.19807053       0.01264407       0.05360412      -0.30051336
H      -10.60504335      32.31838526     -10.07777455       0.05326781       0.13057661       0.39721191
O       34.73013743      11.51546784      21.44706387       0.81355286      -0.42412135      -1.10091129
H       34.77919079      11.54246221      20.37549647       0.07888624      -0.02793329       0.00896391
H       35.18204810      10.57467111      21.40297939       0.01661917       0.34389434       0.28035349
O       30.39180765     -12.69666914       2.16984879       0.37325335       0.46252652       0.02665949
H       29.77094326     -12.13664263       2.64142034      -0.25353286       0.15703067      -0.05502379
H       30.31391348     -12.62414144       1.25509883      -0.15056648      -0.02761504      -0.50152628
O       17.59197684       9.34304592      -7.42652331      -0.15653375      -1.26032762      -0.50236618
H       17.71863448       8.26822275      -7.49581348      -0.41491649       0.39639908      -0.23932011
H       17.47611358       9.50256428      -6.50270206      -0.17269480       0.03166149       0.01013159
O       -5.19319777       2.62554543      32.18001260       1.12884670      -0.66366438       0.42223284
H       -5.78543635       2.15840629      31.62090701      -0.31528124      -0.28252062      -0.10467621
H       -4.51002584       1.97089411      32.28256675       0.18571027       0.04122573       0.23758894
O        3.73192018       0.84085489      -0.23788388       1.26841835       0.77220412       0.23734979
H        3.50549607      -0.09421609      -0.27453212      -0.05291156       0.05811984       0.03907945
H        4.06656280       1.20617569      -0.99580612       0.26363955      -0.14164926      -0.36726029
O       23.25565331       3.22274044      11.66595136      -0.74216740       0.38591651       0.26930993
H       22.91861868       3.69208036      12.53165235       0.40046492      -0.15706579      -0.18212497
H       23.95203467       2.55719776      11.70193257      -0.04092880      -0.20085850       0.00612019
O       -1.44355510      31.80941348      14.98692814      -0.23657882       0.35277826       1.45812762
H       -1.90849555      32.54038051      14.49485075       0.00683249      -0.28559743       0.07031844
H       -0.62425238      31.97614858      14.52178096       0.21348177       0.06484752      -0.28636141
O        4.83270450      19.39257800       5.20425112      -0.43051083       0.00963020       0.47940070
H        4.19576360      18.92935771       5.85749008       0.13327935       0.11725596      -0.46630556
H        5.66604843      18.98042222       5.21382936       0.10858012      -0.20757065       0.07801996
O      -10.12199203      10.47555557       9.46247568      -0.77644539       0.49052255       0.38410292
H      -10.58702631      10.94969284       8.64683514      -0.18271077      -0.13634084       0.33966180
H      -10.51219549      10.85835212      10.18885722      -0.22253772       0.11848568       0.38199280
O       17.70552882      17.76583724      26.21280130       0.04489282      -0.23881454      -1.08152325
H       18.52846864      17.25732560      25.99126774       0.04872083       0.20881226      -0.05331503
H       16.90972395      17.24961280      26.07094577      -0.31146810       0.02049499      -0.09554685
O        6.93537582      18.72312498      10.12334252      -0.03083378      -0.59448515       0.52141306
H        7.18841095      19.42993128       9.53797640       0.14883826      -0.03207144      -0.29922751
H        6.75422447      17.87876393       9.61304420      -0.21004648       0.27445635      -0.08826974
O       -0.61735079     -13.79924692      13.26222324      -0.25949655      -0.59832430       0.08836223
H       -1.34669827     -13.98596061      12.62316870      -0.21330425      -0.00619195       0.20587595
H       -0.08346054     -14.52024723      13.74880208      -0.18477127       0.11973184      -0.17967969
O        1.14260649       6.21249428       1.07803019       0.40100972      -2.12142721       1.45008994
H        1.58834778       5.20632992       1.11008506      -0.07996465       0.16483874      -0.04129634
H        0.86595197       6.21208203       0.15192582       0.04510927       0.06591571      -0.46566297
O        3.09158758       1.33328246       8.34733255       1.07202861      -0.27569706       0.65937023
H        2.14787004       0.74664753       8.19643331       0.17278802       0.46409673       0.15085468
H        3.22415986       1.64574484       9.26502769       0.09165068      -0.28103273       0.09004047
O      -18.86475867      28.79862536     -16.13613044       0.68385355       0.62014658      -0.46798378
H      -18.58915692      28.70791901     -17.18181419      -0.13111938       0.39082966       0.08004825
H      -18.04148916      28.13873277     -15.81275032      -0.24227738       0.36030157      -0.02390776
O        2.89503703      26.89012426      -9.10974609      -0.83783163      -0.64564666      -0.48846984
H        3.41649644      26.86890534      -8.45414518       0.72491673       0.15491039       0.98323211
H        2.37315276      26.10141549      -8.80568864       0.12086016       0.51430231      -0.21258899
O      -18.04891378      19.05755369       1.91218172      -0.88408154      -1.16342023       0.14847634
H      -17.36823226      18.82665944       1.10644702      -0.30793627       0.04562129       0.46393425
H      -18.83093858      18.41360667       1.64819611       0.02550308       0.10169940       0.03322406
O       11.69581022      17.57309188       7.08277375       0.22432797       0.03211547      -0.36995976
H       12.57612680      17.40082449       6.63189088      -0.05411490      -0.06974736       0.02382370
H       11.43200697      18.34259436       6.51371741      -0.22679960      -0.03952610      -0.02377626
O       -7.22066759     -11.18233291       5.19609722      -0.77038728      -0.57493217      -0.03896218
H       -6.51799639     -11.34273732       4.53206713       0.38233806      -0.03884271      -0.00403299
H       -7.32926111     -12.15114083       5.46316671       0.01188890       0.01060885       0.16828844
O      -24.12047436       3.44850111      10.69913281      -0.55548347      -1.55209254       0.25334954
H      -24.77744408       4.17140610      10.52099700      -0.17653985      -0.00149978      -0.09569603
H      -23.19778730       3.73764118      10.25668136      -0.12510191       0.05513951       0.07876346
O      -11.42817653      -8.18319314      18.46949839      -0.63791348      -0.71284349       0.01119922
H      -10.60327850      -8.52092015      18.82616659       0.20048055      -0.13764263       0.24613758
H      -11.33371407      -8.47902079      17.58095604       0.01017601       0.03436621      -0.46894403
O        8.63636171       7.31734520      16.93632128      -0.66298608       0.84940063      -0.35507721
H        9.63036687       7.36420345      16.79970670      -0.39990201      -0.09270781      -0.20127574
H        8.33028057       6.78317008      16.20427353      -0.12318148      -0.12745410       0.00426932
O      -11.66590138      -0.47686164      20.41153984       0.60322200      -0.11237514       0.36296541
H      -12.51291735      -0.30938806      20.81310719      -0.05727827       0.06319081       0.04330106
H      -11.55244908      -0.51714996      19.38907754      -0.12433363      -0.05440851       0.26783021
O       24.20233828       2.47217633      16.24380325      -0.78038668      -0.14367328      -0.85962785
H       23.83207331       2.48462170      17.11495275       0.05426671       0.00543848       0.26944155
H       23.89806086       1.52072860      15.88535739       0.19027011       0.41714947      -0.19855393
O       -5.65978921     -17.96750762      -4.98591059      -0.50390433       0.50889015      -1.07300667
H       -4.88508346     -17.64286489      -4.63277641       0.46279706      -0.23659136      -0.09902272
H       -5.84769419     -18.65628623      -5.63133800      -0.00987368      -0.37593088      -0.24123658
O       29.50833584      -9.01054330      -6.13954249      -0.67611883       1.26550711      -0.26140770
H       30.18794081      -9.07067386      -6.89788057      -0.08828005       0.06069990       0.26925279
H       29.32511014      -9.92271423      -5.99989453      -0.39272990      -0.38205411       0.02827919
O        8.81245559      -0.69167930       3.38539726       0.23629511       0.61673636       0.94130215
H        8.15909649      -0.09354423       2.96456826       0.25609922      -0.14048170      -0.13950379
H        8.20292784      -1.41216620       3.74115336       0.23907243       0.13042076      -0.30050816
O      -19.77578866      -3.17382141      24.77565095       0.16986792       0.21857969       0.16023781
H      -20.23727983      -3.93416110      24.22448999       0.20644041       0.11861516       0.06545247
H      -19.22656650      -3.35512285      25.62834380      -0.12251677      -0.01257498      -0.39516919
O        2.34548082      -5.82308430      -6.04347136       1.27469280       0.66451601      -0.01170494
H        2.61177286      -5.56198489      -5.18778880       0.11521407       0.25369604       0.58349616
H        1.84745095      -6.59840470      -6.18522516      -0.07048188      -0.25122490      -0.33254576
O        9.83147891       8.29079570       7.94497624       0.25567700      -0.09968055       0.11667971
H       10.56342929       8.62820467       7.38697150       0.02740678      -0.42110363      -0.07096423
H       10.27924973       7.61142858       8.45831785      -0.03704924      -0.11640715      -0.19173322
O        5.33709406       9.75190808      -4.80322370       0.75467942      -0.11796918      -0.53285633
H        6.10793928       9.07296353      -4.75402150      -0.20173566       0.32995604      -0.00723626
H        4.81025690       9.65748687      -4.00158603       0.15437240       0.02445325      -0.10047037
O       13.78071738      29.46911699      15.87235552      -0.57648714       0.03280168       0.14714385
H       12.97552525      29.04971830      16.07896324      -0.10477647      -0.12879957       0.09298306
H       14.50146693      28.83314142      15.94261934      -0.10788273      -0.22438434      -0.02801223
O       -2.79938340       3.97703930       1.67402083      -0.56254566       0.11376835       0.48424016
H       -2.10177485       3.55102945       2.40044272      -0.12240684       0.12260616       0.11524057
H       -2.67125836       4.88522116       1.82951682      -0.01109465      -0.08540662       0.04790070
O        7.80970891     -14.01356147      10.97880544      -0.17294761      -0.47732781      -0.78460574
H        6.87088120     -14.49167986      11.25096141       0.27758235       0.21625212      -0.24394493
H        8.11342827     -13.93815372      10.00271450       0.21937852      -0.27590191       0.21706876
O       -2.41262322      10.55195062      24.39940103      -1.86374550       0.35337876      -1.07309541
H       -2.11138773      10.17223739      23.61095487       0.18718890      -0.29639077      -0.45493701
H       -3.23074546      10.99683907      24.04374733       0.33853033       0.16811911       0.41342449
O       20.08289293      21.73069583       1.53825420      -0.70036579       0.41651158       0.78058932
H       19.93365073      22.11041394       2.50408015       0.16422780       0.04780041      -0.50145360
H       19.85292586      20.75334816       1.62859030      -0.00585522       0.46369187      -0.47071794
O       12.13746554       9.99608787     -15.93654933       1.12254776       0.20969122      -0.13629239
H       12.65759504       9.40290245     -15.33469323      -0.07230746      -0.04552065      -0.26417926
H       12.36125476       9.96562581     -16.92491626       0.10480676       0.19473420       0.79538492
O      -11.40549376      22.30856299       1.06095818      -0.07998100      -0.84126327      -0.13394374
H      -11.55818583      21.22829658       1.16953837      -0.18511519       0.20507719       0.02281643
H      -10.82486805      22.43729396       1.83287629       0.02182247       0.18871146      -0.01257707
O        2.95059625     -15.02134803      16.15844348      -0.22207392      -0.65623517      -0.87936332
H        3.46157164     -15.77433060      16.58111101      -0.36586613      -0.09646515       0.16500607
H        3.58072381     -14.29170977      16.03696766       0.19848519       0.29534486      -0.19502136
O        2.45686240      16.36312047       0.35495483      -1.04442549      -0.48388407       0.64947474
H        2.09771960      16.03323308      -0.39883992      -0.21738935       0.05610812      -0.39905520
H        2.75514464      15.46617783       0.60358247       0.30945646       0.10522070      -0.11795356
O       -5.65188097      -7.28337600       5.59683961      -0.98617789      -0.23850591      -0.10111504
H       -5.42259087      -8.03811902       6.07003128      -0.02296500      -0.04035925       0.39083496
H       -4.87351838      -6.73187734       5.21153643      -0.59373815      -0.05863825      -0.19300251
O       -2.16812146       2.36839382       6.64558587       0.14260064       1.17225474      -0.18987701
H       -1.95390700       3.31088719       7.00327401      -0.29739180      -0.23208790      -0.17190832
H       -1.86609500       1.95174898       7.40188964       0.14096011      -0.35055466       0.38832695
O       13.16364994      -5.43840647      -1.44127370      -0.10072528      -1.25048295      -0.13783515
H       13.90966995      -5.19146705      -1.98425477       0.47681246       0.07168046      -0.19802378
H       12.84813203      -6.31312524      -1.94159799       0.20354501      -0.22333240       0.39899256
O       11.83078630       4.88754929      22.73212037      -0.48383075      -0.06501712       0.26900101
H       11.21584608       4.19414322      23.05171459       0.25351201       0.10267278      -0.20686993
H       11.84943336       4.99698582      21.78113902       0.19649419      -0.38753565      -0.02325560
O        8.20954090      14.50853739      23.76593489      -0.85805978      -0.78879583       1.55197057
H        9.02476059      14.96072000      24.04417047      -0.12496791      -0.05344677      -0.33033086
H        8.10167557      13.53954706      24.14481616      -0.07561916       0.36973436      -0.08509232
O       -8.10599393       7.02372557      11.40680964       0.45359381       0.14990236       0.23630912
H       -7.32975507       6.56268837      11.03056868       0.09833984      -0.26569398      -0.01719605
H       -8.29843617       6.27365956      11.91846077       0.03030396      -0.15135156       0.14206635
192
Lattice="12.749279320260252 0.0 0.0 -5.291674890252976e-07 12.749279320260252 0.0 -5.291674890252976e-07 -5.291674890252976e-07 12.749279320260252" Properties=species:S:1:pos:R:3:momenta:R:3 step=20 time_fs=2.0 phase=equilibration pbc="T T T"
O       11.59315252       0.72617511     -16.51311274       1.06566580       0.03234095       1.01230374
H       11.89159634       0.84445610     -15.59587451       0.46281617       0.31468970      -0.35245150
H       10.80523001       0.18235421     -16.46089123       0.21741201      -0.00619642      -0.13818143
O       26.36797699      24.78942580       4.86739111       0.47871508      -0.58264932       0.96059588
H       26.69690270      23.91610609       4.61894455      -0.12927440       0.57708915       0.26014999
H       25.49902681      24.99060206       4.48636629       0.05040247       0.23989413      -0.04209595
O        4.55135766      -0.28963548       6.66420576       0.02070944      -0.34700754      -1.64967192
H        4.88271785      -1.08705949       7.09485900       0.36796823      -0.22966384      -0.07969837
H        4.10830223       0.13178077       7.41318840       0.25137222       0.00298532       0.01868622
O       -2.85097671      -4.42798265       1.00398405      -0.22389944       0.74334366       1.17048332
H       -2.59781084      -3.69628012       0.38193376       0.13023360       0.23889598      -0.35039823
H       -3.67569529      -4.18253512       1.50912556      -0.26216917       0.00017307       0.02220056
O        4.25917938      15.85261431      10.73025713       1.03137390       0.46918027      -0.47510713
H        4.31601182      16.65955843      11.21314435      -0.03806938       0.27694160       0.01212809
H        5.11909104      15.73334112      10.34801884      -0.38222514       0.18786876      -0.14825667
O       -1.38867138       6.64309782       5.14167388      -0.30399881      -0.75358232       0.84805549
H       -1.20686608       6.32521234       4.22948244      -0.19464134      -0.11348967      -0.47517019
H       -0.49890175       7.02862624       5.19406677       0.08885010      -0.06949056      -0.19813355
O       22.81755251      12.31126479       5.78331032      -0.02129950       0.68673728      -0.43597525
H       23.16596881      13.17253708       5.96186311      -0.05784076      -0.44893513      -0.04579671
H       22.48764497      12.41844633       4.82868637       0.01503597      -0.18760636       0.58567379
O       -1.01115057     -15.76925185       6.81656284      -1.63719086       0.81400645      -0.11187783
H       -0.47632430     -16.08257738       6.06943584      -0.01094423      -0.03669210      -0.45076199
H       -1.46005284     -14.89700852       6.49224659       0.31951932      -0.44859475       0.18897165
O       15.46614567     -17.89041547       9.66965244       1.09405907      -0.69151393       0.72451307
H       16.14636584     -18.31167508      10.24369008      -0.47859122       0.02820448      -0.36877180
H       15.68428382     -16.94816965       9.67300743      -0.13683960      -0.22233426      -0.24133600
O        3.26079908     -14.65956675     -13.34163617       0.87017356      -0.01206488      -0.90148011
H        4.09421004     -15.16747224     -13.24418077      -0.03582843       0.50230083       0.07679681
H        2.56500176     -14.93170175     -12.70024695       0.02597214      -0.19694316      -0.02615652
O       -5.74616500       1.55910574       2.85455380      -0.28243076       1.16041612      -0.19900864
H       -6.43450240       1.29343685       2.26219278       0.10910587      -0.17435965       0.25329749
H       -5.43097484       2.38915269       2.35336923       0.04266051       0.03322677       0.38020307
O       -5.38105055      16.03179958      25.98007340       0.51823300       1.45138513      -0.71159335
H       -5.32062567      15.34141654      25.30781685      -0.10321216       0.15106883      -0.31948571
H       -4.34678420      16.50972812      26.01361072      -0.19035962      -0.40064550      -0.06247940
O        7.43697991     -15.71123607      -8.54902468       1.56909113       0.36834497       1.33211964
H        7.79650574     -16.59315850      -8.19237737       0.23245198       0.15415681       0.05206106
H        6.63066494     -15.66369645      -7.94603973      -0.49212267       0.38620867       0.34150924
O       13.68114366       8.54731191      17.94225190       0.21408273       0.19413877       0.42432596
H       14.03266719       8.75051462      17.08977148      -0.08576504      -0.28104829       0.43007938
H       14.23680218       7.92924132      18.45283983      -0.10992285       0.24280047      -0.32274574
O       -0.15211030       1.18741972      -1.24468158       0.09860613       0.75886568       0.77015227
H        0.78936967       1.38923498      -1.18621173      -0.23120454      -0.09054234      -0.04376237
H       -0.12183260       0.34613461      -0.65096355      -0.32765496       0.23084763      -0.31882714
O      -14.19290488      12.66502567      15.80924951      -0.05452871       0.04913475       0.04316965
H      -14.04972052      12.35233169      14.84946936       0.24542124      -0.14398507      -0.43603960
H      -15.07634510      12.23931096      16.02169371       0.41170644       0.14470853       0.10022994
O      -16.48267435       5.90008572      12.34716841       2.34427989       1.03601318       0.00212002
H      -17.06498843       5.96409112      11.58159717      -0.04584936      -0.09114978      -0.41288174
H      -15.93633271       6.77057534      12.53312684      -0.55654672      -0.34404950      -0.36560206
O       -9.93780397      32.94861988      -9.57155525      -0.63284429      -0.84865513      -0.48682314
H       -9.33567291      32.26263893      -9.23093100      -0.06896218       0.23643146      -0.36023884
H      -10.59498126      32.34152172     -10.03605782       0.13902997       0.35126139       0.44915848
O       34.73533619      11.51143522      21.43891477       1.02749876      -0.80862589      -1.45549709
H       34.78353667      11.54604238      20.38806303       0.01987392       0.10269626       0.25569266
H       35.17501393      10.62176488      21.43594140      -0.13628306       0.59753924       0.39950762
O       30.39391362     -12.69342401       2.17067800       0.42473840       0.56070505       0.18027611
H       29.74643808     -12.12244248       2.63536328      -0.21918983       0.11491107      -0.08522936
H       30.29726276     -12.62447798       1.19416673      -0.17711492       0.01342346      -0.65566068
O       17.59102295       9.33414447      -7.42987858      -0.07927070      -1.58394786      -0.60362144
H       17.67558810       8.32181401      -7.51814430      -0.46068260       0.69460392      -0.22240588
H       17.45937981       9.50673518      -6.49678498      -0.16407973       0.05446195       0.09227132
O       -5.18604522       2.62176581      32.18239496       1.15734380      -0.60354294       0.46877203
H       -5.82422710       2.13109054      31.60761106      -0.42940988      -0.24896393      -0.11414801
H       -4.48272871       1.97223012      32.30985865       0.34261324       0.00738955       0.32220270
O        3.73944561       0.84556382      -0.23544806       1.21410587       0.76766041       0.51326799
H        3.49988351      -0.09318132      -0.27391326      -0.05664307      -0.01816287      -0.02612574
H        4.09805257       1.19589379      -1.04480479       0.36476766      -0.08940993      -0.59644827
O       23.25042509       3.22548483      11.66815459      -0.82440613       0.49051218       0.47382872
H       22.96710808       3.66871349      12.50119668       0.58303527      -0.30245537      -0.40808130
H       23.94526249       2.53923429      11.70484512      -0.10403429      -0.15464449       0.05295279
O       -1.44497267      31.81161348      14.99526952      -0.18626288       0.50048511       1.31629734
H       -1.90898118      32.50844399      14.50599850      -0.03000971      -0.34300447       0.15236116
H       -0.59814464      31.97963205      14.49649040       0.28624869       0.00700718      -0.20755322
O        4.82903960      19.39230358       5.20767694      -0.68417779      -0.00110049       0.62469699
H        4.21590376      18.94578014       5.80495844       0.24475766       0.20214222      -0.57206372
H        5.68173985      18.95669598       5.22071996       0.18675698      -0.25595359       0.05966674
O      -10.12685239      10.47869228       9.46322712      -0.87202025       0.59489100      -0.02697768
H      -10.59761164      10.92723161       8.68981699      -0.04598758      -0.31049168       0.53073274
H      -10.53643149      10.87492473      10.23886788      -0.25162684       0.19478521       0.59292074
O       17.70593308      17.76401778      26.20555253       0.13292102      -0.27758589      -1.16322234
H       18.52648624      17.27813986      25.98906156      -0.07565710       0.21472905       0.01205601
H       16.88144934      17.25178824      26.06171242      -0.24170294       0.04212105      -0.08291031
O        6.93488527      18.71860258      10.12623372      -0.08667039      -0.75765041       0.45455225
H        7.20308867      19.42651118       9.50869354       0.14725157      -0.05026174      -0.28129889
H        6.73567592      17.91204883       9.60869394      -0.17215814       0.39853615      -0.00450548
O       -0.61876281     -13.80313200      13.26275297      -0.21097910      -0.70960923       0.14075437
H       -1.36260814     -13.98804309      12.64813566      -0.12277298      -0.04306683       0.29938116
H       -0.10994576     -14.50138105      13.72261657      -0.34369841       0.24462814      -0.33945488
O        1.14529145       6.19842979       1.08641869       0.46487069      -2.43215115       1.24303751
H        1.57345373       5.23717641       1.10691503      -0.22247419       0.47039133      -0.02181563
H        0.87277910       6.22273127       0.11338613       0.10541677       0.15381598      -0.28603601
O        3.09734122       1.33110686       8.35108018       0.80911674      -0.43112882       0.58945460
H        2.17848611       0.80141508       8.21499613       0.45739390       0.65590814       0.22769712
H        3.23374487       1.61377323       9.26935898       0.11155831      -0.36780740       0.01575016
O      -18.85941560      28.80147454     -16.13921368       0.97802876       0.43390495      -0.61770785
H      -18.60450796      28.74676159     -17.16208956      -0.19358427       0.41740380       0.31685179
H      -18.07623851      28.18242239     -15.81640116      -0.47715098       0.54337449      -0.04947858
O        2.88828825      26.88537219      -9.11369617      -1.13886958      -0.70219676      -0.69401253
H        3.51211317      26.88329399      -8.33608351       1.11129333       0.16800206       1.26536555
H        2.38411861      26.15663204      -8.82926320       0.02507932       0.53344651      -0.25097715
O      -18.05399058      19.04938966       1.91191451      -0.84757019      -1.40576929      -0.22006578
H      -17.41098622      18.83470225       1.16567998      -0.55682602       0.12589520       0.74067770
H      -18.81978110      18.43331579       1.65640265       0.18203379       0.30034447       0.14037222
O       11.69749243      17.57343440       7.07964684       0.36852406       0.15710801      -0.60899042
H       12.56929265      17.39179962       6.64008629      -0.07608916      -0.10844158       0.14070531
H       11.40619498      18.33344383       6.51744412      -0.29642703      -0.14201015       0.09892443
O       -7.22497239     -11.18679176       5.19551533      -0.65093469      -0.92573126      -0.13780292
H       -6.48493687     -11.34199735       4.52809728       0.28015227       0.04898192      -0.06541316
H       -7.33298145     -12.13933350       5.48068210      -0.08863094       0.22409424       0.18997200
O      -24.12311937       3.43986915      10.69984440      -0.41984086      -1.23928622       0.02418988
H      -24.78510238       4.16328163      10.51337414       0.01496464      -0.16816586      -0.05540023
H      -23.22834028       3.73727354      10.27155473      -0.50681714      -0.06135146       0.22897744
O      -11.43186128      -8.18754752      18.46965809      -0.56428430      -0.77974408       0.08953753
H      -10.58073309      -8.53466301      18.85611735       0.20766364      -0.13074370       0.34043764
H      -11.33696212      -8.47287870      17.52880644      -0.07719664       0.10764332      -0.52499414
O        8.63272587       7.32241567      16.93385260      -0.52895711       0.82409637      -0.38210132
H        9.58206895       7.35575454      16.78459302      -0.54067382      -0.07409659      -0.10688488
H        8.31575484       6.76996442      16.20075379      -0.17232701      -0.13190888      -0.06253087
O      -11.66171654      -0.47766413      20.41281658       0.68715627      -0.14433901       0.17543515
H      -12.52112886      -0.30072829      20.81645049      -0.09877469       0.10909101       0.02336598
H      -11.56819643      -0.52195020      19.42726171      -0.19785363      -0.04540375       0.49848614
O       24.19693121       2.47052183      16.23788917      -0.88394630      -0.36669592      -0.94302596
H       23.83617056       2.48716025      17.14610133       0.05519211       0.04538141       0.32671266
H       23.92126462       1.57425883      15.86804242       0.28742859       0.66047381      -0.15743828
O       -5.66369198     -17.96451879      -4.99291356      -0.74989262       0.37213155      -1.23728222
H       -4.82555308     -17.66114350      -4.64092313       0.70717881      -0.16023809      -0.08753476
H       -5.84776626     -18.68938323      -5.65101963       0.01144287      -0.27934650      -0.13841712
O       29.50433096      -9.00266448      -6.14204982      -0.53442737       1.18968129      -0.54493643
H       30.17140798      -9.06070221      -6.85826407      -0.22503073       0.13563606       0.51689973
H       29.28360889      -9.96203711      -5.99293890      -0.43034194      -0.35259242       0.09794724
O        8.81317560      -0.68808698       3.39094872       0.07310983       0.55601157       0.88463897
H        8.18684328      -0.10563808       2.95059582       0.29885484      -0.08815312      -0.15919088
H        8.22938292      -1.39926525       3.71314661       0.28801383       0.10869253      -0.25980910
O      -19.77463346      -3.17315894      24.77639413       0.10393736      -0.00007852       0.17101107
H      -20.20619535      -3.91118819      24.24382769       0.41480949       0.33807164       0.32412394
H      -19.24834658      -3.35442426      25.57489004      -0.30259109       0.02031780      -0.65463985
O        2.35373261      -5.81833569      -6.04377522       1.40199534       0.81387659      -0.06656114
H        2.62381174      -5.53964927      -5.12714038       0.11504931       0.18745477       0.60084692
H        1.83454527      -6.63147519      -6.21643343      -0.15602566      -0.36678545      -0.29921382
O        9.83336088       8.29020542       7.94555761       0.39203873      -0.05803811       0.11267360
H       10.56187653       8.59056167       7.37844034      -0.04689901      -0.34163212      -0.11089827
H       10.27220313       7.59548387       8.44351478      -0.10340934      -0.21346455      -0.10504918
O        5.34228043       9.75044372      -4.80650722       0.93936817      -0.29005368      -0.57230267
H        6.07959477       9.11198451      -4.75570708      -0.34309139       0.44657747      -0.03053365
H        4.82358474       9.66033641      -4.00995092       0.10598914       0.03690747      -0.05738284
O       13.77753888      29.46906892      15.87291739      -0.40842903       0.05328322       0.11098956
H       12.95509265      29.03312034      16.08794822      -0.28669265      -0.18945481       0.08818294
H       14.49135863      28.80886803      15.93886812      -0.11031870      -0.24932367      -0.04507637
O       -2.80241659       3.97637372       1.67733352      -0.43474286      -0.29570503       0.60884569
H       -2.12143620       3.56571114       2.40131797      -0.28045384       0.17638253      -0.09579936
H       -2.66910757       4.89406194       1.83508601       0.04904788       0.25394472       0.06237162
O        7.80817600     -14.01659272      10.97329074      -0.30168309      -0.57846512      -0.93870796
H        6.91370192     -14.46198292      11.21969806       0.60101197       0.38761535      -0.39103612
H        8.12670148     -13.96932859      10.03808333       0.06206302      -0.36033156       0.48748855
O       -2.42448898      10.55420449      24.39249623      -1.94617505       0.37625168      -1.11387943
H       -2.08476006      10.13671687      23.56009785       0.32318278      -0.39003891      -0.51541192
H       -3.20029714      11.01628380      24.09004374       0.25881447       0.24736456       0.52437924
O       20.07802952      21.73261550       1.54400848      -0.77526076       0.36043018       1.05746574
H       19.95043080      22.11040990       2.44066173       0.17742822      -0.02298325      -0.75910135
H       19.85325233      20.80644483       1.58169523       0.00182242       0.56472710      -0.48738428
O       12.14440257       9.99712533     -15.93727414       1.14782441       0.19866819      -0.10334759
H       12.64772663       9.40213483     -15.36773134      -0.10492145       0.00912944      -0.39367026
H       12.36984896       9.98361033     -16.83899147       0.09736016       0.17608135       0.87195118
O      -11.40580913      22.30192761       1.06058655      -0.06787543      -1.22347575       0.02201129
H      -11.57670946      21.25985736       1.16937157      -0.19653636       0.45627417      -0.02878074
H      -10.82220752      22.45597744       1.83183660       0.02376493       0.20216970      -0.01533738
O        2.94967308     -15.02539063      16.15307984      -0.05093766      -0.70403158      -0.80107180
H        3.42100171     -15.77673667      16.59360730      -0.45990212       0.04362899       0.09506229
H        3.59588111     -14.26902647      16.02063135       0.09616811       0.13820568      -0.13015569
O        2.45095960      16.35978997       0.35993275      -0.89771325      -0.54078070       0.90920483
H        2.06517288      16.03664338      -0.45315224      -0.42605540       0.04837938      -0.66303332
H        2.78687389      15.48131622       0.59452749       0.35012072       0.19169702      -0.05403176
O       -5.65772574      -7.28396987       5.59540793      -0.97041443      -0.04336293      -0.30348841
H       -5.41926437      -8.04777627       6.11397292       0.08520077      -0.13294163       0.49626392
H       -4.93645537      -6.74462688       5.19969411      -0.66122962      -0.18169091      -0.06246388
O       -2.16724345       2.37641202       6.64416132       0.15712237       1.39356413      -0.17828232
H       -1.98686529       3.28480087       6.98000759      -0.37639888      -0.27781709      -0.29910794
H       -1.84850754       1.90721062       7.44797207       0.19304095      -0.52950663       0.49271356
O       13.16289114      -5.44703420      -1.44266203      -0.03944499      -1.56455920      -0.34772199
H       13.95425897      -5.18331635      -2.00188753       0.38962033       0.07292223      -0.13272908
H       12.87038236      -6.32381196      -1.89387283       0.25935362       0.00468483       0.57444521
O       11.82775966       4.88704696      22.73379712      -0.42522429      -0.04858322       0.36537535
H       11.24029910       4.20582464      23.02952134       0.22523761       0.10793060      -0.22524838
H       11.86824652       4.95956125      21.77578673       0.19547776      -0.37708793      -0.08225787
O        8.20401140      14.50275270      23.77556843      -0.92524317      -1.01195890       1.67433721
H        9.01048520      14.95330287      24.01099289      -0.14308862      -0.08187258      -0.33631268
H        8.09630166      13.59018123      24.12989630      -0.03497461       0.64401889      -0.20241736
O       -8.10265160       7.02475676      11.40761003       0.60289124       0.17111998       0.09587692
H       -7.32297819       6.54147974      11.02903985       0.02808944      -0.15668873      -0.00908964
H       -8.29933615       6.25062154      11.93977255      -0.04545655      -0.28238706       0.27715215
192
Lattice="12.74899342056404 0.0 0.0 -5.291556225644131e-07 12.74899342056404 0.0 -5.291556225644131e-07 -5.291556225644131e-07 12.74899342056404" Properties=species:S:1:pos:R:3:momenta:R:3 step=30 time_fs=3.0 phase=equilibration pbc="T T T"
O       11.59957790       0.72634228     -16.50673736       1.11262780       0.03326422       0.91928198
H       11.93983240       0.87548529     -15.62622060       0.53425481       0.32258271      -0.26089878
H       10.82209376       0.17843094     -16.47519586       0.12744907      -0.07822916      -0.15826969
O       26.37005613      24.78557849       4.87343696       0.36508699      -0.43034655       1.05873283
H       26.68434298      23.96650298       4.64345809      -0.09254159       0.41146358       0.22807192
H       25.50546036      25.01311973       4.48314338       0.09656790       0.23485102      -0.01951160
O        4.55138854      -0.29194538       6.65405634       0.03015156      -0.43133174      -1.58307158
H        4.92125754      -1.10969389       7.08338677       0.41017083      -0.20396636      -0.16578294
H        4.12912760       0.13839031       7.41591755       0.18559410       0.12281134       0.03029924
O       -2.85274376      -4.42268897       1.01117454      -0.36907382       0.96749352       1.16640417
H       -2.58778952      -3.68110517       0.35393709       0.06737983       0.05299309      -0.20797466
H       -3.68786229      -4.18387812       1.50372804       0.01609580      -0.03052458      -0.13429791
O        4.26488155      15.85506940      10.72721173       0.84476568       0.48311736      -0.40731154
H        4.31123439      16.69506048      11.21887110      -0.05784335       0.41938791       0.08584682
H        5.09480858      15.74511749      10.32458707      -0.10083559       0.06287628      -0.33348212
O       -1.38993942       6.63826635       5.14618392      -0.10923430      -0.77577673       0.63667109
H       -1.22920593       6.31642164       4.18935326      -0.27073252      -0.06047670      -0.32939385
H       -0.49378480       7.02097392       5.17610349       0.01255511      -0.08448460      -0.16285399
O       22.81669640      12.31480218       5.77997534      -0.07882148       0.50909679      -0.54153276
H       23.16596483      13.13849931       5.96374714       0.08802976      -0.20279532       0.09955210
H       22.48615148      12.39588488       4.89142258      -0.06763936      -0.26595181       0.62515868
O       -1.02127370     -15.76324559       6.81515791      -1.62665713       0.97248562      -0.29904611
H       -0.47901447     -16.08477978       6.02976828      -0.05657152      -0.01124644      -0.33977382
H       -1.42423880     -14.94975497       6.51423351       0.38533763      -0.58732071       0.24827597
O       15.47235741     -17.89424944       9.67396653       0.99057433      -0.68568605       0.71137754
H       16.10083852     -18.31158406      10.20911283      -0.39989557      -0.06941875      -0.29462452
H       15.67118476     -16.96417994       9.64746890      -0.11853716      -0.08402210      -0.27943820
O        3.26589134     -14.65959028     -13.34657200       0.78275494      -0.08440892      -0.81012887
H        4.08927879     -15.11749679     -13.23828959      -0.03279848       0.49764197       0.04381893
H        2.57216287     -14.95019763     -12.71049284       0.11560544      -0.19212584      -0.18368968
O       -5.74729613       1.56693128       2.85325099      -0.12633963       1.38767476      -0.18727064
H       -6.43289985       1.26823501       2.28257705      -0.08225739      -0.34053729       0.15918672
H       -5.42589448       2.38716824       2.39788221       0.05994212      -0.06209997       0.52449410
O       -5.37725817      16.04053378      25.97500469       0.68489094       1.50409544      -0.75917566
H       -5.32891666      15.35921090      25.27660007      -0.07200835       0.22674312      -0.30167943
H       -4.37703494      16.46312614      26.00864314      -0.43675969      -0.54664996      -0.02742083
O        7.44597733     -15.70940832      -8.53969142       1.41350184       0.11939432       1.64665576
H        7.81852531     -16.56841699      -8.19424637       0.21009520       0.35166841      -0.09063098
H        6.59022579     -15.62243241      -7.92150324      -0.31844234       0.44037934       0.15517478
O       13.68178470       8.54820095      17.94499918       0.05563177       0.17911792       0.61163336
H       14.02826608       8.72659051      17.11938016       0.01323712      -0.19134507       0.14122655
H       14.22477059       7.95286775      18.42197991      -0.10077329       0.20654206      -0.26281079
O       -0.15160860       1.19140461      -1.23957071       0.03160098       0.56190815       0.87190774
H        0.77142872       1.38478126      -1.19329739      -0.10587612       0.00610349      -0.10030074
H       -0.15925575       0.37277652      -0.68638616      -0.43823235       0.29860767      -0.39592719
O      -14.19315657      12.66457550      15.80844973      -0.08727027      -0.08301218      -0.19775652
H      -14.02465409      12.34352271      14.81674920       0.25728544      -0.02928599      -0.22251959
H      -15.03045938      12.25411153      16.02977650       0.48636158       0.14563002       0.07636814
O      -16.46744275       5.90689011      12.34692796       2.43611175       1.16090248      -0.03437375
H      -17.06650673       5.95714546      11.54365154       0.02782220      -0.04942256      -0.33170767
H      -15.99899615       6.72612061      12.49291906      -0.69609209      -0.50241787      -0.43978549
O       -9.94174813      32.94227646      -9.57457075      -0.71217885      -0.90394454      -0.55304219
H       -9.33827301      32.28690852      -9.26430492       0.04513359       0.24099895      -0.31212018
H      -10.58240189      32.38227474      -9.99286574       0.07014702       0.46200713       0.40531409
O       34.74113900      11.50593396      21.42838217       1.07302392      -0.80696436      -1.81616931
H       34.78180084      11.56129097      20.42530309      -0.03859359       0.21013504       0.51433678
H       35.16069998      10.67816098      21.47933696      -0.09458786       0.47561897       0.49922824
O       30.39566698     -12.68912665       2.17114934       0.35756402       0.75365059      -0.04530272
H       29.73039473     -12.11605429       2.62233074      -0.08475928       0.00339326      -0.18718506
H       30.27983824     -12.62176613       1.14248847      -0.15964059       0.03509174      -0.36613640
O       17.59026042       9.32382797      -7.43332436      -0.04928390      -1.62699193      -0.55006909
H       17.62923752       8.39441575      -7.53986362      -0.47565692       0.71467387      -0.23662679
H       17.44396759       9.51232298      -6.48828006      -0.14319991       0.06430177       0.06913656
O       -5.17889018       2.61753056      32.18433740       1.13853026      -0.78384041       0.38921893
H       -5.85976011       2.11371071      31.60456012      -0.27154083      -0.09710048       0.08740412
H       -4.45042509       1.97667509      32.34164121       0.28565115       0.10311553       0.33280263
O        3.74693774       0.85027227      -0.23230374       1.27291473       0.77035703       0.44973948
H        3.49546884      -0.09311520      -0.27956026      -0.02692848       0.04218395      -0.08956919
H        4.13234515       1.18379274      -1.10045848       0.31585041      -0.17925570      -0.48880273
O       23.24497826       3.22824038      11.67069963      -0.76085606       0.39574194       0.37430327
H       23.02701498       3.63902927      12.46234941       0.63445424      -0.26758469      -0.31544202
H       23.93079855       2.52712113      11.71123028      -0.17716638      -0.09703598       0.08062467
O       -1.44539124      31.81418468      15.00258461       0.06243727       0.54545763       1.18935678
H       -1.91745495      32.47685325      14.52115740      -0.16328449      -0.26415662       0.14778353
H       -0.57227906      31.97538365      14.48299392       0.23619311      -0.08108935      -0.05880171
O        4.82492879      19.39204744       5.21123561      -0.55607796       0.07274873       0.53820421
H        4.23452359      18.96250146       5.75439214       0.09699614       0.12309410      -0.42433874
H        5.69692989      18.93353018       5.22428880       0.10122738      -0.19223310       0.01159545
O      -10.13250285      10.48262956       9.46285733      -1.03283967       0.75545842       0.06070878
H      -10.59870685      10.89221347       8.74492988      -0.00991353      -0.37540529       0.55935207
H      -10.55511969      10.88981609      10.29255847      -0.11732128       0.09623080       0.47598862
O       17.70612468      17.76182569      26.19755790       0.02918652      -0.29587613      -1.24776111
H       18.51566535      17.29634427      25.99170356      -0.11933920       0.15297593       0.04787666
H       16.86466165      17.25868157      26.05440654      -0.08900204       0.11032673      -0.05296737
O        6.93419778      18.71359450      10.12854495      -0.07404844      -0.69765930       0.38237911
H        7.21595302      19.41759989       9.48523406       0.11828179      -0.12570077      -0.18787938
H        6.71912847      17.95107998       9.60948253      -0.17487200       0.37644657       0.00677005
O       -0.62013786     -13.80697009      13.26328417      -0.26324098      -0.59452821       0.10934691
H       -1.37298914     -13.99452919      12.67864402      -0.10336979      -0.09975979       0.32163845
H       -0.14492113     -14.47925977      13.68725704      -0.34129121       0.15827304      -0.34994557
O        1.14818430       6.18247774       1.09306458       0.47235910      -2.68618404       0.93009828
H        1.54600149       5.29664730       1.10651973      -0.32310054       0.71954379       0.02037299
H        0.88656209       6.24198262       0.09775455       0.17290006       0.24660271      -0.04409211
O        3.10142888       1.32795485       8.35416565       0.57414530      -0.56887815       0.47406547
H        2.23544703       0.87279339       8.23929804       0.67671961       0.78703941       0.26409615
H        3.24676772       1.57522609       9.27044017       0.16229135      -0.41676913       0.02371752
O      -18.85204781      28.80289176     -16.14322641       1.25752211       0.25768855      -0.81208923
H      -18.62736409      28.78906211     -17.12051497      -0.28746785       0.46800571       0.51227797
H      -18.13279992      28.24240791     -15.82000890      -0.66203187       0.67534278      -0.01316999
O        2.88255398      26.88123385      -9.11685656      -0.67622438      -0.41167364      -0.39207457
H        3.61815233      26.90220364      -8.22670579       1.04144776       0.21547150       0.95201883
H        2.36699575      26.19228348      -8.85088647      -0.38611218       0.19038377      -0.17411591
O      -18.05898031      19.03992268       1.91010830      -0.95848374      -1.48177349      -0.24412487
H      -17.46414240      18.84832417       1.23917744      -0.44054920       0.13694698       0.66215958
H      -18.80054178      18.46822562       1.67610439       0.15548393       0.39286847       0.26091539
O       11.69979381      17.57430780       7.07519996       0.45632041       0.24542173      -0.76883750
H       12.56252357      17.37949187       6.65766434      -0.04653497      -0.13368865       0.21421095
H       11.37418697      18.31535444       6.53132911      -0.35473741      -0.21021701       0.17733338
O       -7.22835842     -11.19310328       5.19413527      -0.50585701      -1.18031463      -0.28203467
H       -6.46457066     -11.33356325       4.52040935       0.12949893       0.11364045      -0.08477839
H       -7.34576431     -12.10944744       5.49983521      -0.17553169       0.35806936       0.20763692
O      -24.12481940       3.43301614      10.69911359      -0.33517585      -1.00564732      -0.15877132
H      -24.77569510       4.14021502      10.50969921       0.13766577      -0.27804773      -0.01938334
H      -23.29269948       3.72643977      10.29945863      -0.77250441      -0.14440321       0.32430630
O      -11.43431518      -8.19273442      18.46963244      -0.30583670      -0.97767404       0.02536711
H      -10.56919557      -8.54430361      18.88634730       0.00687702      -0.06794057       0.27065830
H      -11.34730729      -8.45537094      17.48872934      -0.13552503       0.25320929      -0.25777672
O        8.62880223       7.32704154      16.93091161      -0.74313341       0.72355742      -0.46079933
H        9.53676277       7.35020932      16.77720262      -0.32739425      -0.03379190      -0.04240488
H        8.29667901       6.75929440      16.19386640      -0.21262973      -0.07262588      -0.05680769
O      -11.65724817      -0.47853419      20.41345918       0.66797209      -0.13650175       0.23777160
H      -12.52915815      -0.28895859      20.81563393      -0.06067900       0.12935063      -0.03557200
H      -11.58965397      -0.52629484      19.47827938      -0.24250337      -0.04632787       0.50506355
O       24.19061133       2.46804051      16.23214870      -0.98283181      -0.35735485      -0.76807281
H       23.84405312       2.49295872      17.17175649       0.12116223       0.07273161       0.19212344
H       23.95096205       1.64187620      15.85150834       0.31354496       0.66151166      -0.20180437
O       -5.66801975     -17.96223286      -5.00078577      -0.64783517       0.24583573      -1.35156905
H       -4.76009000     -17.67734830      -4.65436066       0.57905349      -0.19426167      -0.20874438
H       -5.84491779     -18.70682774      -5.65547042       0.04426422      -0.07819865       0.05111251
O       29.50007095      -8.99611922      -6.14538011      -0.69992060       0.85384066      -0.52184005
H       30.14985925      -9.04533910      -6.80530382      -0.15169116       0.16837312       0.50893110
H       29.24305356      -9.98212706      -5.98263153      -0.37749761      -0.03728178       0.10348572
O        8.81346800      -0.68468721       3.39614354       0.11240781       0.55954629       0.83125465
H        8.21431630      -0.10751697       2.93126123       0.26103423       0.05897729      -0.24297290
H        8.25491830      -1.39613555       3.69292678       0.22446303      -0.06596394      -0.14434876
O      -19.77401456      -3.17313312      24.77642516      -0.05148519       0.05990097       0.00482855
H      -20.16039012      -3.87513143      24.28074797       0.47704990       0.33725699       0.39382725
H      -19.27627858      -3.35336165      25.51260472      -0.23580258      -0.01141358      -0.54665317
O        2.36231949      -5.81336833      -6.04369905       1.39503585       0.73628230       0.05500666
H        2.63172433      -5.52758690      -5.07904490       0.04359301       0.05176501       0.36348713
H        1.82360440      -6.65856822      -6.24107005      -0.04699641      -0.15616163      -0.20026344
O        9.83585853       8.28969424       7.94615953       0.49194363      -0.05900555       0.15122626
H       10.55529405       8.56200683       7.36392335      -0.07878478      -0.24058664      -0.18653739
H       10.25859322       7.57005465       8.43733993      -0.17383470      -0.29510749      -0.02435568
O        5.34796055       9.74846594      -4.81021589       0.90441615      -0.24350398      -0.67469684
H        6.05089989       9.15180512      -4.75997115      -0.19080878       0.33396599      -0.05974817
H        4.82839536       9.66452260      -4.01042354      -0.01092382       0.05568177       0.04894023
O       13.77497501      29.46828316      15.87320239      -0.34562180      -0.12352473       0.10277717
H       12.92503071      29.01506901      16.09375310      -0.29479405      -0.15235181       0.03008719
H       14.47667525      28.78641507      15.93292292      -0.19571308      -0.18637199      -0.07121154
O       -2.80453994       3.97376528       1.68157108      -0.26981538      -0.46550604       0.79586258
H       -2.15593612       3.58436812       2.38211660      -0.42456104       0.20158898      -0.29272982
H       -2.66332723       4.92722512       1.83987986       0.05757128       0.37410143       0.02525035
O        7.80582166     -14.02003713      10.96735907      -0.34572012      -0.60353795      -0.86788994
H        6.98210051     -14.41828683      11.17631885       0.71538949       0.45915837      -0.46833718
H        8.12808164     -14.00639548      10.08839184      -0.00623417      -0.40064698       0.48142011
O       -2.43572438      10.55563851      24.38446043      -1.69261115       0.13687091      -1.33996330
H       -2.05477564      10.10259530      23.51942542       0.26473414      -0.27996328      -0.27790107
H       -3.18437773      11.04663791      24.14134374       0.05518671       0.38516180       0.52433415
O       20.07297435      21.73476157       1.55025465      -0.70155821       0.50741420       0.91439004
H       19.96499129      22.11243809       2.37114783       0.11905031       0.11649733      -0.58654265
H       19.84915321      20.84896152       1.53335375      -0.09039844       0.26608222      -0.50938970
O       12.15058445       9.99845782     -15.93646415       0.91909361       0.32614270       0.29992464
H       12.64107275       9.39903878     -15.40466590      -0.00665961      -0.09434438      -0.33768773
H       12.38386354      10.00012210     -16.77264801       0.21297491       0.17424260       0.39880470
O      -11.40583174      22.29272403       1.06121562      -0.01778831      -1.59622688       0.18608058
H      -11.59577969      21.31689760       1.16327709      -0.20120290       0.70893477      -0.09679063
H      -10.82083138      22.47616998       1.82849807      -0.00198631       0.22429867      -0.05456922
O        2.94982799     -15.02921099      16.14791343       0.10662068      -0.62821701      -0.77727590
H        3.37378499     -15.76692476      16.59979753      -0.49239705       0.13040848       0.05067090
H        3.59817689     -14.26674980      16.01136205      -0.04666230      -0.10088497      -0.05259019
O        2.44532608      16.35563114       0.36516725      -0.94147346      -0.70637021       0.74413834
H        2.02023384      16.04853059      -0.51552557      -0.47331093       0.22203616      -0.56916203
H        2.82491862      15.49999594       0.59575109       0.43631525       0.18936206       0.08659058
O       -5.66397660      -7.28436021       5.59339507      -1.13418619      -0.18724897      -0.27737395
H       -5.40649920      -8.05855682       6.16328212       0.17077968      -0.07090143       0.50476882
H       -4.99420908      -6.76190380       5.19585207      -0.49194712      -0.15314341      -0.02952531
O       -2.16599563       2.38466245       6.64354392       0.22976052       1.24584089       0.02258583
H       -2.02594238       3.26373687       6.94722312      -0.41669862      -0.10788731      -0.34858361
H       -1.83148521       1.85348708       7.48972309       0.14977220      -0.55182939       0.35199614
O       13.16300649      -5.45720410      -1.44557997       0.19211282      -1.75715808      -0.60157106
H       13.97961055      -5.17939056      -2.00708053       0.12435105      -0.00056182       0.03079467
H       12.89820424      -6.31275297      -1.83082642       0.31078123       0.19559591       0.70467441
O       11.82534365       4.88703842      22.73555525      -0.26570601       0.09448101       0.35276620
H       11.25536247       4.21023350      23.00961221       0.07617452      -0.03195387      -0.16326757
H       11.88756838       4.92365104      21.76493523       0.20850535      -0.35624544      -0.12148171
O        8.19770145      14.49624555      23.78524171      -1.07702624      -0.93143598       1.61725492
H        9.00092696      14.94674431      23.97877105      -0.03146818      -0.03468646      -0.31252119
H        8.09305146      13.65160419      24.10952713      -0.03909371       0.54110504      -0.17362806
O       -8.09833935       7.02492607      11.40792324       0.73503184      -0.10760417       0.11608014
H       -7.32483201       6.53347253      11.02808767      -0.06858040       0.00028954      -0.00934526
H       -8.30570900       6.22718617      11.96683593      -0.08458510      -0.15762818       0.26158541
192
Lattice="12.74868832388446 0.0 0.0 -5.291429593197084e-07 12.74868832388446 0.0 -5.291429593197084e-07 -5.291429593197084e-07 12.74868832388446" Properties=species:S:1:pos:R:3:momenta:R:3 step=40 time_fs=4.0 phase=equilibration pbc="T T T"
O       11.60623100       0.72656703     -16.50120439       1.13878054       0.04331048       0.75480419
H       11.99470063       0.90701516     -15.64498605       0.59117799       0.32201490      -0.13747994
H       10.83003644       0.16744808     -16.49004992       0.05070638      -0.14053159      -0.15000343
O       26.37098819      24.78352038       4.88027271       0.13149487      -0.01604488       1.21366256
H       26.68141044      23.98729614       4.66061194       0.06063440      -0.00178927       0.11588329
H       25.51735624      25.03544482       4.48281802       0.16131539       0.23687181       0.01603404
O        4.55155654      -0.29507404       6.64469873       0.05994999      -0.59461946      -1.40058327
H        4.96001415      -1.12239789       7.06095293       0.37827735      -0.04342215      -0.29185082
H        4.14617850       0.15312389       7.41651107       0.17560592       0.16552808      -0.02405033
O       -2.85521243      -4.41585137       1.01810056      -0.42862325       1.21701847       1.07879925
H       -2.58504392      -3.68707537       0.34269105      -0.01226063      -0.17716101      -0.02121789
H       -3.67417991      -4.18763266       1.48413948       0.23439411      -0.03992066      -0.24995130
O        4.26938905      15.85826016      10.72504856       0.67236043       0.70794905      -0.20249719
H        4.30512631      16.73180345      11.22388733      -0.05986154       0.30314467      -0.00262591
H        5.09796083      15.74614675      10.28350256       0.14506730      -0.02350901      -0.49041058
O       -1.38993757       6.63322380       5.14911495       0.09371195      -0.81910090       0.35207149
H       -1.25990638       6.31333635       4.16684863      -0.35867113       0.00032276      -0.12429997
H       -0.49597252       7.01214358       5.16282739      -0.05098548      -0.09045142      -0.10445066
O       22.81576631      12.31666463       5.77715292      -0.02951583       0.19339286      -0.29869485
H       23.18367093      13.13570908       5.98174398       0.28556641       0.14871449       0.26985511
H       22.46818178      12.36685008       4.93765877      -0.30431861      -0.32200260       0.29560045
O       -1.03051266     -15.75754345       6.81279550      -1.35416887       0.69373164      -0.40131620
H       -0.48810661     -16.08410553       6.00484051      -0.13104077       0.01482804      -0.16278708
H       -1.39339621     -14.99486560       6.53492046       0.20849695      -0.27351212       0.15599765
O       15.47720878     -17.89788366       9.67762869       0.69458455      -0.62092790       0.54226691
H       16.07357420     -18.32852063      10.19091271      -0.13646419      -0.29518177      -0.06114340
H       15.66093147     -16.96190258       9.61812285      -0.08385737       0.11261437      -0.31535227
O        3.26998316     -14.65971403     -13.35109440       0.56619980      -0.05686891      -0.78058824
H        4.09329209     -15.07276618     -13.23395540       0.13895621       0.40419460       0.04298120
H        2.58538815     -14.96907082     -12.73354317       0.14321431      -0.20651814      -0.28262146
O       -5.74763003       1.57571854       2.85226476      -0.05502808       1.44397562      -0.10542114
H       -6.44796472       1.22888693       2.29390717      -0.20507854      -0.44898586       0.08683786
H       -5.41844194       2.38069722       2.45231009       0.09534253      -0.04376309       0.57257222
O       -5.37228719      16.04946918      25.96944963       0.88744598       1.52271189      -0.85589202
H       -5.33520015      15.38539795      25.24894051      -0.06645744       0.31699814      -0.25122575
H       -4.43253450      16.40294282      26.00699875      -0.69149711      -0.66895547       0.00760359
O        7.45387435     -15.70873568      -8.52852420       1.19462009       0.02583140       1.90599401
H        7.83687154     -16.52682413      -8.20755667       0.18402318       0.45245844      -0.16706431
H        6.57050883     -15.57903273      -7.91557931      -0.07404797       0.43497089      -0.03858225
O       13.68091539       8.54932738      17.94889607      -0.23799460       0.26615928       0.78453849
H       14.03522562       8.71440182      17.11213954       0.13273895      -0.05431536      -0.27878968
H       14.22047558       7.96363225      18.40638075       0.02913892       0.00484785      -0.03476403
O       -0.15194020       1.19466424      -1.23420120      -0.14398523       0.55200640       0.84110255
H        0.77208684       1.39082054      -1.20541301       0.12362388       0.11748128      -0.14784807
H       -0.20684470       0.39808035      -0.72383512      -0.53783539       0.18232096      -0.34763684
O      -14.19266340      12.66372622      15.80589257       0.17642630      -0.07613364      -0.52608091
H      -13.99992238      12.34648209      14.80689069       0.23924759       0.09755001       0.03359016
H      -14.99010078      12.26242869      16.03754245       0.29971609       0.01329192       0.09974591
O      -16.45271819       5.91302867      12.34577532       2.19010743       0.81737974      -0.26773638
H      -17.05680409       5.95382619      11.51943132       0.16605732      -0.02193573      -0.15137903
H      -16.06177492       6.68889833      12.44991194      -0.56208656      -0.18581640      -0.42311054
O       -9.94584344      32.93670381      -9.57771036      -0.68181997      -0.62392218      -0.53252414
H       -9.32248150      32.30359553      -9.28961019       0.28345469       0.10765934      -0.20880963
H      -10.58841012      32.42331009      -9.96109673      -0.22386963       0.37509109       0.22871165
O       34.74653330      11.50166797      21.41606910       0.94143256      -0.48024370      -1.95218374
H       34.77489818      11.58598781      20.47949419      -0.08256480       0.30615149       0.52608746
H       35.16079643      10.70341755      21.53267189       0.12550404       0.03045938       0.61123502
O       30.39686381     -12.68358705       2.16985199       0.27204256       0.94498272      -0.36941913
H       29.72851347     -12.12114535       2.59943536       0.04859725      -0.10679232      -0.27180804
H       30.26558356     -12.61711373       1.12548260      -0.11608823       0.05386280       0.02273078
O       17.58953674       9.31469250      -7.43600203      -0.05088716      -1.21695387      -0.35402387
H       17.58289559       8.44454453      -7.56644242      -0.46690622       0.25579248      -0.32603662
H       17.43085089       9.51918479      -6.48453055      -0.11497405       0.08228704      -0.00582974
O       -5.17178753       2.61188248      32.18563357       1.13410456      -1.03344237       0.28310781
H       -5.87393154       2.11264879      31.62487973      -0.01716585       0.07484383       0.34548135
H       -4.43020978       1.99385917      32.37182846       0.12399213       0.24890381       0.29999470
O        3.75502526       0.85493753      -0.23031806       1.39629349       0.75667820       0.18111251
H        3.49493572      -0.08276186      -0.29121623       0.01674934       0.16932878      -0.14822059
H        4.15692800       1.15939068      -1.13411237       0.18580358      -0.32070284      -0.18993299
O       23.24011180       3.22991360      11.67167893      -0.64270535       0.16022276       0.00625299
H       23.08694716       3.62155785      12.44829416       0.59634872      -0.06801334       0.06913891
H       23.91059895       2.51915511      11.71925229      -0.21845073      -0.07394224       0.08436939
O       -1.44397561      31.81662953      15.00930887       0.39048823       0.49390519       1.12161070
H       -1.94305205      32.45877199      14.53183771      -0.36425678      -0.08741064       0.07574771
H       -0.55288755      31.96233745      14.48464348       0.15764011      -0.16969533       0.10010183
O        4.82251987      19.39239883       5.21379587      -0.16957075       0.19895338       0.32699145
H        4.22933907      18.96546843       5.72643626      -0.21477563      -0.06255032      -0.13676587
H        5.69789636      18.92053721       5.22232996      -0.08411041      -0.06194059      -0.04919274
O      -10.13876506      10.48723647       9.46440787      -1.06238094       0.80931539       0.56181221
H      -10.60552221      10.85927184       8.78856193      -0.16091145      -0.27504702       0.30317264
H      -10.55685847      10.89129561      10.32754079       0.07931574      -0.06383197       0.24171642
O       17.70520968      17.75973187      26.18906017      -0.19873096      -0.23237186      -1.31198561
H       18.50602953      17.30473763      25.99609320      -0.05341338       0.01834356       0.05057530
H       16.86313135      17.27233571      26.05031626       0.05744696       0.17363238      -0.01895920
O        6.93379342      18.70955029      10.13060988       0.00460411      -0.45594245       0.37895047
H        7.22584758      19.40153213       9.47257955       0.08981656      -0.18979674      -0.06487283
H        6.69918995      17.97839510       9.60634087      -0.24005155       0.17090000      -0.07701672
O       -0.62211236     -13.80941987      13.26334697      -0.39118454      -0.29237160       0.00868994
H       -1.38464961     -14.00721824      12.70872331      -0.14477952      -0.16809233       0.29637566
H       -0.17223901     -14.47564832      13.65751978      -0.20457473      -0.11137289      -0.24104767
O        1.15053992       6.16631715       1.09775151       0.26196632      -2.43370217       0.60004324
H        1.51903000       5.35879358       1.11220332      -0.18291216       0.46015346       0.10440230
H        0.90564268       6.27089801       0.10371986       0.21517148       0.35219974       0.16407672
O        3.10507835       1.32448249       8.35647211       0.71340392      -0.51648727       0.34466380
H        2.29511469       0.94685133       8.26264122       0.46204636       0.69237481       0.19827715
H        3.26677554       1.53411838       9.27768624       0.26021148      -0.41749126       0.14881107
O      -18.84408027      28.80397381     -16.14826145       1.10989717       0.36759624      -0.90630702
H      -18.65818381      28.83695047     -17.07108309      -0.33786425       0.53001128       0.41568956
H      -18.19041951      28.30174933     -15.81144254      -0.46470230       0.50731644       0.21258492
O        2.88006434      26.87918021      -9.11795687      -0.10415412      -0.07261367      -0.02207256
H        3.70776844      26.92056601      -8.15580712       0.74105145       0.16626454       0.46348316
H        2.31153370      26.19397011      -8.85925770      -0.71350993      -0.10769890       0.00541348
O      -18.06515437      19.03095298       1.90981412      -1.19624504      -1.25538332       0.21195077
H      -17.48362968      18.85673238       1.28107910       0.06352271       0.03210828       0.16122924
H      -18.79707384      18.50281155       1.70516687      -0.12256843       0.30322541       0.32562858
O       11.70244613      17.57547443       7.07013485       0.49253953       0.25775518      -0.80572672
H       12.56147896      17.36549234       6.67976753       0.03766193      -0.14128923       0.23414744
H       11.33651961      18.29412389       6.54909771      -0.41216591      -0.20396723       0.17720363
O       -7.23077897     -11.20025299       5.19166416      -0.32086447      -1.19300111      -0.49291043
H       -6.46090149     -11.32037641       4.51267733      -0.06782992       0.14576410      -0.06354679
H       -7.36638121     -12.07609474       5.52219131      -0.24350762       0.28132856       0.26508979
O      -24.12673804       3.42666164      10.69794034      -0.52036867      -1.08895753      -0.10050529
H      -24.76552258       4.11567144      10.50788963       0.01480444      -0.19107573      -0.01877253
H      -23.35975673       3.71363204      10.32651040      -0.52870313      -0.09760917       0.20143164
O      -11.43504502      -8.19918907      18.46905823      -0.02339819      -1.18656533      -0.06860073
H      -10.58025704      -8.54746730      18.90624877      -0.23994827      -0.00281309       0.14342453
H      -11.36234673      -8.42305981      17.48026332      -0.17722807       0.40197085       0.09309152
O        8.62279778       7.33084948      16.92732039      -1.15546512       0.56925351      -0.58222688
H        9.52393011       7.34910492      16.77497607       0.07401675       0.01495026       0.00371193
H        8.27445066       6.75720585      16.19107759      -0.23618728       0.03893962       0.01405043
O      -11.65311917      -0.47927281      20.41534993       0.58022248      -0.10619812       0.56842684
H      -12.53075984      -0.27580631      20.80806020       0.02455125       0.14008802      -0.10860995
H      -11.61402760      -0.53132499      19.51594192      -0.25943522      -0.05854023       0.24265331
O       24.18389198       2.46668879      16.22814820      -1.01081916      -0.03538454      -0.38742726
H       23.85917097       2.50087826      17.18042592       0.20124072       0.08908258      -0.01242613
H       23.97838853       1.69235370      15.82315637       0.25461743       0.34673722      -0.38603297
O       -5.67110654     -17.96067351      -5.00922379      -0.39305686       0.12651213      -1.43005182
H       -4.71691335     -17.69876127      -4.68241106       0.29794447      -0.25179273      -0.36801732
H       -5.83910103     -18.70306350      -5.64049101       0.06890906       0.14074890       0.24694780
O       29.49386917      -8.99187879      -6.14768120      -1.11181898       0.45916988      -0.25593824
H       30.14725041      -9.02816979      -6.76606392       0.13093852       0.17847170       0.27455942
H       29.20999091      -9.96666611      -5.97339012      -0.28421321       0.34732472       0.07956167
O        8.81422819      -0.68107376       3.40097020       0.19307443       0.61678150       0.76392662
H        8.23751275      -0.09448669       2.90335659       0.22754580       0.19492462      -0.31808346
H        8.27170703      -1.41323980       3.68513120       0.12820367      -0.27586740      -0.02004814
O      -19.77435257      -3.17157341      24.77525755      -0.21935467       0.46228071      -0.20195039
H      -20.11870898      -3.85543146      24.31056749       0.34382915       0.02887905       0.19343530
H      -19.28693147      -3.35731049      25.47656174       0.03989589      -0.07226954      -0.13535236
O        2.37065005      -5.80915266      -6.04282929       1.33416239       0.58977631       0.17992583
H        2.63188845      -5.52968346      -5.05751782      -0.03913090      -0.09724711       0.07345413
H        1.82693640      -6.65849338      -6.25420972       0.11780005       0.15822303      -0.07103282
O        9.83898200       8.28894280       7.94715787       0.60780813      -0.13360661       0.24297997
H       10.54633225       8.54273241       7.34195944      -0.10103807      -0.15577082      -0.25527843
H       10.23724424       7.54043934       8.43639074      -0.26149032      -0.29166548      -0.00354041
O        5.35273164       9.74726969      -4.81447934       0.66772776      -0.06206341      -0.73573267
H        6.04788903       9.17217482      -4.76717452       0.14289448       0.07994996      -0.08928734
H        4.82192158       9.67124560      -4.00183931      -0.10708024       0.08892102       0.10699305
O       13.77247442      29.46599649      15.87347860      -0.37643075      -0.39303953       0.11264466
H       12.90064028      29.00365653      16.09231912      -0.18928240      -0.06418893      -0.05171172
H       14.45174512      28.77221509      15.92420038      -0.30284523      -0.09509030      -0.09838455
O       -2.80563371       3.97108127       1.68700504      -0.13591602      -0.33393656       0.95596436
H       -2.20180346       3.60279560       2.34669350      -0.48478577       0.15592981      -0.39644509
H       -2.65916783       4.95875026       1.83842527       0.02312550       0.25233868      -0.05711678
O        7.80432836     -14.02282819      10.96251850      -0.02432078      -0.37740925      -0.60490166
H        7.03567673     -14.37989076      11.13297445       0.30484134       0.28475968      -0.38911152
H        8.12963786     -14.04597797      10.12048073       0.06645489      -0.41523726       0.13794756
O       -2.44500078      10.55525596      24.37487319      -1.35197581      -0.17721563      -1.59270527
H       -2.03566217      10.08393816      23.50674946       0.12240768      -0.09530580       0.02777515
H       -3.18920522      11.09051214      24.18998498      -0.14671337       0.51500541       0.48729192
O       20.06862717      21.73781463       1.55466165      -0.55512313       0.64071966       0.51042787
H       19.97157367      22.13657978       2.33484398       0.02299576       0.39562825      -0.13789078
H       19.83330372      20.85307264       1.48184988      -0.22588078      -0.16212002      -0.54283159
O       12.15486768      10.00076096     -15.93248619       0.57308334       0.50005932       0.85674170
H       12.64777024       9.38030775     -15.42895386       0.15023776      -0.28792159      -0.16587999
H       12.41301696      10.01828946     -16.77030461       0.38949673       0.20648012      -0.34661912
O      -11.40539403      22.28201915       1.06265153       0.08777126      -1.62129723       0.27335788
H      -11.61729959      21.38565316       1.15152945      -0.26536005       0.61923690      -0.13327073
H      -10.82147206      22.49884054       1.82190359      -0.01255897       0.25152927      -0.07506495
O        2.95056340     -15.03213858      16.14259244       0.12756846      -0.42918931      -0.84513496
H        3.32796194     -15.75573788      16.60570607      -0.43282434       0.06406188       0.09534701
H        3.58766765     -14.28674505      16.00936432      -0.15488854      -0.29794821       0.01495019
O        2.43924516      16.35038763       0.36886431      -1.01602158      -0.86941553       0.46480999
H        1.97584397      16.07839359      -0.55899239      -0.41959044       0.38372958      -0.30136968
H        2.87020857      15.51762965       0.60941136       0.47610390       0.18948866       0.17224898
O       -5.67150547      -7.28640917       5.59210121      -1.36161112      -0.56823159      -0.07306086
H       -5.38739110      -8.05696349       6.20865786       0.20712872       0.12198231       0.40857351
H       -5.02866642      -6.77157712       5.19171740      -0.20989777      -0.04082850      -0.05999920
O       -2.16437880       2.39110808       6.64401590       0.27791515       0.85409610       0.17738787
H       -2.06654717       3.26717941       6.91517241      -0.41298918       0.17624297      -0.29471067
H       -1.81965120       1.80364252       7.51490113       0.09055492      -0.44931828       0.16295017
O       13.16492267      -5.46760873      -1.44964980       0.55126824      -1.60806867      -0.70521659
H       13.97696616      -5.18353730      -1.99549600      -0.16518680      -0.08349999       0.20213368
H       12.92682488      -6.29675781      -1.76167401       0.26053163       0.06030127       0.68611846
O       11.82398223       4.88802621      22.73684516      -0.08928824       0.26011107       0.22952576
H       11.25375362       4.19815062      22.99741960      -0.09980838      -0.21031104      -0.07718534
H       11.90845656       4.89008938      21.75356720       0.22513101      -0.32960381      -0.08629036
O        8.19042381      14.49128612      23.79407227      -1.21992794      -0.52045974       1.42940313
H        9.00541346      14.94713058      23.94862173       0.12572357       0.05029978      -0.29778464
H        8.08652771      13.68325525      24.09912590      -0.09807047       0.06264848      -0.00949317
O       -8.09335406       7.02289693      11.40869071       0.81413563      -0.49642198       0.23185092
H       -7.33482657       6.54124974      11.02568404      -0.12754010       0.15662403      -0.04211847
H       -8.31521455       6.22298888      11.98843773      -0.11490277       0.07773313       0.18723394
192
Lattice="12.748433529704748 0.0 0.0 -5.291323839143925e-07 12.748433529704748 0.0 -5.291323839143925e-07 -5.291323839143925e-07 12.748433529704748" Properties=species:S:1:pos:R:3:momenta:R:3 step=50 time_fs=5.0 phase=equilibration pbc="T T T"
O       11.61298157       0.72679356     -16.49661947       1.13230116       0.03102111       0.64902304
H       12.05263352       0.93736648     -15.65499576       0.58997065       0.29549648      -0.09448576
H       10.83411026       0.15275303     -16.50299198       0.05262844      -0.15078405      -0.11959056
O       26.37059794      24.78427591       4.88816001      -0.06287918       0.39013696       1.38537972
H       26.69518562      23.96591551       4.66557513       0.21937374      -0.39256508      -0.00473788
H       25.53541131      25.05834557       4.48566860       0.21377125       0.24365368       0.03857446
O        4.55190019      -0.29924663       6.63662907       0.07960397      -0.76492373      -1.18677860
H        4.99350405      -1.11676886       7.02661610       0.30727477       0.16001687      -0.40602445
H        4.16409561       0.16860136       7.40992523       0.19472320       0.14607260      -0.10844122
O       -2.85737996      -4.40775690       1.02410261      -0.25382206       1.36710867       0.86650593
H       -2.58967982      -3.71456652       0.34922382      -0.07843245      -0.37689974       0.14508570
H       -3.65070701      -4.18908233       1.45980540       0.19489986       0.02142707      -0.22153074
O        4.27330648      15.86320142      10.72417196       0.67386054       1.00166887      -0.03630725
H        4.30041946      16.74896631      11.21508997      -0.03103148       0.04813297      -0.17771705
H        5.11583699      15.74201902      10.23276831       0.17636267      -0.04369529      -0.51765894
O       -1.38883378       6.62786392       5.15024411       0.24567469      -0.88807659       0.04902012
H       -1.29850482       6.31609295       4.16573772      -0.43042336       0.05739570       0.10485058
H       -0.50195900       7.00371382       5.15585343      -0.06177109      -0.07574408      -0.03540592
O       22.81553121      12.31690929       5.77623049       0.12183757       0.01285930       0.04006618
H       23.21780650      13.16170319       6.01351673       0.39270363       0.33547773       0.35772473
H       22.42559229      12.33333356       4.94852052      -0.54973551      -0.35155749      -0.04881638
O       -1.03758643     -15.75460107       6.81007566      -0.95160497       0.14821025      -0.43618513
H       -0.50423138     -16.08165235       5.99811787      -0.19811416       0.02774147       0.02643763
H       -1.38836930     -14.99287401       6.54138455      -0.11188785       0.32327303      -0.02504047
O       15.48019422     -17.90087877       9.68014929       0.39213323      -0.45690350       0.34829842
H       16.07342798     -18.36697233      10.19637643       0.12454809      -0.48181477       0.16211493
H       15.65407437     -16.94612964       9.58678550      -0.05173005       0.17113283      -0.31505321
O        3.27276395     -14.65954916     -13.35572678       0.37848433       0.01770398      -0.82568571
H        4.11791997     -15.03833434     -13.22883105       0.36356901       0.30102269       0.05782439
H        2.59729018     -14.99059332     -12.76245605       0.09072733      -0.24548566      -0.30408266
O       -5.74807930       1.58408145       2.85181416      -0.15658305       1.25592443      -0.03021920
H       -6.46667737       1.18471660       2.30220632      -0.15120015      -0.43501281       0.09968313
H       -5.40622888       2.38261594       2.50577506       0.15533865       0.09701957       0.51271676
O       -5.36663141      16.05836388      25.96333954       0.83011193       1.45655169      -0.96322379
H       -5.34329011      15.41825211      25.22497257      -0.11078788       0.34779140      -0.24513609
H       -4.50176390      16.33684185      26.01006293      -0.63237815      -0.64235335       0.07733561
O        7.46001313     -15.70778860      -8.51613854       0.83311558       0.21730860       2.06151950
H        7.85767360     -16.48827884      -8.22273116       0.26134822       0.29883898      -0.13479078
H        6.57665395     -15.53815189      -7.92884040       0.20755457       0.39244327      -0.23786822
O       13.67841579       8.55117850      17.95348497      -0.45362128       0.39644887       0.77357826
H       14.05102952       8.71393073      17.07114462       0.17218579       0.03071777      -0.48167204
H       14.22960508       7.95386176      18.41379377       0.15291693      -0.18606514       0.17675837
O       -0.15321439       1.19850769      -1.22938344      -0.24480213       0.72463804       0.71562499
H        0.79304617       1.40642209      -1.22173583       0.27591938       0.18981812      -0.18408829
H       -0.26374176       0.40381290      -0.75131213      -0.62388586      -0.06812519      -0.21509369
O      -14.19016714      12.66318241      15.80119931       0.54539297      -0.01802771      -0.90280677
H      -13.97789344      12.36204160      14.82327299       0.20606010       0.22606952       0.30945420
H      -14.97407504      12.25476784      16.04959425       0.02371458      -0.16541756       0.15705648
O      -16.44019346       5.91594368      12.34293533       1.77577821       0.14330360      -0.57743678
H      -17.03416492       5.95092436      11.51358680       0.28348842      -0.04364947       0.02943057
H      -16.10139597       6.70275358      12.41256583      -0.24254336       0.50886120      -0.33085128
O       -9.94948596      32.93323122      -9.58058570      -0.55282117      -0.31200224      -0.46055529
H       -9.28288157      32.30702963      -9.30490693       0.50667297      -0.00770754      -0.11835413
H      -10.62811251      32.45220033      -9.94884601      -0.59161908       0.23200666       0.02259776
O       34.75118924      11.49934468      21.40423871       0.81832271      -0.24316189      -1.72333919
H       34.76447163      11.62186009      20.51378137      -0.11588955       0.43845152       0.15247961
H       35.18326898      10.68503920      21.59838005       0.33258037      -0.36596707       0.74029441
O       30.39776619     -12.67712698       2.16639198       0.23445532       1.05863582      -0.75025233
H       29.73483717     -12.13407450       2.57140830       0.06967460      -0.14718944      -0.28693275
H       30.25590378     -12.61090841       1.14697460      -0.07007305       0.06614317       0.40896629
O       17.58888589       9.30884473      -7.43714854      -0.04307636      -0.64126611      -0.06927366
H       17.53684404       8.43833105      -7.60439560      -0.47472750      -0.35996118      -0.45084854
H       17.42129512       9.52747261      -6.49066874      -0.07229219       0.08571782      -0.12624355
O       -5.16479315       2.60491884      32.18643525       1.10533697      -1.18685656       0.19633225
H       -5.86346119       2.12703793      31.66922393       0.21309129       0.20798532       0.56096889
H       -4.42419887       2.02301799      32.39896395       0.01872099       0.33146203       0.27569820
O        3.76397557       0.85961741      -0.23013168       1.54840132       0.78602034      -0.12117797
H        3.49779248      -0.06223986      -0.30790891       0.03607277       0.23207671      -0.19048972
H        4.16810777       1.12199815      -1.13659496       0.04715690      -0.43870256       0.13634219
O       23.23597889       3.23006081      11.67018339      -0.56546365      -0.07512437      -0.39406444
H       23.14136175       3.62740389      12.47785207       0.53293746       0.18188126       0.52379079
H       23.88862835       2.51072573      11.72628341      -0.21683582      -0.10597995       0.06237517
O       -1.44062347      31.81895548      15.01562152       0.67562046       0.49073829       1.01744651
H       -1.98575018      32.45612933      14.53665235      -0.48536460       0.02189775       0.04459349
H       -0.54285888      31.94146567      14.50181461       0.03734917      -0.24150458       0.25795960
O        4.82254596      19.39362979       5.21508049       0.17529014       0.32144647       0.14269391
H        4.19363395      18.95007434       5.72627317      -0.49261073      -0.23083445       0.11560324
H        5.68115774      18.91999367       5.21480299      -0.24272090       0.04894245      -0.09993633
O      -10.14489292      10.49196487       9.46958399      -0.99209063       0.79521083       1.18497343
H      -10.63263580      10.84008540       8.79963758      -0.40380304      -0.11466547      -0.07431851
H      -10.53950102      10.87692714      10.33927653       0.26843679      -0.22408808       0.00509646
O       17.70298257      17.75836087      26.18034168      -0.39039154      -0.08720124      -1.35497112
H       18.50607634      17.29832295      25.99994838       0.06220461      -0.14137154       0.03892191
H       16.87225037      17.29015947      26.04915681       0.11673410       0.18798195       0.00258223
O        6.93397975      18.70718430      10.13279185       0.09720591      -0.20899763       0.39369560
H        7.23355285      19.38084812       9.47209892       0.07410968      -0.22052152       0.05587055
H        6.67120755      17.98246378       9.59386249      -0.33053422      -0.06994700      -0.16631986
O       -0.62494054     -13.80987259      13.26278582      -0.53049900       0.04593015      -0.10156442
H       -1.40205239     -14.02656173      12.73525673      -0.21282274      -0.23333347       0.25345497
H       -0.18336759     -14.50198428      13.64080073      -0.02719524      -0.42775370      -0.09996376
O        1.15094868       6.15322703       1.10037094      -0.13970859      -1.74764821       0.26551268
H        1.51761741       5.37108365       1.12802556       0.17641469      -0.24940650       0.22363285
H        0.92771673       6.31058832       0.12891455       0.23570159       0.46340416       0.34695378
O        3.11073907       1.32185390       8.35823934       1.20342418      -0.31120421       0.31604270
H        2.31321242       1.00277850       8.27465660      -0.14064407       0.43925031       0.04287880
H        3.29834717       1.49435884       9.29881676       0.38683348      -0.40074267       0.26756298
O      -18.83822978      28.80646784     -16.15322204       0.64710840       0.64263514      -0.80281073
H      -18.69010594      28.89153776     -17.04977774      -0.31955706       0.60540945      -0.01434241
H      -18.21463458      28.33415445     -15.77342807      -0.01798999       0.15363719       0.57805477
O        2.88119916      26.87845742      -9.11602072       0.47102740      -0.05528534       0.65292821
H        3.73909210      26.93201328      -8.15156161      -0.19273823       0.07273576      -0.44606235
H        2.24458525      26.18445266      -8.84910267      -0.56291573       0.00533671       0.18996781
O      -18.07271617      19.02382084       1.91270658      -1.35014829      -0.95382327       0.70471220
H      -17.45023411      18.85359089       1.27007489       0.58035517      -0.07926382      -0.34913085
H      -18.82701903      18.52436666       1.73868715      -0.50106421       0.14658696       0.36208822
O       11.70529089      17.57657208       7.06516775       0.50994395       0.20771636      -0.75888187
H       12.56934813      17.35214429       6.70181360       0.12275143      -0.11966393       0.21760667
H       11.29395406      18.27624148       6.56373213      -0.45069629      -0.15375603       0.12062916
O       -7.23164319     -11.20694160       5.18785714       0.00724818      -1.05084655      -0.70569070
H       -6.47994118     -11.30573543       4.50918271      -0.33300700       0.14487928      -0.00263896
H       -7.38925375     -12.05933654       5.55378466      -0.21045289       0.04994978       0.39163337
O      -24.13047578       3.41917948      10.69766079      -0.87712605      -1.32985871       0.08615963
H      -24.77581349       4.10557916      10.50488028      -0.23554265      -0.01788319      -0.03876425
H      -23.38549128       3.70939266      10.33465832       0.01313300       0.01907511      -0.03899514
O      -11.43420230      -8.20686829      18.46805216       0.20439355      -1.35466332      -0.12237939
H      -10.61453200      -8.54510971      18.91355532      -0.45210085       0.04172570       0.02110649
H      -11.38102777      -8.37799554      17.50393912      -0.20858434       0.51015100       0.37197115
O        8.61439669       7.33371528      16.92299139      -1.48909445       0.41789174      -0.71700230
H        9.54674816       7.35252185      16.77717235       0.35303427       0.05515616       0.04942679
H        8.25127074       6.76712891      16.19630648      -0.22986506       0.16713734       0.09756576
O      -11.64959348      -0.47981513      20.41971876       0.49985094      -0.07519406       0.98387650
H      -12.52455246      -0.26151166      20.79440770       0.08926301       0.15506728      -0.15647014
H      -11.63898192      -0.53781598      19.52036427      -0.25473505      -0.07512856      -0.14919417
O       24.17720221       2.46763948      16.22672595      -1.00661761       0.35686109       0.01360849
H       23.88161220       2.50966369      17.16897472       0.26225327       0.08844460      -0.20324015
H       23.99915296       1.70727720      15.77476299       0.18370189      -0.03356612      -0.59453266
O       -5.67246660     -17.95963151      -5.01789774      -0.07213596       0.13545487      -1.39591633
H       -4.70283248     -17.72519416      -4.72552980      -0.01675912      -0.29597832      -0.51718027
H       -5.83250537     -18.68280521      -5.61101059       0.05440385       0.22798183       0.32152688
O       29.48507634      -8.98990068      -6.14821066      -1.54095850       0.16258914       0.02690855
H       30.17448407      -9.01013136      -6.75200238       0.42554702       0.18815729       0.02508482
H       29.18594085      -9.91717149      -5.96747683      -0.20540155       0.62890186       0.04148441
O        8.81518408      -0.67710068       3.40532139       0.14785038       0.66556139       0.67143835
H        8.26061578      -0.07364347       2.87241823       0.26247620       0.20816791      -0.29531930
H        8.28168544      -1.44525329       3.68652012       0.09558823      -0.34901910       0.03454208
O      -19.77581542      -3.16709044      24.77291483      -0.37420042       0.96482038      -0.37854891
H      -20.09478295      -3.87309355      24.31361345       0.14527381      -0.38627855      -0.11509815
H      -19.26546734      -3.36684550      25.48788033       0.37562462      -0.11821775       0.35194722
O        2.37860040      -5.80584048      -6.04120697       1.27639696       0.46073432       0.31313365
H        2.62412498      -5.54592067      -5.06451203      -0.11716325      -0.23473575      -0.21623813
H        1.84603602      -6.62827953      -6.25501285       0.26726541       0.44378400       0.04621626
O        9.84294131       8.28758682       7.94882738       0.74700250      -0.25736654       0.35082626
H       10.53456831       8.53008587       7.31545255      -0.14042373      -0.10730824      -0.27578862
H       10.20727917       7.51574148       8.43412373      -0.34561501      -0.20211093      -0.04772512
O        5.35578023       9.74723950      -4.81881647       0.36193047       0.10265978      -0.69107001
H        6.07729570       9.16770336      -4.77660594       0.44112560      -0.15282678      -0.10205346
H        4.81071563       9.68138920      -3.99371838      -0.10122579       0.12097048       0.03530889
O       13.76951917      29.46229014      15.87390540      -0.51875325      -0.60321617       0.13066522
H       12.88863532      29.00174153      16.08318818      -0.04998408       0.03886366      -0.12794403
H       14.42023490      28.76385074      15.91365022      -0.31443034      -0.08532616      -0.10830609
O       -2.80658823       3.97001093       1.69265236      -0.22278613       0.03973454       0.85900559
H       -2.24172047       3.60902343       2.31423716      -0.30437822      -0.04749232      -0.23458048
H       -2.65903583       4.97348803       1.82853545      -0.02236583       0.04541672      -0.14483434
O        7.80582746     -14.02369342      10.95949287       0.56744629       0.00248547      -0.32025248
H        7.02731006     -14.36797899      11.10398000      -0.47626750      -0.04398288      -0.20308752
H        8.14393324     -14.08645505      10.11037095       0.22868437      -0.42226060      -0.32772533
O       -2.45240888      10.55315102      24.36380575      -1.10869512      -0.41271460      -1.85681770
H       -2.03108397      10.08371102      23.52326367      -0.02866547       0.09418001       0.31686936
H       -3.20928141      11.14402218      24.23607941      -0.23426361       0.56229878       0.47388667
O       20.06519471      21.74137195       1.55645854      -0.44849896       0.62561005       0.10457766
H       19.96870868      22.18611692       2.34208469      -0.06938168       0.60800271       0.25500641
H       19.80559812      20.82360813       1.42942421      -0.32038440      -0.37849813      -0.52111572
O       12.15738564      10.00401571     -15.92582148       0.36830996       0.60263676       1.15034039
H       12.66775100       9.34502454     -15.43909917       0.24356235      -0.40288673      -0.07821453
H       12.45640111      10.03956715     -16.82745560       0.48323246       0.22793936      -0.74309644
O      -11.40408859      22.27261926       1.06441754       0.27465136      -1.25435387       0.30412651
H      -11.65004004      21.42480910       1.13856789      -0.42420032       0.15544164      -0.12787046
H      -10.82234136      22.52400436       1.81423537      -0.00818832       0.27235929      -0.08037206
O        2.95089692     -15.03388560      16.13672877      -0.02959145      -0.26129789      -0.96099521
H        3.29077137     -15.75725589      16.62002426      -0.32733017      -0.10877622       0.21160396
H        3.57182470     -14.31832363      16.01228893      -0.14154801      -0.31948072       0.04403837
O        2.43278723      16.34425478       0.37089293      -1.06931233      -1.02163473       0.20096553
H        1.94094810      16.12043994      -0.57121702      -0.28839783       0.47891166       0.05777304
H        2.91462583      15.53783957       0.62641107       0.42721515       0.23627266       0.16988148
O       -5.68038176      -7.29120477       5.59245130      -1.55616974      -1.03919025       0.22651684
H       -5.36764094      -8.03201516       6.23985995       0.18965806       0.38841851       0.22824423
H       -5.03476217      -6.76899352       5.18334382       0.07475334       0.08801021      -0.10756159
O       -2.16247839       2.39494867       6.64543445       0.32962958       0.41563698       0.33179715
H       -2.10591334       3.29626705       6.89034133      -0.39572283       0.40892274      -0.21375333
H       -1.81408549       1.76871208       7.52012591       0.02210300      -0.25908364      -0.05548817
O       13.16911186      -5.47627784      -1.45387412       0.86843282      -1.24235152      -0.65414908
H       13.95130424      -5.19353517      -1.97019170      -0.31575796      -0.10959477       0.29211462
H       12.94548390      -6.30926539      -1.69976956       0.12026061      -0.34237296       0.57906544
O       11.82359425       4.88982916      22.73728197       0.02037081       0.33217845       0.06106488
H       11.23787398       4.17194751      22.99227489      -0.19949981      -0.29894300      -0.02992825
H       11.93053716       4.85923231      21.74967238       0.23045260      -0.30170624       0.02528858
O        8.18253610      14.48949193      23.80172472      -1.27962366       0.01154385       1.23356801
H        9.02232849      14.95413409      23.91905637       0.20045634       0.08244954      -0.30178626
H        8.07358790      13.66068577      24.10761750      -0.15626847      -0.48239512       0.18090072
O       -8.08819779       7.01867344      11.41037994       0.79108933      -0.81426139       0.40240813
H       -7.34561979       6.56154004      11.01737823      -0.07227626       0.24780719      -0.13687407
H       -8.32780181       6.24155194      12.00326376      -0.14770119       0.29906407       0.12631576
192
Lattice="12.748212819779972 0.0 0.0 -5.291232231992051e-07 12.748212819779972 0.0 -5.291232231992051e-07 -5.291232231992051e-07 12.748212819779972" Properties=species:S:1:pos:R:3:momenta:R:3 step=60 time_fs=6.0 phase=equilibration pbc="T T T"
O       11.61970113       0.72689292     -16.49240156       1.12533086       0.00558292       0.64624872
H       12.10670393       0.96337716     -15.66658926       0.51231020       0.23288176      -0.16419075
H       10.84237944       0.13985318     -16.51231066       0.12982304      -0.10636257      -0.07556000
O       26.36953090      24.78683795       4.89705650      -0.11059684       0.52625742       1.53173802
H       26.71939094      23.91750225       4.66155889       0.26270404      -0.54282013      -0.06129445
H       25.55606766      25.08181835       4.48868657       0.20904246       0.24491540       0.01761457
O        4.55235491      -0.30438497       6.62977569       0.09021880      -0.89803941      -1.02589592
H        5.01990793      -1.09224208       6.98285620       0.24371895       0.32713443      -0.47872840
H        4.18381120       0.18134475       7.39614202       0.20801541       0.11879801      -0.16178726
O       -2.85794584      -4.39926970       1.02876704       0.05580794       1.33559565       0.68605307
H       -2.59809645      -3.75583791       0.36640426      -0.07909965      -0.43627500       0.17051545
H       -3.64329898      -4.18163517       1.44466568      -0.06667883       0.13418805      -0.07754545
O        4.27793482      15.86982903      10.72388916       0.87652462       1.22693501      -0.01782244
H        4.29934645      16.74119253      11.18933506       0.01195236      -0.18674266      -0.33753319
H        5.12453272      15.73863956      10.18722988      -0.01787527      -0.01512167      -0.39657868
O       -1.38700290       6.62204271       5.14957057       0.33295773      -0.96998220      -0.22912898
H       -1.34318063       6.32378158       4.18653071      -0.48512253       0.09829561       0.31296126
H       -0.50625739       6.99780487       5.15588943      -0.01960451      -0.04019306       0.03847349
O       22.81662175      12.31699330       5.77735437       0.36495019       0.12349060       0.33293694
H       23.25240348      13.18928790       6.04588893       0.29866639       0.19429300       0.29090938
H       22.36343645      12.29963926       4.93434518      -0.69660465      -0.33095956      -0.19727657
O       -1.04236057     -15.75474160       6.80710733      -0.64070894      -0.22255986      -0.50120088
H       -0.52635055     -16.07801738       6.00911142      -0.25330364       0.04260537       0.19370397
H       -1.41163492     -14.93770144       6.53179186      -0.33369693       0.74132408      -0.15100305
O       15.48172541     -17.90273652       9.68172173       0.22813921      -0.25468433       0.24396871
H       16.09262975     -18.41716943      10.21789594       0.24118506      -0.52581057       0.25339318
H       15.64977434     -16.93352943       9.55791308      -0.03435970       0.06050639      -0.26793055
O        3.27481104     -14.65899132     -13.36078574       0.33759816       0.07200138      -0.89484148
H        4.16048952     -15.01178661     -13.22233245       0.48137578       0.25082681       0.06805068
H        2.60199512     -15.01689598     -12.79089604       0.00792635      -0.30051731      -0.28144647
O       -5.74959856       1.59082255       2.85170751      -0.38207590       0.94099907       0.00751086
H       -6.47309082       1.14759260       2.31578151       0.02948169      -0.31368104       0.18775679
H       -5.38827333       2.40033709       2.55104113       0.20670622       0.26440322       0.41672187
O       -5.36303246      16.06644416      25.95657691       0.22899520       1.24680931      -1.10442257
H       -5.35757359      15.45166336      25.19940531      -0.18429841       0.34656452      -0.26715952
H       -4.53658771      16.28305198      26.02328151      -0.00061223      -0.43892473       0.21248988
O        7.46367398     -15.70524293      -8.50295166       0.40010657       0.52957566       2.18218370
H        7.88904692     -16.47104774      -8.23238533       0.38763531       0.04539471      -0.06494410
H        6.61144053     -15.50293994      -7.96183743       0.50670396       0.32047396      -0.43958720
O       13.67537915       8.55381413      17.95708757      -0.41369969       0.49171106       0.47535690
H       14.06297089       8.71669620      17.03314099       0.05904311       0.01787877      -0.23544306
H       14.24572994       7.93231325      18.43506650       0.15385390      -0.21769748       0.23563700
O       -0.15455528       1.20356938      -1.22532744      -0.16486715       0.92258485       0.60854944
H        0.81802493       1.42429415      -1.24020813       0.19682959       0.15966846      -0.18966507
H       -0.32622513       0.38719881      -0.76733901      -0.64415639      -0.24758374      -0.12975873
O      -14.18559697      12.66298096      15.79431360       0.83195956       0.01671161      -1.22261944
H      -13.95905446      12.38944952      14.86542644       0.18017986       0.33235728       0.53937329
H      -14.98221341      12.23098368      16.06732029      -0.16620673      -0.30428510       0.20591781
O      -16.42998339       5.91502342      12.33840703       1.49858649      -0.34166205      -0.80253739
H      -17.00251221       5.94426708      11.52270651       0.35083307      -0.09125018       0.14683184
H      -16.11161842       6.78134967      12.38410239      -0.00260999       1.03868012      -0.25813684
O       -9.95209648      32.93117015      -9.58298545      -0.35135323      -0.22620353      -0.38001323
H       -9.23142654      32.30614619      -9.31585241       0.49329206       0.03283123      -0.13029931
H      -10.69759369      32.46912166      -9.95337356      -0.78594954       0.14517034      -0.09484221
O       34.75568914      11.49740868      21.39446342       0.88679280      -0.40806674      -1.31753840
H       34.75213353      11.66906876      20.50883026      -0.11681852       0.51649385      -0.22090769
H       35.21674836      10.64704609      21.66993104       0.31511417      -0.30591947       0.68583554
O       30.39884788     -12.67032851       2.16070613       0.31225419       1.06697871      -1.04685327
H       29.73625137     -12.14587863       2.54738174      -0.05452988      -0.08108686      -0.18032217
H       30.25092453     -12.60435355       1.19869566      -0.02253296       0.06064633       0.58610363
O       17.58837892       9.30592907      -7.43679330      -0.02329955      -0.31759893       0.11459641
H       17.48963045       8.38392765      -7.65131367      -0.48463279      -0.68841824      -0.49727186
H       17.41617140       9.53438305      -6.50820323      -0.02725999       0.05644416      -0.22574887
O       -5.15798123       2.59775560      32.18705098       1.09927994      -1.08059567       0.20858590
H       -5.83945346       2.14847250      31.72722586       0.22463631       0.20126241       0.60272283
H       -4.42116230       2.05411588      32.42601634       0.07000482       0.28653220       0.30130697
O        3.77391231       0.86470113      -0.23167805       1.70335117       0.88251063      -0.35746723
H        3.49989986      -0.04229311      -0.32712279      -0.00429965       0.14937234      -0.19521271
H        4.16750773       1.07640041      -1.11013012      -0.04002098      -0.47575858       0.37326476
O       23.23217933       3.22914974      11.66692572      -0.54443132      -0.17274530      -0.52977294
H       23.19111126       3.65305175      12.54195764       0.50301432       0.31002488       0.72480094
H       23.86757929       2.49810216      11.73092353      -0.21257170      -0.14539437       0.03757816
O       -1.43584759      31.82172416      15.02104226       0.85685492       0.60566699       0.82130342
H       -2.03179026      32.45683823      14.54321853      -0.43587426      -0.01546490       0.10788054
H       -0.54767632      31.91476240      14.53437009      -0.14443901      -0.29231565       0.41458047
O        4.82383132      19.39547171       5.21568145       0.20015201       0.36908219       0.11879612
H        4.14052033      18.92437721       5.74282599      -0.54400344      -0.25741048       0.18545591
H        5.65431431      18.92670912       5.20336484      -0.28400265       0.07983340      -0.12972212
O      -10.15059816      10.49663028       9.47827031      -0.93182435       0.78594290       1.63898567
H      -10.68179280      10.83456085       8.77734212      -0.58553888      -0.01179703      -0.34384604
H      -10.50571769      10.84845555      10.32954089       0.40599890      -0.34340010      -0.18013278
O       17.70012059      17.75807164      26.17146162      -0.40618782       0.09241978      -1.39014206
H       18.51588589      17.27791922      26.00311852       0.12951698      -0.25941749       0.03939089
H       16.88148468      17.30617948      26.04920986       0.06222581       0.13773029       0.00501879
O        6.93459891      18.70592752      10.13493232       0.12739071      -0.13353670       0.34566112
H        7.24066288      19.35908516       9.48211501       0.07819202      -0.21205160       0.14567036
H        6.63581483      17.96843400       9.57687349      -0.38211973      -0.18116543      -0.15642957
O       -0.62852389     -13.80861190      13.26168263      -0.63187933       0.25089847      -0.17454468
H       -1.42479580     -14.05171684      12.75843559      -0.24122167      -0.28354687       0.23516326
H       -0.17979534     -14.55460408      13.63544883       0.08174173      -0.62538074      -0.02207936
O        1.14902467       6.14420971       1.10120629      -0.43823562      -1.23313641       0.04914502
H        1.54988660       5.31730658       1.15477909       0.44527574      -0.76877928       0.31239923
H        0.95131836       6.36008697       0.16893583       0.24871063       0.54780007       0.45321097
O        3.11980932       1.32060500       8.36039350       1.72705291      -0.10714274       0.45203396
H        2.26844570       1.03379078       8.27146437      -0.71772113       0.22426232      -0.08967490
H        3.34017019       1.45482010       9.32339887       0.45623293      -0.41718471       0.20544819
O      -18.83525135      28.81060059     -16.15740422       0.25545858       0.83798081      -0.64727297
H      -18.71874485      28.95345095     -17.07269044      -0.26632342       0.66428107      -0.42450972
H      -18.19676316      28.33376854     -15.70085788       0.33364084      -0.11290571       0.86192355
O        2.88511954      26.87706898      -9.10973054       0.75470856      -0.25161527       1.27522307
H        3.68069495      26.93410226      -8.23390471      -0.86117261      -0.01027929      -1.13173009
H        2.20598163      26.19997811      -8.82764676      -0.25670164       0.31115997       0.21590946
O      -18.08051442      19.01824609       1.91762373      -1.23000324      -0.79225273       0.81435814
H      -17.38489438      18.84260392       1.22607378       0.64003659      -0.12307727      -0.45442199
H      -18.88801046      18.53301561       1.77456532      -0.70748127       0.05811544       0.36815310
O       11.70827720      17.57734363       7.06056895       0.52892050       0.14444818      -0.70266814
H       12.58302478      17.34255582       6.72178304       0.15131776      -0.06669606       0.19579447
H       11.24977394      18.26294704       6.57218910      -0.44323401      -0.11861749       0.05794527
O       -7.23074359     -11.21280137       5.18293777       0.19066201      -0.93490246      -0.84579182
H       -6.52239282     -11.29251039       4.51101954      -0.50397288       0.11802554       0.02570555
H       -7.40749540     -12.06219856       5.59562615      -0.17659518      -0.07870899       0.44303080
O      -24.13665978       3.41045132      10.69847767      -1.26209568      -1.45535314       0.21723398
H      -24.80737322       4.10868395      10.50067641      -0.38725450       0.05384013      -0.03744044
H      -23.35838795       3.71658061      10.31955335       0.49208268       0.11941154      -0.24969530
O      -11.43255587      -8.21521708      18.46720437       0.21542687      -1.37892372      -0.01854865
H      -10.66111578      -8.54134856      18.91318386      -0.45480802       0.01376701       0.00800031
H      -11.40206014      -8.32524409      17.54257687      -0.22567946       0.56111707       0.36430458
O        8.60483098       7.33583353      16.91793798      -1.52097408       0.32722650      -0.82483170
H        9.58106556       7.35886173      16.78455559       0.29570847       0.07364659       0.11146357
H        8.23001186       6.78858090      16.20786336      -0.20440594       0.26581446       0.13094452
O      -11.64643875      -0.48022737      20.42641521       0.47103193      -0.06732592       1.27607843
H      -12.51467489      -0.24507858      20.77799969       0.10084987       0.18481859      -0.16782926
H      -11.66322746      -0.54600912      19.48922535      -0.24799939      -0.09252384      -0.44824682
O       24.17068193       2.47075511      16.22724242      -0.97695052       0.64031529       0.18844191
H       23.90742722       2.51731830      17.14502786       0.26388353       0.06666186      -0.24648789
H       24.01427930       1.68981558      15.70973411       0.14220112      -0.28936348      -0.70964466
O       -5.67168307     -17.95788387      -5.02583434       0.28559764       0.35732968      -1.20325603
H       -4.71997150     -17.75521755      -4.78228899      -0.32117581      -0.32071500      -0.64067713
H       -5.82996269     -18.66543439      -5.58393874      -0.01069815       0.09229624       0.20791945
O       29.47438729      -8.98885670      -6.14756183      -1.71153601       0.18982115       0.10001369
H       30.22345775      -8.99153717      -6.75599238       0.54768328       0.18685179      -0.07313552
H       29.16623614      -9.85400476      -5.96301370      -0.20501275       0.60529193       0.06293554
O        8.81544413      -0.67299101       3.40905179      -0.02618388       0.66082154       0.56113488
H        8.28987803      -0.05755102       2.84883633       0.34274777       0.11099700      -0.17753397
H        8.29257154      -1.47577156       3.68930280       0.13894989      -0.25834972       0.01604694
O      -19.77806539      -3.16002785      24.76996247      -0.45103665       1.26045913      -0.41151267
H      -20.08596119      -3.92522817      24.29213574       0.05627345      -0.63800682      -0.27717024
H      -19.21907626      -3.37897887      25.53532599       0.52083314      -0.12145415       0.56115322
O        2.38643887      -5.80296406      -6.03871677       1.32107645       0.49027577       0.45909276
H        2.60962623      -5.57430976      -5.09770001      -0.17337490      -0.34301060      -0.44348668
H        1.87512740      -6.57877931      -6.24704346       0.29433927       0.50731819       0.09898026
O        9.84774423       8.28551478       7.95110304       0.86505599      -0.36025437       0.42699975
H       10.51783332       8.52028126       7.28956971      -0.20112393      -0.09560675      -0.24702486
H       10.17078387       7.50120470       8.42626827      -0.39032085      -0.09971535      -0.10694444
O        5.35722496       9.74787477      -4.82263295       0.18170623       0.12209184      -0.57123014
H        6.12656308       9.14715065      -4.78624353       0.51903143      -0.22635397      -0.09610217
H        4.80496425       9.69387866      -3.99797912      -0.00581062       0.13595737      -0.13342156
O       13.76539122      29.45773748      15.87449253      -0.75370083      -0.69598446       0.14941733
H       12.88969094      29.01040721      16.06696469       0.06558832       0.14866243      -0.19783457
H       14.39407689      28.75131275      15.90285392      -0.20232572      -0.17116495      -0.10740658
O       -2.80840830       3.97154743       1.69728520      -0.38933385       0.48092186       0.65084092
H       -2.25875165       3.59170670       2.30340675      -0.04401817      -0.30797396       0.01533826
H       -2.66343213       4.96718264       1.81030785      -0.06739622      -0.17000937      -0.22641697
O        7.81044612     -14.02266459      10.95788610       0.93341779       0.21292073      -0.18566067
H        6.95571637     -14.38170395      11.08896173      -0.90620875      -0.20517906      -0.12601155
H        8.16991577     -14.12781937      10.06506721       0.27331628      -0.42856867      -0.52814668
O       -2.45900849      10.55024058      24.35123398      -1.08602478      -0.44395106      -2.08211255
H       -2.04042740      10.10100289      23.56582270      -0.15739815       0.25429114       0.54880672
H       -3.22776412      11.19355726      24.28177958      -0.12475778       0.43526579       0.46825791
O       20.06210162      21.74417181       1.55620089      -0.46906136       0.38306479      -0.13754100
H       19.95854265      22.25011876       2.37716256      -0.12363777       0.68192947       0.41153473
H       19.77386050      20.79064536       1.38233721      -0.30473132      -0.23475207      -0.43261090
O       12.15961615      10.00744098     -15.91867000       0.47524476       0.54352898       1.03787392
H       12.68955266       9.30864575     -15.44988683       0.18413280      -0.30746197      -0.17351734
H       12.50055316      10.06069860     -16.89402752       0.40049653       0.20163226      -0.55523576
O      -11.40153205      22.26596590       1.06631512       0.48812346      -0.80710910       0.31944086
H      -11.70036277      21.41365379       1.12714102      -0.60338152      -0.34531207      -0.10476190
H      -10.82277087      22.55028847       1.80618820      -0.00768456       0.26821223      -0.08527426
O        2.94985644     -15.03517401      16.13024308      -0.29796574      -0.27792428      -1.05025019
H        3.26330294     -15.77532209      16.64588227      -0.24409907      -0.24863467       0.31328910
H        3.56443219     -14.34348085      16.01600484       0.00579717      -0.18905359       0.03318207
O        2.42603412      16.33725541       0.37134058      -1.11847965      -1.16167492      -0.05144834
H        1.92024259      16.17015175      -0.54731861      -0.13415218       0.54243113       0.43130017
H        2.95236049      15.56326509       0.64178150       0.34536085       0.28912524       0.14293731
O       -5.69019037      -7.29865635       5.59453681      -1.64435387      -1.39184498       0.45856830
H       -5.35088085      -7.98241639       6.25328630       0.15197027       0.61144713       0.05844282
H       -5.01737724      -6.75626559       5.17219876       0.25040167       0.15012661      -0.10331489
O       -2.16021195       2.39636206       6.64792647       0.39960429       0.09931497       0.52841994
H       -2.14374937       3.34184859       6.87192650      -0.38216719       0.48339795      -0.17363259
H       -1.81530115       1.75368881       7.50365404      -0.04770254      -0.04766012      -0.27989578
O       13.17452385      -5.48286162      -1.45731547       0.91782164      -0.96974878      -0.45532116
H       13.92388055      -5.20212157      -1.94422228      -0.20078946      -0.06004456       0.21264387
H       12.95027855      -6.36257700      -1.64826375      -0.00549166      -0.72542641       0.48437238
O       11.82351357       4.89154869      22.73681524      -0.00015954       0.22878520      -0.07637080
H       11.21920243       4.14558467      22.98862545      -0.15902072      -0.21506906      -0.04440100
H       11.95253411       4.83114378      21.75872274       0.22404459      -0.27256689       0.16818551
O        8.17462261      14.49046530      23.80857946      -1.23704194       0.34256541       1.15560465
H        9.03896384      14.95930063      23.88863632       0.12144790       0.01563904      -0.31419264
H        8.05749434      13.59915778      24.12985465      -0.16291799      -0.71629326       0.26288393
O       -8.08354197       7.01290323      11.41325433       0.67400255      -1.00181308       0.59140635
H       -7.34460991       6.58693463      10.99641566       0.10219523       0.26799461      -0.29601166
H       -8.34416538       6.27873824      12.01410925      -0.19558323       0.44715709       0.11347451
192
Lattice="12.747955375265358 0.0 0.0 -5.291125377899408e-07 12.747955375265358 0.0 -5.291125377899408e-07 -5.291125377899408e-07 12.747955375265358" Properties=species:S:1:pos:R:3:momenta:R:3 step=70 time_fs=7.0 phase=equilibration pbc="T T T"
O       11.62642943       0.72686467     -16.48798452       1.15028933      -0.00551483       0.68327297
H       12.15054105       0.98194930     -15.68776054       0.38912075       0.14685433      -0.27594249
H       10.85953932       0.13277152     -16.51680512       0.22345425      -0.03940926      -0.02237507
O       26.36857279      24.78904746       4.90663358      -0.00375346       0.30380456       1.61125221
H       26.74057441      23.87045497       4.65663250       0.16284171      -0.36301432      -0.02446794
H       25.57409408      25.10475665       4.48794921       0.16590963       0.23585488      -0.03563418
O        4.55269211      -0.31001737       6.62347548       0.03196321      -0.91384204      -1.01140400
H        5.04371063      -1.05843720       6.93611270       0.26724917       0.33092119      -0.45955143
H        4.20330490       0.19292407       7.38073437       0.18705368       0.12655277      -0.13663276
O       -2.85674136      -4.39155369       1.03289347       0.29202935       1.13377131       0.69669131
H       -2.60226730      -3.79339206       0.37583163       0.00132008      -0.31526195      -0.00000498
H       -3.66438635      -4.16277096       1.44496932      -0.35157968       0.24696469       0.07569141
O        4.28395838      15.87723020      10.72327226       1.10998502       1.23402800      -0.14013099
H        4.30285013      16.71847771      11.15266377       0.06276603      -0.21900819      -0.38073771
H        5.11116912      15.73894280      10.15639381      -0.24974791       0.02847381      -0.23185552
O       -1.38478209       6.61577521       5.14750664       0.37740080      -1.01628046      -0.36968900
H       -1.39279559       6.33359201       4.22227974      -0.53313254       0.09345167       0.38350876
H       -0.50485918       6.99598544       5.16316464       0.05061355       0.00679203       0.11254721
O       22.81892738      12.31816624       5.77951841       0.50746041       0.34149245       0.35741552
H       23.27261078      13.19575428       6.06848505       0.11966845      -0.06150416       0.17109517
H       22.29483441      12.26890821       4.92065102      -0.66691548      -0.29035516      -0.02437951
O       -1.04596226     -15.75573314       6.80353030      -0.58739418      -0.12254182      -0.62155174
H       -0.55257219     -16.07265715       6.03327497      -0.27557169       0.05844675       0.28540384
H       -1.44533218     -14.86419772       6.51667422      -0.32059458       0.68109256      -0.13332144
O       15.48287283     -17.90354465       9.68315494       0.27550852      -0.14319227       0.31046313
H       16.11262538     -18.46253893      10.23915126       0.14796057      -0.38681868       0.16307281
H       15.64629420     -16.93609926       9.53499491      -0.03161458      -0.12761449      -0.19568771
O        3.27714389     -14.65825954     -13.36611471       0.46710860       0.05821125      -0.91797483
H        4.20542034     -14.98672275     -13.21583973       0.41445827       0.26536866       0.05575429
H        2.59969298     -15.04833596     -12.81702237      -0.04657506      -0.34761382      -0.26384578
O       -5.75251147       1.59567105       2.85177800      -0.58593767       0.67469406       0.03534531
H       -6.46010169       1.12463578       2.33862418       0.22798594      -0.15801188       0.27413368
H       -5.36715910       2.43176474       2.58744264       0.21211596       0.35847018       0.33764832
O       -5.36384588      16.07310549      25.94875271      -0.47046483       1.05252376      -1.26704525
H       -5.37909056      15.48525130      25.17199744      -0.26206269       0.34501513      -0.28947266
H       -4.49805697      16.25023807      26.05157098       0.73254443      -0.24594479       0.37825737
O        7.46500299     -15.70083725      -8.48921564       0.15651399       0.76851166       2.20090109
H        7.93216353     -16.47738368      -8.23547903       0.48925217      -0.16396130      -0.00705161
H        6.67011387     -15.47466063      -8.01061969       0.63738571       0.26730060      -0.52260774
O       13.67320834       8.55663056      17.95862774      -0.18614280       0.46526915       0.15256135
H       14.06050079       8.71619221      17.02949486      -0.10503296      -0.02560793       0.17345648
H       14.25407513       7.91707049      18.45429063       0.00712556      -0.07249350       0.15182321
O       -0.15507093       1.20952194      -1.22168218      -0.00550972       0.99317337       0.58864351
H        0.82627543       1.43521721      -1.25783393      -0.04007484       0.05844096      -0.16969835
H       -0.38645225       0.36204205      -0.78036787      -0.57666399      -0.23007235      -0.15922076
O      -14.18000371      12.66286564      15.78632779       0.83842310       0.02765562      -1.19228627
H      -13.94003045      12.42306443      14.91839633       0.22217619       0.34016234       0.48583787
H      -14.99813545      12.19875212      16.08711071      -0.12154800      -0.32967505       0.19445222
O      -16.42063539       5.91258040      12.33291345       1.48632150      -0.31104969      -0.88447278
H      -16.96667152       5.93308903      11.53907958       0.37004136      -0.13489947       0.18074102
H      -16.10793358       6.88784877      12.36031728       0.03318547       1.04225960      -0.23040503
O       -9.95366597      32.92862273      -9.58505374      -0.25497344      -0.42199798      -0.37170163
H       -9.19338456      32.31645465      -9.33222845       0.26579816       0.20265395      -0.21299697
H      -10.76979360      32.48402581      -9.96206464      -0.65214894       0.19574162      -0.06791038
O       34.76110511      11.49326967      21.38737077       1.11331187      -0.87561331      -0.86128872
H       34.74120212      11.71994997      20.47462200      -0.09243609       0.52711811      -0.45039189
H       35.23726626      10.63726284      21.72464152       0.11366689       0.12541790       0.43249443
O       30.40068940     -12.66372367       2.15433839       0.49486925       0.99577318      -0.94312385
H       29.71998542     -12.14727091       2.53959131      -0.27106293       0.04916664       0.02970416
H       30.24909593     -12.59875678       1.24377807      -0.01046534       0.04962987       0.26301646
O       17.58786116       9.30364198      -7.43586534      -0.03899220      -0.44366383       0.09652781
H       17.44338733       8.31868696      -7.69717312      -0.44579705      -0.57725252      -0.42737758
H       17.41517033       9.53839864      -6.53199328       0.01095592       0.03682236      -0.24274237
O       -5.15090553       2.59199966      32.18799144       1.18776652      -0.75628876       0.31970562
H       -5.82738266       2.16157239      31.78028299      -0.00520637       0.05269559       0.48473879
H       -4.40688262       2.07637145      32.45790166       0.22704715       0.16722179       0.36942061
O        3.78452162       0.87039607      -0.23391097       1.74996047       0.96450453      -0.31125206
H        3.49471375      -0.03723441      -0.34441754      -0.10571980      -0.05153287      -0.15460487
H        4.16558837       1.03396236      -1.07466898       0.03344603      -0.37368002       0.28863207
O       23.22846968       3.22815807      11.66414741      -0.50743966      -0.11324498      -0.25859779
H       23.23903828       3.68035948      12.60421913       0.48865072       0.23008609       0.51760544
H       23.84468864       2.48438738      11.73321561      -0.25074023      -0.12891405       0.01513696
O       -1.43027521      31.82525144      15.02516140       0.90872704       0.74930402       0.63934087
H       -2.06796468      32.45018504      14.55812605      -0.30002705      -0.10921563       0.20456128
H       -0.56977014      31.88395749      14.58059397      -0.27489038      -0.32151919       0.51826721
O        4.82405804      19.39729411       5.21669724      -0.14245144       0.34987669       0.26435150
H        4.09586502      18.90426012       5.75587179      -0.34150042      -0.13135473       0.06412907
H        5.62974967      18.93176028       5.18969604      -0.19834488       0.01641741      -0.14758220
O      -10.15611054      10.50123302       9.48829037      -0.94521165       0.78132456       1.58595339
H      -10.73992851      10.83350481       8.74168218      -0.57521367      -0.02462761      -0.33287652
H      -10.46396059      10.81322745      10.31104675       0.42401698      -0.35330036      -0.14588531
O       17.69775078      17.75874052      26.16227717      -0.21955333       0.23012941      -1.43142941
H       18.52670444      17.24981908      26.00750152       0.07897754      -0.29549748       0.06529151
H       16.88170904      17.31524468      26.04882048      -0.05551483       0.05282114      -0.00325636
O        6.93507888      18.70440951      10.13654385       0.05848740      -0.26870318       0.24561570
H        7.24936802      19.34038344       9.49822562       0.10892186      -0.15434915       0.17615757
H        6.59872377      17.95149416       9.56663510      -0.36596518      -0.14017606      -0.03671881
O       -0.63250675     -13.80692334      13.26030178      -0.65599091       0.15133335      -0.17626535
H       -1.44580505     -14.08002848      12.78265555      -0.17364549      -0.29586301       0.27777237
H       -0.17253118     -14.61412201      13.63143193       0.04106164      -0.55170590      -0.07763300
O        1.14605969       6.13682696       1.10141862      -0.46881204      -1.23353024       0.06514067
H        1.59606663       5.23771049       1.18568945       0.45441367      -0.76464531       0.30549530
H        0.97608807       6.41599765       0.21291028       0.25865883       0.60001705       0.42889439
O        3.13114596       1.32021588       8.36358459       1.90041186      -0.04038726       0.64200024
H        2.18773651       1.05161529       8.26039273      -0.83591656       0.17154370      -0.11574185
H        3.38376782       1.41208715       9.33311850       0.42616840      -0.46041970      -0.02081009
O      -18.83381669      28.81532952     -16.16072434       0.15222766       0.85858303      -0.56673482
H      -18.74056684      29.01725223     -17.12075270      -0.19113663       0.63950208      -0.48916411
H      -18.15860789      28.31910105     -15.61383137       0.37806692      -0.12672580       0.86395909
O        2.89002591      26.87445580      -9.10056671       0.85965357      -0.41335373       1.62097486
H        3.58365980      26.93034469      -8.36015495      -1.11092872      -0.05187286      -1.43581009
H        2.19069603      26.24075715      -8.80890825      -0.06835378       0.52077762       0.16444523
O      -18.08674581      19.01297591       1.92179663      -0.93856924      -0.82158439       0.53755411
H      -17.33942606      18.83159347       1.19454818       0.26801247      -0.09105289      -0.17647938
H      -18.95638124      18.53893138       1.81018092      -0.66822754       0.09058224       0.36593516
O       11.71132508      17.57773989       7.05620747       0.53711319       0.10628865      -0.67810966
H       12.59663955      17.33903539       6.74003696       0.12681165       0.00330267       0.18297902
H       11.20881442      18.25099468       6.57571745      -0.38417796      -0.12727167       0.02323832
O       -7.22955348     -11.21815202       5.17771845       0.11753392      -0.89226966      -0.77981566
H       -6.57060995     -11.28325123       4.50918453      -0.45483876       0.06289120      -0.08955402
H       -7.42308087     -12.06899309       5.63623753      -0.14005382      -0.04511206       0.37887141
O      -24.14465946       3.40173655      10.69953373      -1.43378501      -1.30982164       0.15264514
H      -24.84225551       4.11004037      10.49828412      -0.30247340      -0.04863501      -0.00285567
H      -23.30281226       3.72924790      10.29130288       0.53664870       0.11243476      -0.28131092
O      -11.43163462      -8.22319926      18.46736274      -0.01360358      -1.26282984       0.20202811
H      -10.69442098      -8.54525392      18.91945265      -0.20922388      -0.10700635       0.14292910
H      -11.42463898      -8.26909307      17.56523205      -0.24283849       0.58746159       0.08147866
O        8.59584794       7.33763427      16.91240591      -1.32986423       0.32343221      -0.84597880
H        9.59739950       7.36597803      16.79835702       0.03112757       0.07305397       0.17665259
H        8.21023422       6.81623921      16.21804978      -0.20612302       0.28931761       0.06649002
O      -11.64330437      -0.48069062      20.43398855       0.47493180      -0.09199018       1.26575052
H      -12.50537356      -0.22513104      20.76143163       0.08233269       0.22533691      -0.16298074
H      -11.68683183      -0.55527382      19.44220835      -0.23971368      -0.09374269      -0.44829264
O       24.16430325       2.47484024      16.22763943      -0.94400738       0.65121953      -0.02172618
H       23.93023848       2.52224461      17.12663019       0.20640319       0.03458880      -0.09420676
H       24.02764202       1.66045030      15.64271721       0.15112700      -0.25451350      -0.61625237
O       -5.66919736     -17.95448118      -5.03250247       0.42304153       0.62352393      -1.01672920
H       -4.75727758     -17.78493853      -4.84744689      -0.37757232      -0.27965616      -0.68000203
H       -5.83534403     -18.66752378      -5.57291803      -0.10759496      -0.14999447       0.01156692
O       29.46372532      -8.98671278      -6.14733756      -1.51403239       0.47534529      -0.10642733
H       30.27068600      -8.97382624      -6.75841805       0.38947761       0.17093241       0.05374012
H       29.14256932      -9.80647237      -5.95300578      -0.27591495       0.34294469       0.14638897
O        8.81451172      -0.66905065       3.41208634      -0.21112166       0.60951637       0.45394870
H        8.32606492      -0.05252601       2.83819281       0.39076198      -0.00250592      -0.04491044
H        8.30899232      -1.49345000       3.68870913       0.20028838      -0.09998232      -0.02924060
O      -19.78038616      -3.15252004      24.76722958      -0.43244849       1.09357341      -0.31817391
H      -20.07701235      -3.98367184      24.26815618       0.14295320      -0.49813657      -0.16416284
H      -19.17348322      -3.38728334      25.58231974       0.37582957      -0.03967595       0.37515689
O        2.39505728      -5.79908208      -6.03570153       1.51309326       0.75783741       0.43545731
H        2.59224667      -5.61056363      -5.14203867      -0.16870676      -0.39085876      -0.41198914
H        1.89619468      -6.54114591      -6.23837424       0.11411744       0.22118739       0.06598571
O        9.85305506       8.28305487       7.95366098       0.91577301      -0.36585477       0.45003608
H       10.49537616       8.51079942       7.26737447      -0.24992554      -0.09493919      -0.20731811
H       10.13292156       7.49340795       8.41456482      -0.37127457      -0.07576038      -0.11892937
O        5.35832426       9.74799358      -4.82563168       0.24402607      -0.03468408      -0.44898306
H        6.16933924       9.12973395      -4.79513771       0.33407652      -0.10821352      -0.08834640
H        4.80986736       9.70712402      -4.01974087       0.10141766       0.13793940      -0.30261882
O       13.75987836      29.45277069      15.87512690      -0.92560388      -0.72364240       0.15884939
H       12.89779358      29.02870980      16.04462651       0.08508046       0.23020854      -0.24907098
H       14.38131334      28.72920986      15.89200346      -0.05834324      -0.26232555      -0.11011116
O       -2.81123941       3.97555751       1.70054249      -0.54376351       0.81364811       0.42634625
H       -2.25121053       3.54992351       2.31609556       0.18408252      -0.53446849       0.23139904
H       -2.67131854       4.94230061       1.78517871      -0.08866505      -0.31513853      -0.28206090
O        7.81624990     -14.02112657      10.95621379       0.92621344       0.14801691      -0.31430084
H        6.86881876     -14.39975725      11.07515854      -0.77148128      -0.13074346      -0.16735554
H        8.19071032     -14.16793990      10.02050353       0.13731737      -0.39237227      -0.33886399
O       -2.46598620      10.54767978      24.33786943      -1.25051593      -0.27130816      -2.03407600
H       -2.05826907      10.12854247      23.62207388      -0.17369727       0.27553294       0.54645773
H       -3.23247260      11.22642135      24.32496327       0.03407061       0.23165957       0.42004328
O       20.05850528      21.74544481       1.55540745      -0.57679150       0.20067469      -0.06619980
H       19.94564596      22.31011954       2.40953138      -0.12579342       0.52406127       0.20396524
H       19.74723576      20.78169906       1.34678565      -0.23097044       0.06469243      -0.29001124
O       12.16303680      10.01013523     -15.91263875       0.72462335       0.39450553       0.82408499
H       12.70059519       9.28818795     -15.47449860       0.04278509      -0.10210505      -0.33970291
H       12.53185721      10.07755379     -16.93091451       0.24435093       0.14552211      -0.21104521
O      -11.39783459      22.26143752       1.06828990       0.61692826      -0.57881161       0.33073085
H      -11.76371707      21.36618792       1.11825025      -0.67314919      -0.54962648      -0.07779852
H      -10.82422440      22.57398982       1.79724504      -0.03094566       0.22050793      -0.09987104
O        2.94721331     -15.03712333      16.12343184      -0.52808471      -0.48370880      -1.04147758
H        3.24089334     -15.79940523      16.67670110      -0.22616412      -0.21683800       0.30194501
H        3.57366292     -14.35408612      16.01779980       0.18128382      -0.03951127       0.01084636
O        2.41892413      16.32946773       0.37029563      -1.18066525      -1.25581053      -0.27072209
H        1.91487510      16.22458971      -0.48804731       0.01950553       0.57468023       0.76755822
H        2.98140875      15.59306047       0.65386445       0.25077667       0.32528410       0.10422360
O       -5.70002854      -7.30750523       5.59749509      -1.58170338      -1.49520359       0.50704508
H       -5.33738035      -7.91629261       6.25350262       0.13044203       0.71508467      -0.03036096
H       -4.99188895      -6.74378686       5.16622431       0.24557413       0.08675851      -0.00578043
O       -2.15747961       2.39668130       6.65179450       0.47453810       0.06231774       0.77958304
H       -2.18007287       3.38048517       6.85391095      -0.36080992       0.26895586      -0.20138030
H       -1.82329036       1.75940658       7.46555734      -0.11659306       0.16593545      -0.49550206
O       13.17943367      -5.48860168      -1.45935233       0.74019902      -1.00712661      -0.22500444
H       13.91550370      -5.20511322      -1.93147102       0.03839141      -0.00932975       0.04417834
H       12.94751303      -6.44013450      -1.60366480      -0.02166503      -0.78967853       0.43993218
O       11.82299822       4.89227272      22.73563711      -0.09713279       0.03379078      -0.13941553
H       11.20857764       4.13257555      22.98227472      -0.05060150      -0.04463024      -0.07569404
H       11.97385047       4.80602791      21.78008210       0.22121599      -0.24069246       0.26160285
O        8.16707606      14.49232213      23.81534334      -1.17041444       0.30118383       1.22291670
H        9.04326725      14.95514083      23.85717066      -0.03515222      -0.10035824      -0.31989145
H        8.04356723      13.53530719      24.15262384      -0.11046155      -0.52658320       0.19229072
O       -8.07950887       7.00639359      11.41697693       0.60877525      -1.05289242       0.66742209
H       -7.32612805       6.61306671      10.95989649       0.25329219       0.27270354      -0.43335936
H       -8.36640498       6.32392183      12.02780768      -0.26482788       0.45966600       0.18423765
192
Lattice="12.747592304364309 0.0 0.0 -5.290974682858363e-07 12.747592304364309 0.0 -5.290974682858363e-07 -5.290974682858363e-07 12.747592304364309" Properties=species:S:1:pos:R:3:momenta:R:3 step=80 time_fs=8.0 phase=equilibration pbc="T T T"
O       11.63335936       0.72685678     -16.48329512       1.22326729       0.01534622       0.67911240
H       12.18224535       0.99208628     -15.71809024       0.27510384       0.06501014      -0.34129352
H       10.88370848       0.13115396     -16.51570033       0.26543296      -0.00359976       0.03615040
O       26.36838144      24.78898907       4.91653848       0.18753740      -0.10184449       1.65559738
H       26.74759148      23.85131177       4.65800971      -0.00687734      -0.00477076       0.05784767
H       25.58650475      25.12657282       4.48091796       0.10652100       0.22480751      -0.10530120
O        4.55233123      -0.31536280       6.61679666      -0.11998354      -0.81888219      -1.11038332
H        5.07495836      -1.03271439       6.89550690       0.38735164       0.18358484      -0.36261698
H        4.21941900       0.20687005       7.37095286       0.14788861       0.15900858      -0.05856203
O       -2.85469830      -4.38512518       1.03761919       0.29339851       0.93400352       0.88021805
H       -2.59721180      -3.81526288       0.36451195       0.09867166      -0.13459871      -0.23097259
H       -3.70434232      -4.13511732       1.45549898      -0.41193428       0.30284543       0.11087366
O        4.29123076      15.88364738      10.72141604       1.27877347       0.97695298      -0.36718880
H        4.31131929      16.70689275      11.11954938       0.11212111       0.02250849      -0.27562447
H        5.07781906      15.74307339      10.14040806      -0.41103633       0.06024738      -0.10452178
O       -1.38226752       6.60942807       5.14535253       0.43970765      -0.97531468      -0.24544329
H       -1.44718486       6.33886825       4.25225015      -0.58632151       0.00632820       0.19710617
H       -0.49668038       6.99868234       5.17745658       0.10948256       0.04961262       0.18272727
O       22.82152642      12.32055875       5.78112411       0.54283534       0.54626659       0.21278381
H       23.27373238      13.17596994       6.07808771      -0.08517291      -0.33737937       0.02629278
H       22.23705987      12.24345295       4.93566847      -0.49316708      -0.22049487       0.34511461
O       -1.04998273     -15.75489255       6.79945891      -0.75604915       0.27059826      -0.60655962
H       -0.57644830     -16.06750378       6.05798847      -0.19577133       0.02818457       0.19201724
H       -1.47057609     -14.81168838       6.50704251      -0.19464642       0.37946971      -0.06234547
O       15.48449816     -17.90379588       9.68520447       0.39909188      -0.12568540       0.45300773
H       16.11815105     -18.48882342      10.24699790      -0.02975299      -0.15557226      -0.00034367
H       15.64314158     -16.95733114       9.51957220      -0.01950786      -0.30317021      -0.11639110
O        3.28053860     -14.65767294     -13.37128024       0.67231599      -0.00990433      -0.87943171
H        4.23725442     -14.95856263     -13.21133904       0.22880621       0.30478608       0.02734927
H        2.59455618     -15.08298372     -12.84276143      -0.04697209      -0.36643105      -0.27837582
O       -5.75615152       1.59949149       2.85206141      -0.61762545       0.62598836       0.09288134
H       -6.43110712       1.11538099       2.36657921       0.34266117      -0.04349598       0.28410753
H       -5.34968349       2.46429185       2.61809291       0.12827077       0.28133616       0.29840377
O       -5.36748960      16.07888070      25.93989398      -0.66631421       0.99454552      -1.36834624
H       -5.40791456      15.51828642      25.14195590      -0.32200439       0.35363594      -0.29688799
H       -4.41079228      16.22991845      26.09368063       0.94690635      -0.18727168       0.47884055
O        7.46626907     -15.69560153      -8.47591125       0.39862048       0.73829025       2.03978524
H        7.98035504     -16.49669062      -8.23491389       0.47581937      -0.20046966       0.00179983
H        6.72274979     -15.44672826      -8.05524564       0.40278501       0.31038129      -0.37163108
O       13.67244986       8.55900670      17.95825737       0.04997974       0.38412553      -0.07496993
H       14.04267522       8.71160244      17.06425801      -0.23831012      -0.05744280       0.51528007
H       14.24550236       7.91897568      18.46283994      -0.17095021       0.11225672       0.03719538
O       -0.15473964       1.21542201      -1.21789277       0.09364865       0.92860104       0.63939929
H        0.80976732       1.43483927      -1.27282819      -0.28900448      -0.06728607      -0.13752543
H       -0.43606080       0.34770073      -0.80113948      -0.43267523      -0.05098803      -0.27388812
O      -14.17519450      12.66262859      15.77963366       0.56652886       0.00545895      -0.80840539
H      -13.91247152      12.45214804      14.95046984       0.34351874       0.25553573       0.15750082
H      -14.99770367      12.17007533      16.10227355       0.14649906      -0.23719805       0.11858403
O      -16.41050999       5.91147862      12.32731404       1.68413051       0.01503294      -0.79158152
H      -16.93250595       5.91839624      11.55270604       0.30392705      -0.15622414       0.07806168
H      -16.10811387       6.97391208      12.33801266      -0.05487940       0.71049173      -0.22227930
O       -9.95499169      32.92423557      -9.58718264      -0.28766495      -0.69487648      -0.41575954
H       -9.18026540      32.34424829      -9.35673099       0.00394626       0.37791733      -0.29120722
H      -10.81921805      32.50738622      -9.96444553      -0.35722937       0.30294365       0.01511546
O       34.76762811      11.48629882      21.38232478       1.32158997      -1.24576381      -0.66339675
H       34.73264557      11.76896273      20.42873088      -0.05968738       0.46390471      -0.40698230
H       35.23814468      10.66973448      21.75249143      -0.06088549       0.52402776       0.15593335
O       30.40329439     -12.65737117       2.14948389       0.60474905       0.97936484      -0.60237270
H       29.68451244     -12.13784824       2.55202457      -0.40731343       0.11176317       0.20520992
H       30.24668658     -12.59407823       1.24399859      -0.02142671       0.03901418      -0.25263827
O       17.58698719       9.29948874      -7.43574118      -0.08341299      -0.83468539      -0.15042632
H       17.40340908       8.27788607      -7.73176155      -0.36118339      -0.24921814      -0.28203309
H       17.41646690       9.54274957      -6.54980794       0.02140644       0.06443099      -0.10698950
O       -5.14293949       2.58842022      32.18948738       1.37636729      -0.39541539       0.46943358
H       -5.84228900       2.15693551      31.81937862      -0.29982641      -0.14753454       0.34171363
H       -4.37836421       2.08740769      32.49585585       0.33239101       0.07274374       0.41923336
O        3.79492681       0.87618981      -0.23505232       1.65581873       0.89474407      -0.05246487
H        3.47988714      -0.04919905      -0.35651459      -0.18573066      -0.16047269      -0.08928378
H        4.17743820       1.00548777      -1.06165239       0.21970716      -0.20728190      -0.03802371
O       23.22480427       3.22772131      11.66333159      -0.47429833       0.00712097       0.10056361
H       23.28477903       3.69618893      12.63965663       0.46188689       0.09641605       0.21645580
H       23.81822329       2.47251497      11.73354023      -0.27202269      -0.11912173      -0.00078405
O       -1.42531255      31.82931277      15.02853862       0.64731817       0.86305642       0.62947204
H       -2.08931136      32.43432398      14.58206482      -0.13940336      -0.19164703       0.29081602
H       -0.59096953      31.85156693      14.62882915      -0.11364977      -0.32134147       0.45499709
O        4.82154762      19.39884000       5.21876057      -0.63735470       0.33526262       0.45680760
H        4.07645809      18.89912998       5.75337448      -0.05065598       0.03784628      -0.11325600
H        5.61761383      18.92703071       5.17450064      -0.04319132      -0.10728099      -0.16095385
O      -10.16183018      10.50567219       9.49634007      -1.01576950       0.75702346       1.07978213
H      -10.78824776      10.82697837       8.71912105      -0.40939784      -0.10659011      -0.10560469
H      -10.42583238      10.78229590      10.30837479       0.34249102      -0.26540839       0.12158156
O       17.69677415      17.75987493      26.15258968       0.06874893       0.29108541      -1.48319998
H       18.52721118      17.22170449      26.01498639      -0.06826026      -0.26378043       0.10385147
H       16.87008639      17.31578692      26.04724040      -0.16489882      -0.02667136      -0.01339880
O        6.93481754      18.70143362      10.13751070      -0.08910682      -0.54184715       0.16898950
H        7.26252639      19.32951439       9.51362493       0.16891747      -0.05389182       0.13623581
H        6.56579708      17.94269301       9.57070779      -0.29911623      -0.02184319       0.12892272
O       -0.63650196     -13.80644260      13.25890293      -0.65054525      -0.13217999      -0.15714035
H       -1.45648550     -14.10763110      12.81319805      -0.04386293      -0.27594145       0.35771667
H       -0.17393438     -14.65660494      13.61780642      -0.07113924      -0.32182576      -0.19466186
O        1.14360533       6.12799644       1.10237347      -0.31182552      -1.60218274       0.28014117
H        1.63316066       5.17832946       1.21211102       0.30386022      -0.44413399       0.23267773
H        1.00097607       6.47751554       0.24785266       0.24966408       0.67304740       0.26876427
O        3.14222523       1.31980579       8.36785753       1.71560517      -0.08714371       0.81740122
H        2.11938625       1.07042755       8.25057407      -0.54209941       0.21684198      -0.07750864
H        3.42161398       1.36536725       9.31692776       0.35201631      -0.49329197      -0.29888474
O      -18.83200126      28.81957430     -16.16390776       0.27219653       0.79545111      -0.63852805
H      -18.75511368      29.07323264     -17.15450333      -0.11540844       0.51367742      -0.17807322
H      -18.13001445      28.31374111     -15.53918723       0.18498230       0.04424237       0.63994939
O        2.89486868      26.87079030      -9.09047454       0.60085409      -0.52297309       1.40209356
H        3.48029276      26.92499231      -8.49674815      -0.81071604      -0.01371280      -1.19147770
H        2.18704749      26.29547916      -8.79476225      -0.05730704       0.58091506       0.12341786
O      -18.09155554      19.00704762       1.92411211      -0.81819752      -0.94121107       0.23666780
H      -17.33183574      18.82386603       1.19137509      -0.12102695      -0.05743493       0.10978913
H      -19.01104232      18.55289370       1.84603998      -0.44186388       0.21614399       0.37005478
O       11.71423764      17.57785463       7.05183762       0.51400896       0.09714916      -0.68268467
H       12.60637550      17.34251484       6.75719571       0.07920675       0.07838422       0.17241237
H       11.17579514      18.23599642       6.57735375      -0.28112729      -0.17379177       0.01719559
O       -7.22918626     -11.22331123       5.17347405      -0.07619526      -0.89671419      -0.53856721
H       -6.60678111     -11.28033164       4.48955176      -0.28326525      -0.01177881      -0.31941617
H       -7.43376802     -12.06748823       5.66698871      -0.08196685       0.07752644       0.24775852
O      -24.15251552       3.39461735      10.69946404      -1.34037711      -0.96585083      -0.08481327
H      -24.86084321       4.09611586      10.50028998      -0.08217482      -0.24197529       0.05257256
H      -23.26536573       3.73410546      10.27018540       0.20103191      -0.01715719      -0.13591604
O      -11.43223617      -8.23028638      18.46883941      -0.27989518      -1.12641213       0.44757239
H      -10.70039627      -8.56213159      18.94018253       0.07025511      -0.23911768       0.28264038
H      -11.44855595      -8.21028205      17.55644176      -0.25197665       0.61463597      -0.23911936
O        8.58818981       7.33961094      16.90694956      -1.08601909       0.39676577      -0.76202331
H        9.58635372       7.37240791      16.81758619      -0.24607025       0.06189894       0.22394785
H        8.18788114       6.84202018      16.21703225      -0.25328504       0.23509575      -0.08681834
O      -11.64003115      -0.48137943      20.44049870       0.48430002      -0.13976810       1.02694238
H      -12.49855337      -0.20095727      20.74529579       0.04695656       0.27196261      -0.15527696
H      -11.70900180      -0.56362667      19.40852962      -0.22041965      -0.07592178      -0.21262517
O       24.15790504       2.47819019      16.22558120      -0.91579285       0.45169630      -0.51794276
H       23.94550689       2.52364384      17.12992827       0.11951492      -0.00671639       0.17947775
H       24.04340893       1.64756341      15.59499848       0.18587372       0.00472667      -0.33911448
O       -5.66690901     -17.94958704      -5.03829563       0.23327240       0.77848696      -0.93667560
H       -4.78130635     -17.80576280      -4.91191444      -0.08084109      -0.14798780      -0.64024261
H       -5.85161231     -18.69294797      -5.58046390      -0.23101002      -0.36505788      -0.15453056
O       29.45473597      -8.98241655      -6.14881679      -1.13189769       0.84173116      -0.43632596
H       30.29272468      -8.95814211      -6.74182504       0.07004149       0.14336287       0.28679981
H       29.11036303      -9.78872977      -5.93352619      -0.36744867       0.01749829       0.24979897
O        8.81261845      -0.66561151       3.41457682      -0.30198031       0.49296624       0.40309128
H        8.36225762      -0.05563786       2.83764928       0.33729830      -0.04381768       0.01868051
H        8.33029127      -1.49531583       3.68321998       0.23351814       0.05345754      -0.07996876
O      -19.78242642      -3.14680312      24.76475121      -0.41531309       0.73186046      -0.26564755
H      -20.05523270      -4.01601273      24.26261328       0.29382146      -0.15618519       0.07050380
H      -19.14728522      -3.38581859      25.60471916       0.14693440       0.06888848       0.09727256
O        2.40486498      -5.79335652      -6.03356343       1.69127910       1.04074804       0.17260004
H        2.57894681      -5.64818591      -5.16922126      -0.09248140      -0.37608101      -0.11446686
H        1.89547942      -6.53837759      -6.23513641      -0.12542661      -0.16510829      -0.00691243
O        9.85834884       8.28083859       7.95618367       0.88886082      -0.26668742       0.44539433
H       10.46980331       8.50148667       7.24814748      -0.26288187      -0.09092102      -0.18694233
H       10.09964683       7.48294550       8.40437474      -0.29994788      -0.14526624      -0.08022315
O        5.36034196       9.74690939      -4.82825451       0.49433399      -0.22892410      -0.48675302
H        6.18853709       9.12748792      -4.80313502       0.05605587       0.07174224      -0.07786940
H        4.82089632       9.71984271      -4.05123642       0.10264925       0.12644061      -0.30901285
O       13.75376452      29.44741448      15.87562476      -0.90187512      -0.75203569       0.14727018
H       12.90166761      29.05192069      16.01866254      -0.01605029       0.25286769      -0.26991514
H       14.37976254      28.70134939      15.88040330       0.01847498      -0.27699461      -0.11962478
O       -2.81471314       3.98059465       1.70270604      -0.58223850       0.78375687       0.33399182
H       -2.22840627       3.49257750       2.34231299       0.23791931      -0.59965132       0.25949920
H       -2.67896884       4.91202889       1.75653825      -0.06128725      -0.26464809      -0.29898013
O        7.82115405     -14.02034850      10.95332915       0.74945456      -0.02403432      -0.52920629
H        6.81151302     -14.40443316      11.05514718      -0.40106086       0.02278791      -0.23565171
H        8.19414776     -14.20258364      10.00228276      -0.06956440      -0.32388547      -0.02181255
O       -2.47469237      10.54685430      24.32586266      -1.62749775       0.12037595      -1.60277343
H       -2.06826400      10.14812565      23.66008648      -0.00980206       0.11009028       0.20489154
H       -3.22021577      11.23651805      24.36089843       0.21061812      -0.01767161       0.32390545
O       20.05402600      21.74569750       1.55548755      -0.69558520       0.08561869       0.10498585
H       19.93353325      22.34816392       2.41328467      -0.11146948       0.26533215      -0.12603488
H       19.72811143      20.80263193       1.32691066      -0.14962763       0.37623663      -0.11193401
O       12.16787074      10.01184837     -15.90778978       0.94990573       0.27236511       0.59909174
H       12.69783223       9.28755937     -15.51445022      -0.08024776       0.07868094      -0.47802022
H       12.54738763      10.08815266     -16.93513280       0.08090227       0.07648650       0.11220045
O      -11.39376841      22.25696028       1.07035723       0.57843879      -0.71582642       0.35239951
H      -11.82427011      21.32065243       1.11176218      -0.55080885      -0.32214904      -0.05394647
H      -10.82926162      22.59086149       1.78579933      -0.08133869       0.13415753      -0.13581156
O        2.94345030     -15.04055369      16.11687823      -0.64985297      -0.76982221      -0.93385779
H        3.21754740     -15.81133707      16.70002928      -0.25443795      -0.02023123       0.17345754
H        3.59758919     -14.35266869      16.01781255       0.29438105       0.04104305       0.00251473
O        2.41164339      16.32129990       0.36859142      -1.13439311      -1.22829894      -0.20639420
H        1.91894238      16.27945991      -0.40770299       0.02106925       0.55140901       0.80177762
H        3.00169667      15.62415246       0.66227791       0.17463971       0.30788951       0.07159265
O       -5.70930425      -7.31609467       5.59997403      -1.49599643      -1.33137181       0.31340998
H       -5.32228580      -7.84952371       6.25336735       0.19251418       0.61828911       0.06434786
H       -4.97300956      -6.74125464       5.17215233       0.12388254      -0.04609716       0.13344223
O       -2.15431192       2.39727233       6.65714244       0.53417946       0.15880346       1.01502659
H       -2.21311782       3.39005274       6.83194245      -0.31425467      -0.07429688      -0.24315806
H       -1.83789951       1.78614711       7.40751317      -0.18408083       0.38447252      -0.68588804
O       13.18277863      -5.49568490      -1.46010385       0.47126858      -1.38241951      -0.03957093
H       13.92984929      -5.20498596      -1.93514278       0.25265942       0.00121746      -0.11353955
H       12.94918551      -6.50291279      -1.56155558       0.07453153      -0.46154331       0.42137125
O       11.82169275       4.89173495      22.73427001      -0.21963098      -0.15740629      -0.07282248
H       11.20868323       4.13673512      22.97321568       0.05435509       0.12733497      -0.09241831
H       11.99603413       4.78395617      21.80406817       0.24779004      -0.20992944       0.21763980
O        8.15979562      14.49322196      23.82249538      -1.13782771       0.11617524       1.32890528
H        9.03176694      14.93842158      23.82533686      -0.18430437      -0.23157341      -0.31873214
H        8.03633997      13.49996866      24.16472849      -0.03167699      -0.18621575       0.06858984
O       -8.07536071       6.99976592      11.42054927       0.69154579      -1.03745642       0.57817288
H       -7.30081518       6.64025616      10.91608489       0.23000633       0.29154342      -0.43306593
H       -8.39439806       6.36508771      12.04995813      -0.30673098       0.38134238       0.27399670
192
Lattice="12.747107255676235 0.0 0.0 -5.290773360109152e-07 12.747107255676235 0.0 -5.290773360109152e-07 -5.290773360109152e-07 12.747107255676235" Properties=species:S:1:pos:R:3:momenta:R:3 step=90 time_fs=9.0 phase=equilibration pbc="T T T"
O       11.64074042       0.72705840     -16.47873788       1.32665837       0.06240393       0.58304809
H       12.20532613       0.99554104     -15.74969583       0.22105875       0.01302987      -0.29967659
H       10.90767382       0.12987637     -16.50860896       0.22111096      -0.03255741       0.09586927
O       26.36898493      24.78624623       4.92654741       0.31344901      -0.46194956       1.65801838
H       26.73785963      23.86759667       4.66732555      -0.16490130       0.34350183       0.13235095
H       25.59517652      25.14603401       4.46809584       0.10732716       0.18689094      -0.14548761
O        4.55082637      -0.31998390       6.60944532      -0.31463602      -0.69054607      -1.18980599
H        5.11930107      -1.02261405       6.86529542       0.52070225       0.03374349      -0.25503579
H        4.23302263       0.22264230       7.36754149       0.14298154       0.15434376      -0.01783711
O       -2.85351882      -4.37955074       1.04384944       0.02891684       0.84948662       1.16260926
H       -2.58381198      -3.82034269       0.33248366       0.16715903       0.01560901      -0.40979811
H       -3.73383853      -4.10643275       1.46108975      -0.16034304       0.27129100      -0.01307109
O        4.29900173      15.88808099      10.71824619       1.26845978       0.67286162      -0.50225393
H        4.32413922      16.72452201      11.09971011       0.15363902       0.35156887      -0.12290342
H        5.03661652      15.74807526      10.13083596      -0.39381780       0.04562951      -0.11368562
O       -1.37911389       6.60347550       5.14437304       0.58498091      -0.87746143      -0.00899317
H       -1.50703362       6.33353852       4.25758832      -0.63877577      -0.10728592      -0.07824078
H       -0.48603468       7.00399567       5.19774403       0.09067080       0.05567459       0.23024275
O       22.82397166      12.32384862       5.78175502       0.51953593       0.63795572       0.06371406
H       23.25556177      13.13155034       6.07373590      -0.24935031      -0.52520198      -0.09723511
H       22.19797268      12.22546557       4.98655163      -0.29567264      -0.14025312       0.68619105
O       -1.05528314     -15.75133089       6.79588833      -0.98555783       0.69124000      -0.46311795
H       -0.58877197     -16.06711871       6.06694089      -0.05413093      -0.03525241      -0.00972434
H       -1.48361281     -14.78847267       6.50333706      -0.07726945       0.09087806      -0.01155088
O       15.48669144     -17.90426756       9.68813373       0.49713268      -0.28353090       0.62409834
H       16.10576533     -18.49098813      10.23824388      -0.20603217       0.09410464      -0.16767838
H       15.64274548     -16.98854404       9.51082688       0.03160022      -0.31367541      -0.06259532
O        3.28513790     -14.65746115     -13.37593570       0.85832459      -0.10512165      -0.79808995
H        4.24857379     -14.92655003     -13.20976420       0.00631094       0.33787074      -0.00534221
H        2.59220234     -15.11757392     -12.87145354       0.00853374      -0.34939964      -0.32412704
O       -5.75929660       1.60366075       2.85290529      -0.44628513       0.77836724       0.23586220
H       -6.39787366       1.11298003       2.39010857       0.30505964      -0.02361634       0.17942696
H       -5.34361371       2.48292614       2.64578080      -0.01221640       0.09495143       0.27087671
O       -5.37082093      16.08432299      25.93031135      -0.46031129       0.98265480      -1.41897967
H       -5.43917714      15.55551505      25.11609237      -0.31536197       0.42421086      -0.20863188
H       -4.32873627      16.20944159      26.13906220       0.70061368      -0.22536582       0.46007396
O        7.47021902     -15.69134173      -8.46375276       1.02602682       0.41918490       1.80765890
H        8.01871321     -16.50771596      -8.23663735       0.29450747      -0.01039824      -0.04951714
H        6.74058483     -15.41068177      -8.07825327      -0.05679378       0.42596444      -0.09343705
O       13.67248341       8.56073736      17.95724683       0.08435242       0.28733560       0.03489622
H       14.01851878       8.70687149      17.11529746      -0.21425096      -0.01607101       0.46083302
H       14.22171360       7.93617948      18.46217823      -0.28934870       0.22608019      -0.01701251
O       -0.15428613       1.22078449      -1.21373785       0.00797677       0.83141797       0.69830805
H        0.77480919       1.42244566      -1.28462627      -0.38556022      -0.17891989      -0.10779605
H       -0.46990850       0.35245906      -0.83379491      -0.26212274       0.14319723      -0.39333161
O      -14.17224127      12.66204683      15.77551581       0.22598418      -0.03850754      -0.34412429
H      -13.87133095      12.47135592      14.94637376       0.48929735       0.14964013      -0.22350068
H      -14.96714974      12.15299490      16.10861435       0.46067424      -0.10463897       0.02554791
O      -16.39869626       5.91236115      12.32266195       1.96415639       0.33992621      -0.55896672
H      -16.90872716       5.90342357      11.54984089       0.16407678      -0.14259095      -0.13688196
H      -16.11844306       7.02455804      12.31608526      -0.17069146       0.33619614      -0.21708857
O       -9.95689725      32.91817142      -9.58961116      -0.49926695      -0.83745796      -0.50457370
H       -9.18781787      32.38397802      -9.38684403      -0.12892413       0.43157951      -0.32295091
H      -10.83738870      32.54041609      -9.95837588      -0.01952109       0.39638256       0.10195388
O       34.77473975      11.47790371      21.37697693       1.38983507      -1.27708513      -0.86076441
H       34.72800289      11.80602308      20.40401165      -0.00544687       0.29594906      -0.06426850
H       35.22760568      10.73078549      21.75634045      -0.09242597       0.67562752      -0.03215849
O       30.40564519     -12.65054527       2.14672689       0.50400869       1.10812322      -0.30420699
H       29.64611651     -12.13019943       2.57333983      -0.32214614       0.01092706       0.19871175
H       30.24312917     -12.58994566       1.20142356      -0.02523574       0.03896102      -0.55294168
O       17.58565789       9.29275459      -7.43735015      -0.13377314      -1.24246606      -0.46537034
H       17.37217577       8.26962179      -7.75122251      -0.26486345       0.08694142      -0.12238341
H       17.41778310       9.55090022      -6.55094012       0.01940457       0.11023434       0.07589660
O       -5.13352437       2.58668138      32.19161540       1.62503676      -0.17404147       0.61801049
H       -5.88186851       2.13419335      31.84711187      -0.48334718      -0.29984916       0.27050269
H       -4.34791431       2.09370553      32.53484109       0.25530565       0.07602771       0.39124150
O        3.80447729       0.88093065      -0.23465625       1.50532181       0.63986197       0.14794269
H        3.46049050      -0.06210973      -0.36087096      -0.19960211      -0.07869595       0.00244272
H        4.20784536       0.99336668      -1.08119902       0.39468667      -0.04584690      -0.33641609
O       23.22106763       3.22807835      11.66457216      -0.45622142       0.15154479       0.44660600
H       23.32726230       3.69919237      12.64590175       0.42665550      -0.03031326      -0.07737506
H       23.79124979       2.45984270      11.73231326      -0.25840747      -0.14385667      -0.01569863
O       -1.42245752      31.83362340      15.03214008       0.26912410       0.92220127       0.74621242
H       -2.09627319      32.41264931      14.61229339      -0.01818330      -0.21304437       0.32939313
H       -0.58719806      31.81938697      14.66584633       0.19849155      -0.31451252       0.31168142
O        4.81599593      19.40011332       5.22192313      -1.08662489       0.31791251       0.62929651
H        4.08524064      18.90990786       5.73393268       0.22293415       0.19082670      -0.27292495
H        5.62025683      18.90979319       5.15789063       0.08814522      -0.22366484      -0.17673792
O      -10.16790868      10.50977484       9.50068500      -1.09243847       0.70938631       0.45514533
H      -10.81811222      10.81217059       8.72202886      -0.21085383      -0.18662830       0.17462771
H      -10.39736060      10.76159074      10.33611647       0.23511133      -0.15277013       0.45094584
O       17.69728931      17.76098253      26.14230818       0.29650471       0.27822799      -1.54333516
H       18.51131292      17.19806609      26.02579853      -0.24237582      -0.20710365       0.13613564
H       16.85131113      17.31055957      26.04477131      -0.18715456      -0.05552940      -0.01452106
O        6.93346997      18.69647513      10.13798527      -0.26241405      -0.83269230       0.11225157
H        7.28189311      19.32820219       9.52348603       0.23129298       0.03459957       0.07615508
H        6.54085728      17.94671272       9.59097035      -0.20594382       0.11711920       0.29001754
O       -0.64038414     -13.80765313      13.25751675      -0.61072941      -0.43111875      -0.12475186
H       -1.45554263     -14.13275566      12.85061551       0.04574233      -0.25182992       0.40977994
H       -0.18598808     -14.67547616      13.59304483      -0.17139520      -0.07736306      -0.29815390
O        1.14210756       6.11682024       1.10485447      -0.16907304      -1.94958189       0.53028060
H        1.65585649       5.14928301       1.23063808       0.16590423      -0.15434041       0.14704042
H        1.02472481       6.54709135       0.26456590       0.24200215       0.75368515       0.08788240
O        3.15179962       1.31902348       8.37265273       1.42531940      -0.15210074       0.79783712
H        2.08353891       1.09348692       8.24509209      -0.18976393       0.25453382      -0.02710396
H        3.45374742       1.31691460       9.28077309       0.32461396      -0.49525808      -0.38422768
O      -18.82924336      28.82326390     -16.16757582       0.39001641       0.76905791      -0.75565431
H      -18.76119914      29.11406953     -17.15160040      -0.02196947       0.34345341       0.22644320
H      -18.12199328      28.32639664     -15.48993615      -0.03581910       0.23793542       0.35244835
O        2.89598048      26.86630689      -9.08415704      -0.15399875      -0.59270639       0.59208410
H        3.45052177      26.92885376      -8.56980147       0.15760459       0.10724817      -0.36346671
H        2.17393020      26.34847023      -8.78304852      -0.21242503       0.52404172       0.11666704
O      -18.09571191      19.00012831       1.92460834      -0.76515483      -1.07607809      -0.04652436
H      -17.36142917      18.81910943       1.21544727      -0.49486601      -0.02563371       0.38103620
H      -19.03897660      18.58041275       1.88175547      -0.14093498       0.36254383       0.36196064
O       11.71678357      17.57776343       7.04736506       0.45525609       0.08814901      -0.68251744
H       12.61168490      17.35304789       6.77279438       0.04547595       0.15000106       0.14972519
H       11.15385685      18.21588839       6.57869548      -0.16049174      -0.22094307       0.01317751
O       -7.23000070     -11.22840444       5.17077950      -0.26653483      -0.89486539      -0.28867795
H       -6.62607936     -11.28498357       4.44716069      -0.13228750      -0.09222598      -0.53264964
H       -7.43847140     -12.05294570       5.68360986      -0.02221213       0.20540813       0.09900701
O      -24.15948085       3.38962063      10.69780632      -1.21561071      -0.63546121      -0.31476138
H      -24.85651290       4.06307911      10.50780667       0.13905632      -0.41771066       0.10638192
H      -23.26224017       3.72556599      10.26457051      -0.15322549      -0.15381238       0.02841818
O      -11.43405573      -8.23659466      18.47151232      -0.42073128      -1.04398335       0.63201264
H      -10.68422371      -8.58911982      18.97008847       0.21972239      -0.30466098       0.32386735
H      -11.47266350      -8.14901330      17.52227394      -0.25102325       0.63256404      -0.40826522
O        8.58177008       7.34202537      16.90197117      -0.92941310       0.47451758      -0.65380164
H        9.55177178       7.37735886      16.83997109      -0.42771768       0.04482293       0.24308751
H        8.16023288       6.86128472      16.20013056      -0.30366842       0.17002832      -0.23928205
O      -11.63660451      -0.48238959      20.44516077       0.48149307      -0.19395270       0.74596264
H      -12.49555931      -0.17210891      20.72990933       0.00797411       0.31805498      -0.14406487
H      -11.72866307      -0.56981595      19.40093087      -0.18996021      -0.05137241       0.07271257
O       24.15143448       2.48022453      16.22029920      -0.89768200       0.24714555      -0.96496538
H       23.95254704       2.52029301      17.15835372       0.05211003      -0.06247620       0.38337279
H       24.06187702       1.66154858      15.57651573       0.20946701       0.27870956      -0.02927398
O       -5.66621834     -17.94417639      -5.04397796      -0.08828993       0.71396599      -1.00768838
H       -4.77023442     -17.81205205      -4.97204825       0.29663454       0.00208652      -0.60292245
H       -5.87850590     -18.73030735      -5.59722625      -0.30955028      -0.36289762      -0.15541616
O       29.44774263      -8.97592541      -6.15217001      -0.81465500       1.13390822      -0.70768726
H       30.28298119      -8.94575555      -6.70323219      -0.22706255       0.10135475       0.48294641
H       29.07011845      -9.79963251      -5.90459621      -0.42327807      -0.21987006       0.33072545
O        8.81049566      -0.66302085       3.41697418      -0.25782949       0.34567276       0.43142368
H        8.38823618      -0.05782708       2.83856841       0.19262385       0.01253912      -0.01065230
H        8.35214139      -1.48534044       3.67361197       0.21210869       0.13366887      -0.10846343
O      -19.78413159      -3.14334682      24.76230018      -0.37982951       0.35737806      -0.22266217
H      -20.01897041      -4.01330379      24.28028197       0.42797021       0.20378610       0.30592366
H      -19.14370050      -3.37342702      25.59953708      -0.08684599       0.18385982      -0.18259951
O        2.41538222      -5.78626031      -6.03345349       1.72803606       1.15063298      -0.22046171
H        2.57516559      -5.68268320      -5.16036431       0.01645388      -0.33803996       0.28828049
H        1.87484254      -6.56818777      -6.23884055      -0.26102995      -0.40017573      -0.06257938
O        9.86322013       8.27928412       7.95864959       0.81615769      -0.14051093       0.46376724
H       10.44438914       8.49255729       7.22984652      -0.24671524      -0.08555139      -0.18515970
H       10.07427693       7.46411286       8.39842127      -0.21291957      -0.22997468      -0.03967374
O        5.36427573       9.74455635      -4.83161626       0.85703955      -0.41061436      -0.68343335
H        6.17978993       9.14294582      -4.80986290      -0.22177717       0.24549768      -0.06331066
H        4.82583358       9.73082112      -4.07435860      -0.00904544       0.10566534      -0.15319508
O       13.74824820      29.44150818      15.87586396      -0.70439600      -0.81252910       0.12839276
H       12.89160011      29.07449163      15.99140495      -0.18444771       0.22796215      -0.27665352
H       14.38068274      28.67605321      15.86754073      -0.00368703      -0.20707031      -0.13151915
O       -2.81792703       3.98409471       1.70491173      -0.49073385       0.36245405       0.42162086
H       -2.21152315       3.43957101       2.35905471       0.08714447      -0.46179607       0.06428142
H       -2.68159987       4.89675737       1.72757712       0.01156508      -0.02322699      -0.29145257
O        7.82491342     -14.02050132      10.94897592       0.56650374      -0.20119676      -0.75304830
H        6.79072056     -14.39470326      11.02878294      -0.01785939       0.16454390      -0.29435312
H        8.17596002     -14.22973407      10.01582069      -0.29584187      -0.24297123       0.30429277
O       -2.48578132      10.54845410      24.31688245      -1.98451033       0.50307807      -1.02734935
H       -2.05766328      10.14718004      23.65610151       0.22112609      -0.11608925      -0.26099676
H       -3.19398890      11.22430058      24.38548715       0.29999310      -0.20096672       0.19809942
O       20.04867627      21.74518275       1.55656123      -0.78757173       0.04793651       0.26599316
H       19.92239487      22.36019169       2.38570129      -0.10271207       0.00024050      -0.43100567
H       19.71619436      20.85136207       1.32510581      -0.08967086       0.60748136       0.07002301
O       12.17365173      10.01314335     -15.90442304       1.06255456       0.30671725       0.27835270
H       12.68791062       9.29742969     -15.56312028      -0.08956343       0.09390705      -0.50871182
H       12.54652298      10.09188026     -16.90818830      -0.09133758       0.01155582       0.42589938
O      -11.39020989      22.25091903       1.07241381       0.42195479      -0.98685593       0.31357663
H      -11.86759707      21.30602654       1.10803580      -0.34023172       0.04489663      -0.01945154
H      -10.83826851      22.59880852       1.77229810      -0.10140393       0.05158314      -0.12486777
O        2.93931514     -15.04532448      16.11090796      -0.63753122      -0.93878358      -0.81733088
H        3.19117459     -15.80142364      16.70848233      -0.28121853       0.20554791       0.01545253
H        3.62622430     -14.35001755      16.01802484       0.26949960      -0.02520669       0.01819974
O        2.40519560      16.31348760       0.36845340      -0.91064734      -1.10627690       0.21140429
H        1.91165371      16.33017349      -0.34409711      -0.20108143       0.50248885       0.45353441
H        3.01647801      15.64975638       0.66810848       0.13702204       0.21984864       0.04984923
O       -5.71804679      -7.32314571       5.60073396      -1.42324450      -1.05490546       0.00071680
H       -5.29782923      -7.79885804       6.26959025       0.30665816       0.40693144       0.28395250
H       -4.96883559      -6.75228226       5.19125184      -0.04303019      -0.17873734       0.25379270
O       -2.15089729       2.39852547       6.66344492       0.52541864       0.29865230       1.04762528
H       -2.24067178       3.36840662       6.80709356      -0.25324121      -0.33464666      -0.25381980
H       -1.85751679       1.83129488       7.33593072      -0.19377403       0.49269827      -0.71313460
O       13.18453786      -5.50524802      -1.45984881       0.29792327      -1.78706622       0.08821117
H       13.95979552      -5.20634668      -1.95093459       0.33875312      -0.04618098      -0.19061646
H       12.96184371      -6.52697005      -1.52241059       0.19503706      -0.03751070       0.37532600
O       11.81956648       4.89015555      22.73339385      -0.31528997      -0.27874462       0.07152792
H       11.21646784       4.15492823      22.96400862       0.09815519       0.23097091      -0.06988974
H       12.02253467       4.76478160      21.81726937       0.30982567      -0.17946002       0.05947125
O        8.15231845      14.49261030      23.83008612      -1.22158038      -0.15244665       1.43958733
H        9.01104221      14.91074605      23.79368773      -0.20409695      -0.31073778      -0.31102643
H        8.03683275      13.49854264      24.16415580       0.04621654       0.16804380      -0.06223487
O       -8.07028352       6.99318119      11.42313291       0.86945409      -1.02474632       0.39995329
H       -7.28506817       6.66975327      10.87848598       0.07552733       0.31957936      -0.31827055
H       -8.42438760       6.39750109      12.07945395      -0.30943210       0.29248464       0.33374133
