192
Lattice="12.746507276344905 0.0 0.0 -5.29052433461661e-07 12.746507276344905 0.0 -5.29052433461661e-07 -5.29052433461661e-07 12.746507276344905" Properties=species:S:1:pos:R:3:momenta:R:3 step=100 time_fs=10.0 phase=production pbc="T T T"
O       11.64862531       0.72757860     -16.47493431       1.41466529       0.11766330       0.39056237
H       12.22651558       0.99565354     -15.77209122       0.23406033      -0.00537896      -0.16493981
H       10.92413933       0.12353983     -16.49575934       0.12383256      -0.10043503       0.15142300
O       26.36968780      24.78160102       4.93643718       0.29924984      -0.63084705       1.64546214
H       26.71539561      23.91126124       4.68191815      -0.25409580       0.53735878       0.16035891
H       25.60774114      25.15963933       4.45374079       0.17898755       0.11465902      -0.14142956
O        4.54818989      -0.32392012       6.60183310      -0.45470841      -0.61402109      -1.16938713
H        5.17310953      -1.02225455       6.84393196       0.56471847      -0.00036016      -0.18642734
H        4.24830621       0.23490028       7.36438603       0.17970084       0.08853632      -0.05114120
O       -2.85410903      -4.37401292       1.05152705      -0.24579485       0.91784818       1.31061254
H       -2.56645007      -3.81600117       0.29007569       0.17208115       0.03900515      -0.41834573
H       -3.73288794      -4.08305253       1.45171544       0.17217846       0.20255672      -0.17463433
O        4.30610298      15.89082237      10.71471980       1.09773519       0.50208537      -0.45238211
H        4.34097028      16.77064356      11.09307187       0.19711917       0.57269550      -0.02073752
H        5.00583169      15.74957082      10.11305662      -0.22108509      -0.00035320      -0.25193093
O       -1.37486548       6.59806927       5.14461650       0.77754306      -0.79142560       0.13372300
H       -1.56978875       6.31933210       4.24121453      -0.63806316      -0.16320580      -0.21299877
H       -0.48230380       7.00716267       5.22011118      -0.02758646       0.00927609       0.22552857
O       22.82570725      12.32658694       5.78140946       0.38852415       0.38163733      -0.07497787
H       23.22972128      13.08487419       6.06320947      -0.22384676      -0.35401243      -0.08848308
H       22.17461887      12.21429627       5.06346855      -0.19194537      -0.08354905       0.85516225
O       -1.06198997     -15.74510166       6.79318729      -1.21257755       1.09328606      -0.32316552
H       -0.58716900     -16.07307774       6.05586903       0.08048104      -0.10037307      -0.20229447
H       -1.48582316     -14.79233264       6.50405593       0.03056742      -0.18568717       0.03337661
O       15.48904982     -17.90597485       9.69196537       0.47795591      -0.54396325       0.75324005
H       16.07975416     -18.47145726      10.21587144      -0.28345763       0.26337850      -0.25797984
H       15.64930315     -17.01088562       9.50531688       0.12335574      -0.13873116      -0.04589211
O        3.29066718     -14.65770755     -13.37993214       0.97934572      -0.19522726      -0.71317086
H        4.23899280     -14.89214205     -13.21105945      -0.18821483       0.34912457      -0.03127241
H        2.59682067     -15.14903592     -12.90498473       0.08884966      -0.30998514      -0.37407013
O       -5.76088916       1.60906177       2.85490497      -0.15445489       1.00038334       0.47000177
H       -6.37546007       1.10792277       2.39815210       0.13600135      -0.08648335      -0.02196669
H       -5.35152210       2.48299228       2.66996692      -0.14944897      -0.07773156       0.22183993
O       -5.37270860      16.08964353      25.92042319      -0.24764314       1.00301594      -1.39151754
H       -5.46835849      15.59856767      25.09816244      -0.28889842       0.46616346      -0.14547814
H       -4.27403523      16.18497433      26.18040976       0.42889900      -0.25705317       0.41434916
O        7.47814599     -15.68918468      -8.45288684       1.62714908       0.06333725       1.62026359
H        8.03487898     -16.49502733      -8.24398696       0.04673371       0.24979371      -0.10584989
H        6.71416886     -15.36351097      -8.07450024      -0.43747256       0.51181518       0.14041906
O       13.67185798       8.56194886      17.95755113      -0.10784093       0.25549491       0.34750993
H       14.00349785       8.71026815      17.14157756      -0.07054259       0.10269059       0.06229285
H       14.19211000       7.95706346      18.46311910      -0.28201343       0.18252094       0.08135210
O       -0.15511562       1.22560890      -1.20926013      -0.30681635       0.78036105       0.73345594
H        0.74295495       1.40147576      -1.29426702      -0.23122265      -0.24268980      -0.09420470
H       -0.48808587       0.37260412      -0.87615237      -0.12288096       0.24186017      -0.46364080
O      -14.17088692      12.66115687      15.77373451       0.04788035      -0.04279222      -0.04572143
H      -13.81719621      12.48122822      14.90958840       0.59381945       0.07387784      -0.47922610
H      -14.91145257      12.14650511      16.10719399       0.62749128      -0.03934592      -0.02629423
O      -16.38507331       5.91509839      12.31935628       2.20729417       0.64261736      -0.35038103
H      -16.89875361       5.89038674      11.52593848       0.03563546      -0.11972483      -0.32291348
H      -16.13991662       7.03941175      12.29498476      -0.28464430      -0.02452668      -0.20160673
O       -9.96065676      32.91158854      -9.59262892      -0.87885647      -0.76565809      -0.61931781
H       -9.19771947      32.42017045      -9.41702284      -0.05660867       0.32229481      -0.29956191
H      -10.82300646      32.58042893      -9.94422491       0.27842786       0.44084287       0.16839768
O       34.78121186      11.47051445      21.36943837       1.21832836      -0.90652062      -1.28768462
H       34.72900450      11.82448731      20.41600349       0.06070762       0.09280766       0.32584826
H       35.22499302      10.78754899      21.75120678       0.10296887       0.45396204      -0.02434919
O       30.40662225     -12.64256606       2.14484276       0.26717711       1.29967286      -0.33459914
H       29.62257637     -12.13679733       2.58642015      -0.12790142      -0.15867840       0.06517426
H       30.24038282     -12.58519659       1.15146637       0.00484013       0.04639857      -0.40374795
O       17.58379421       9.28347857      -7.44067013      -0.21041962      -1.63031148      -0.70392873
H       17.35053770       8.29458104      -7.75488190      -0.16165011       0.43601285       0.03934479
H       17.41922307       9.56269157      -6.53702938       0.03169401       0.13266856       0.17756164
O       -5.12283990       2.58559748      32.19419729       1.74240935      -0.17265431       0.70420067
H       -5.92677285       2.10337896      31.87368545      -0.39492074      -0.30357663       0.32607075
H       -4.33312458       2.10444404      32.56701166       0.02852413       0.15310419       0.29216313
O        3.81332801       0.88390609      -0.23386653       1.46620380       0.34664607       0.04024927
H        3.44233496      -0.06133457      -0.35624186      -0.16151971       0.10583159       0.08764407
H        4.24856787       0.99431158      -1.11653322       0.40715062       0.05116015      -0.31961115
O       23.21724624       3.22930518      11.66783684      -0.42755894       0.29419388       0.79940203
H       23.36547841       3.69017113      12.62334471       0.37675796      -0.15014806      -0.37578502
H       23.76619943       2.44389461      11.72923042      -0.23384802      -0.17986156      -0.03878423
O       -1.42164229      31.83772793      15.03657324       0.00787098       0.88605718       0.93549353
H       -2.09586520      32.39332748      14.64245150       0.00772954      -0.13535581       0.29048059
H       -0.55318639      31.78752947      14.68848630       0.48107442      -0.30805966       0.17284766
O        4.80835893      19.40108818       5.22582189      -1.26621742       0.30307433       0.69403069
H        4.11498275      18.93175142       5.70300581       0.35530174       0.25212060      -0.33032897
H        5.62970112      18.88470906       5.13959866       0.08441228      -0.25553811      -0.19315240
O      -10.17444346      10.51354146       9.50135172      -1.19821694       0.68652853      -0.05289307
H      -10.82844897      10.79007092       8.75238507      -0.01530543      -0.25409234       0.45212908
H      -10.37794935      10.75039788      10.39170102       0.16345236      -0.07688088       0.66570900
O       17.69859446      17.76168696      26.13140081       0.37366258       0.22233147      -1.60929094
H       18.47960634      17.17938201      26.03874129      -0.37890086      -0.16615270       0.15112626
H       16.83578071      17.30562554      26.04263309      -0.10207095      -0.02043661      -0.00261157
O        6.93110335      18.68986430      10.13803452      -0.38728130      -1.00292922       0.06285433
H        7.30587425      19.33244710       9.52903951       0.26026702       0.05776452       0.05661054
H        6.52463753      17.96268797       9.62477761      -0.12812184       0.21403595       0.39930457
O       -0.64377168     -13.81049545      13.25632404      -0.48812116      -0.69791262      -0.05406924
H       -1.45218014     -14.15579379      12.88913096      -0.00811693      -0.23596488       0.37580039
H       -0.20561420     -14.67104233      13.55992152      -0.21865194       0.14747005      -0.35926045
O        1.14134938       6.10376182       1.10844252      -0.06665401      -2.18421139       0.61334317
H        1.66535370       5.14757723       1.24027858       0.02952905       0.12527694       0.04989089
H        1.04914229       6.62042249       0.27084743       0.26658214       0.72893836       0.08456501
O        3.15928085       1.31783902       8.37643866       1.04988794      -0.21109683       0.53863835
H        2.08256952       1.11943113       8.24479631       0.17377602       0.27657447       0.02943329
H        3.48702465       1.26919866       9.24943185       0.37010184      -0.48231079      -0.22422373
O      -18.82564193      28.82656466     -16.17165902       0.49011163       0.73964186      -0.78845620
H      -18.75740424      29.13766879     -17.11102585       0.08539038       0.17576512       0.55587158
H      -18.13552480      28.35754064     -15.47000440      -0.25807286       0.42674456       0.03906707
O        2.89292734      26.86130649      -9.08229392      -0.82083297      -0.62376748      -0.15622835
H        3.50951406      26.94405237      -8.56963580       1.09713578       0.24299989       0.38049643
H        2.14382003      26.39386934      -8.77020609      -0.41988813       0.42053550       0.14458463
O      -18.09957729      18.99230581       1.92361457      -0.81180721      -1.16047083      -0.19357660
H      -17.42303008      18.81642755       1.26195965      -0.73285348      -0.02575905       0.52218088
H      -19.03688894      18.62127843       1.91600193       0.15774568       0.48675376       0.34063817
O       11.71879063      17.57737915       7.04294257       0.37734526       0.04923810      -0.64109937
H       12.61560514      17.36989953       6.78511832       0.05462515       0.21036324       0.10659359
H       11.14296623      18.19266553       6.57851375      -0.05803790      -0.22931278      -0.01660628
O       -7.23156914     -11.23323208       5.16916066      -0.32550340      -0.84087394      -0.19559134
H       -6.63626970     -11.29713679       4.39045443      -0.10977486      -0.16622068      -0.59078173
H       -7.43793977     -12.02849970       5.68672371       0.02357082       0.27157807      -0.02221557
O      -24.16501156       3.38613755      10.69483045      -0.91781220      -0.49358175      -0.47398874
H      -24.83751615       4.02052328      10.51864605       0.18082841      -0.40724355       0.11576192
H      -23.29311359       3.70416636      10.27461111      -0.49574834      -0.27776776       0.18257957
O      -11.43600629      -8.24253986      18.47464183      -0.36479747      -1.02373929       0.63700814
H      -10.66394070      -8.61714967      18.99689036       0.15304637      -0.26185502       0.22169757
H      -11.49600925      -8.08793137      17.48577972      -0.23397141       0.60076309      -0.27086995
O        8.57550754       7.34469307      16.89737736      -1.02970876       0.49525708      -0.59771048
H        9.50977373       7.38052069      16.86259783      -0.38427325       0.02793264       0.23425313
H        8.12938847       6.87609882      16.17136444      -0.31062958       0.15190074      -0.31811804
O      -11.63325180      -0.48367234      20.44797590       0.41917410      -0.22514577       0.49208786
H      -12.49464451      -0.13961222      20.71554923       0.00732792       0.34449319      -0.12898200
H      -11.74441565      -0.57373439      19.42041901      -0.14057072      -0.03146887       0.33827150
O       24.14472579       2.48113766      16.21309541      -0.92487977       0.10304527      -1.06907017
H       23.95596384       2.51092198      17.19308432       0.05224489      -0.12762513       0.29607538
H       24.08173650       1.69946782      15.58649973       0.21926025       0.48232301       0.23574977
O       -5.66739909     -17.93972143      -5.05049183      -0.34778040       0.44758173      -1.19883171
H       -4.72798012     -17.80497586      -5.03014891       0.51979617       0.11773603      -0.59917704
H       -5.90847668     -18.75382529      -5.60468442      -0.30047709      -0.11436628       0.01090403
O       29.44154959      -8.96826946      -6.15651291      -0.82013167       1.17149377      -0.75418555
H       30.25220412      -8.93804126      -6.65200915      -0.33172938       0.04747274       0.53076919
H       29.02962917      -9.82217843      -5.87139704      -0.35329896      -0.20445007       0.32828325
O        8.80891477      -0.66117683       3.41966107      -0.11170644       0.26239654       0.49661351
H        8.39861708      -0.05171624       2.83391279       0.03314377       0.11334040      -0.08298449
H        8.36947265      -1.47247254       3.66300689       0.14597822       0.11196998      -0.09979750
O      -19.78529550      -3.14196950      24.76005458      -0.28811696       0.08562124      -0.10282520
H      -19.97222633      -3.97965781      24.31749210       0.49481533       0.43529401       0.45106474
H      -19.16212305      -3.34955908      25.56729922      -0.30541274       0.30276584      -0.44971482
O        2.42538835      -5.77940526      -6.03570123       1.54001160       0.95379237      -0.58763898
H        2.58092609      -5.71465922      -5.11705454       0.09671601      -0.33051918       0.56283099
H        1.85289753      -6.60363477      -6.24362989      -0.15287431      -0.28417973      -0.02765251
O        9.86752397       8.27828179       7.96130275       0.73919001      -0.07527172       0.53111791
H       10.42129328       8.48411680       7.21130854      -0.21600857      -0.07920227      -0.18763866
H       10.05691639       7.43978622       8.39446924      -0.13714985      -0.24514650      -0.04324939
O        5.37017827       9.74123455      -4.83629673       1.10393399      -0.49230410      -0.91236449
H        6.14943831       9.17123085      -4.81487377      -0.35253832       0.31358929      -0.04255809
H        4.81795312       9.73951777      -4.07989180      -0.14539028       0.08179580       0.03084939
O       13.74404166      29.43487675      15.87587700      -0.45942529      -0.90010310       0.12197379
H       12.86554420      29.09354197      15.96319631      -0.32426404       0.19266499      -0.28857346
H       14.37555540      28.66028280      15.85355916      -0.09582935      -0.08384334      -0.13925476
O       -2.82047460       3.98451937       1.70781569      -0.38241166      -0.15415088       0.55239547
H       -2.21302196       3.40516582       2.35274966      -0.12375789      -0.23142488      -0.19435023
H       -2.67579985       4.90789109       1.69985480       0.10535888       0.24270107      -0.27528965
O        7.82734051     -14.02159709      10.94327669       0.32698551      -0.36036526      -0.89874679
H        6.80714516     -14.37144072      10.99745583       0.35800417       0.29768313      -0.33515522
H        8.13759704     -14.24902669      10.05760197      -0.46257543      -0.17551041       0.51908028
O       -2.49819616      10.55152642      24.31080448      -2.03429551       0.60146072      -0.62631975
H       -2.02857612      10.12808959      23.61292933       0.34638515      -0.24046977      -0.55839349
H       -3.16768192      11.20268997      24.39775019       0.20572784      -0.19814930       0.08105620
O       20.04289559      21.74503919       1.55865598      -0.76090835       0.28434578       0.42836213
H       19.91152195      22.34762007       2.33163441      -0.10514894      -0.21553975      -0.64595439
H       19.70532316      20.90877131       1.33777433      -0.13859307       0.52786249       0.17337388
O       12.17969139      10.01507917     -15.90324773       1.07811018       0.49351815      -0.14207468
H       12.68301813       9.29838283     -15.60727431       0.01470231      -0.09364976      -0.38877395
H       12.52800451      10.09123669     -16.85189622      -0.27476900      -0.00153818       0.69350122
O      -11.38776926      22.24287022       1.07394361       0.19221121      -1.29641456       0.19235276
H      -11.88871168      21.32785690       1.10816494      -0.10252470       0.42160085       0.02378930
H      -10.84642601      22.60000169       1.76375885      -0.07140650      -0.00103555      -0.04075040
O        2.93553590     -15.05042009      16.10532804      -0.54851963      -0.92129052      -0.77281731
H        3.16346483     -15.77270035      16.70341595      -0.27643263       0.34311916      -0.08447616
H        3.64619797     -14.35974128      16.02041699       0.13615077      -0.19315077       0.04646657
O        2.40042748      16.30636746       0.37143647      -0.61201125      -0.96154217       0.75702913
H        1.87605849      16.37657173      -0.32420945      -0.52231598       0.46860228      -0.03621855
H        3.02899625      15.66412837       0.67208644       0.12465448       0.08461231       0.03236679
O       -5.72624449      -7.32857263       5.59966952      -1.32328718      -0.85228474      -0.22749498
H       -5.26341926      -7.76935282       6.30781715       0.37591287       0.20416289       0.48665513
H       -4.98018893      -6.77353906       5.21896553      -0.18572606      -0.25125637       0.30681517
O       -2.14801066       2.40089614       6.66849340       0.35861766       0.51107770       0.62879026
H       -2.26288709       3.33328265       6.78346505      -0.21068468      -0.32742723      -0.21676199
H       -1.86960212       1.87080986       7.28146438      -0.02630831       0.26417022      -0.33337810
O       13.18578864      -5.51691669      -1.45913752       0.34513022      -2.07455865       0.10597623
H       13.98717530      -5.21624334      -1.96740789       0.20546857      -0.17255238      -0.12980395
H       12.98578805      -6.51083072      -1.48914267       0.30582316       0.34839280       0.30238093
O       11.81702198       4.88814811      22.73309608      -0.31181595      -0.28007268       0.15949611
H       11.22321790       4.17716129      22.95930158       0.03274890       0.20743335       0.00242036
H       12.05550526       4.74872065      21.81393486       0.37449745      -0.14449970      -0.09409218
O        8.14386134      14.48998804      23.83812986      -1.41874467      -0.47765388       1.54181760
H        8.99622211      14.87921892      23.76279543      -0.07454286      -0.31138995      -0.30030907
H        8.04404817      13.53094565      24.15072391       0.10518721       0.49875890      -0.18591976
O       -8.06404209       6.98651003      11.42456472       1.02623501      -1.04941825       0.25819958
H       -7.28616383       6.70171940      10.85419635      -0.10201544       0.33962195      -0.16913251
H       -8.45244591       6.42311798      12.11175902      -0.26370701       0.25103279       0.32471971
192
Lattice="12.745821154156545 0.0 0.0 -5.29023955494675e-07 12.745821154156545 0.0 -5.29023955494675e-07 -5.29023955494675e-07 12.745821154156545" Properties=species:S:1:pos:R:3:momenta:R:3 step=110 time_fs=11.0 phase=production pbc="T T T"
O       11.65684811       0.72838752     -16.47234625       1.46004783       0.15163166       0.16633866
H       12.25037089       0.99475879     -15.77960660       0.26719670      -0.01249559      -0.01014999
H       10.93133796       0.11067372     -16.47751287       0.04633249      -0.15569564       0.20446559
O       26.36974640      24.77663336       4.94645225       0.15987970      -0.49837766       1.72111560
H       26.68990040      23.95941585       4.69506136      -0.21630560       0.42018018       0.09767243
H       25.62689433      25.16611195       4.44016764       0.23986897       0.04812341      -0.13078422
O        4.54507168      -0.32771059       6.59461155      -0.45960183      -0.63985014      -1.05772673
H        5.22399651      -1.01775480       6.82651066       0.46480019       0.10914218      -0.17043652
H        4.26799783       0.23878437       7.35537185       0.22857333      -0.01112440      -0.12901266
O       -2.85591727      -4.36757951       1.05931804      -0.35664592       1.10516389       1.21208376
H       -2.55240878      -3.81726931       0.25790254       0.10607317      -0.08312630      -0.22105555
H       -3.70275161      -4.06613604       1.42858991       0.41198710       0.14870402      -0.28331258
O        4.31204995      15.89328058      10.71192501       0.92487092       0.63100253      -0.25230456
H        4.36220653      16.82353403      11.08962980       0.24281502       0.47141038      -0.06351644
H        4.99293043      15.74705237      10.08082681      -0.04707140      -0.02801641      -0.38986854
O       -1.36954054       6.59293218       5.14500553       0.91627721      -0.78039109       0.04897497
H       -1.62862937       6.30400105       4.22425766      -0.55854730      -0.13269246      -0.09390629
H       -0.49232227       7.00464765       5.24016743      -0.17483690      -0.05087415       0.18896294
O       22.82662533      12.32684855       5.78057042       0.33724975      -0.09681131      -0.06946188
H       23.21366758      13.06938056       6.05871454      -0.07004055       0.07327484       0.00984417
H       22.15116181      12.20671900       5.14410422      -0.30062450      -0.06382116       0.76805078
O       -1.06995934     -15.73638619       6.79095436      -1.38220768       1.45497494      -0.32248370
H       -0.57548152     -16.08374528       6.03077216       0.13677265      -0.12292538      -0.27168916
H       -1.47717683     -14.82383733       6.50962172       0.14620879      -0.47776441       0.09042372
O       15.49057904     -17.90888410       9.69606903       0.26281619      -0.68726333       0.72583453
H       16.05546386     -18.44366270      10.19248348      -0.16673805       0.25943054      -0.18422259
H       15.66570663     -17.01200633       9.50064130       0.23014089       0.09337090      -0.03807715
O        3.29658413     -14.65825927     -13.38346793       0.97616389      -0.22633334      -0.68884293
H        4.21545888     -14.85832738     -13.21347739      -0.25667904       0.31895065      -0.02462564
H        2.60844471     -15.17699030     -12.94202502       0.14499249      -0.28621770      -0.39319349
O       -5.76071823       1.61550341       2.85843939       0.08698741       1.08900262       0.72881696
H       -6.37107587       1.09620808       2.38524467      -0.04476135      -0.14381894      -0.23384271
H       -5.37017831       2.47205864       2.68727546      -0.22559169      -0.11380635       0.12837780
O       -5.37335754      16.09510128      25.91079739      -0.05437167       1.06439571      -1.27239484
H       -5.49485377      15.64312807      25.08291980      -0.25917456       0.45669903      -0.15212225
H       -4.24396645      16.15825383      26.21691749       0.18058560      -0.27157802       0.35989769
O        7.48868760     -15.68845829      -8.44279824       1.84564223      -0.03437779       1.54160520
H        8.02994939     -16.46189605      -8.25503930      -0.11499065       0.37595785      -0.11974152
H        6.66390111     -15.31331140      -8.05474436      -0.51772570       0.46916254       0.22344988
O       13.66960369       8.56317602      17.95960695      -0.38521470       0.30343011       0.61429890
H       14.00371509       8.72614969      17.12478997       0.08434586       0.22477181      -0.36289785
H       14.16815219       7.96782994      18.47889276      -0.18806925       0.04443587       0.26115630
O       -0.15815689       1.23062523      -1.20473069      -0.68466996       0.90739156       0.71269210
H        0.73424977       1.37592191      -1.30340282       0.06560564      -0.27771731      -0.09749720
H       -0.49665881       0.39265909      -0.92132575      -0.06805015       0.13630229      -0.45274625
O      -14.16947302      12.66041591      15.77247098       0.22654069       0.03686156      -0.16742072
H      -13.75902701      12.48684608      14.86269692       0.55505653       0.06774546      -0.40269679
H      -14.85131292      12.13914681      16.10469975       0.55353681      -0.12324423       0.00761593
O      -16.37021118       5.91971462      12.31666941       2.31823780       0.97222358      -0.35575362
H      -16.89623142       5.87916701      11.49209864       0.02280390      -0.10699463      -0.31705314
H      -16.17195396       7.01832117      12.27622850      -0.38711099      -0.40518370      -0.16519457
O       -9.96625868      32.90592162      -9.59600681      -1.06765086      -0.46530846      -0.62250943
H       -9.19465263      32.44098287      -9.44374533       0.11972190       0.13203922      -0.25829075
H      -10.79203096      32.61830938      -9.92860055       0.28187160       0.34449335       0.11530616
O       34.78598016      11.46577473      21.35915166       0.94018033      -0.45342281      -1.63956986
H       34.73626366      11.82407003      20.46104667       0.12435766      -0.07132972       0.57150796
H       35.24677891      10.81459895      21.75212971       0.38444492       0.11344429       0.07090325
O       30.40577894     -12.63331784       2.14205408      -0.00886739       1.48841123      -0.54450940
H       29.61877353     -12.15967952       2.58488935       0.08438512      -0.32183093      -0.09633179
H       30.24157279     -12.57950386       1.12908416       0.05257767       0.05749121      -0.04444516
O       17.58123247       9.27202444      -7.44476982      -0.31386473      -1.89693302      -0.71784695
H       17.33863505       8.35236210      -7.74347040      -0.07078430       0.72729447       0.17546459
H       17.42343651       9.57343826      -6.52246181       0.07986559       0.08592459       0.08093276
O       -5.11192832       2.58412507      32.19692349       1.69453537      -0.25800511       0.73933653
H       -5.95284854       2.07769326      31.90928141      -0.13419689      -0.21494742       0.44162627
H       -4.34243448       2.12328407      32.58801611      -0.20946211       0.22578336       0.18102022
O        3.82232515       0.88513243      -0.23462390       1.53827900       0.07072016      -0.30433151
H        3.43007056      -0.03977750      -0.34476296      -0.08134645       0.34155720       0.14309088
H        4.28165228       1.00108038      -1.13472048       0.26402934       0.08278953      -0.03754863
O       23.21356785       3.23127041      11.67324234      -0.35583430       0.38937329       1.16148349
H       23.39755199       3.67023237      12.57132568       0.30413164      -0.24602278      -0.67000399
H       23.74254363       2.42525423      11.72279145      -0.23048221      -0.19598605      -0.08581272
O       -1.42167323      31.84113032      15.04206169       0.01509121       0.77049961       1.10050594
H       -2.09652236      32.38515309      14.66569381      -0.02609893       0.00801455       0.19829769
H       -0.50026506      31.75661423      14.70038803       0.54843026      -0.28604360       0.10689224
O        4.80073250      19.40205888       5.22954254      -1.07376153       0.36772573       0.58096767
H        4.14543714      18.95156726       5.67498343       0.23078924       0.14848803      -0.20958549
H        5.63251870      18.86079161       5.11988262      -0.03535479      -0.20103887      -0.20407667
O      -10.18158316      10.51724084       9.49993253      -1.29272972       0.70552974      -0.16362252
H      -10.82262309      10.76260281       8.80630821       0.09969299      -0.28925766       0.63938390
H      -10.36189234      10.74281152      10.45449009       0.16537665      -0.07906661       0.58264192
O       17.69979796      17.76200687      26.11992569       0.30612534       0.20788565      -1.66809434
H       18.43887271      17.16188058      26.05189942      -0.41504066      -0.18871994       0.14400665
H       16.83075761      17.30569936      26.04180319       0.01637604       0.04201328       0.01477744
O        6.92825637      18.68273147      10.13785708      -0.39534067      -0.95177380       0.07234014
H        7.33046030      19.33527077       9.53506510       0.24568393       0.01229895       0.08328713
H        6.51277216      17.98227203       9.66416057      -0.12515857       0.17884060       0.39732337
O       -0.64624716     -13.81465439      13.25553267      -0.34046603      -0.87248280       0.02084812
H       -1.46140322     -14.17742565      12.92001036      -0.19202166      -0.22268667       0.26671159
H       -0.22567215     -14.64789216      13.52356747      -0.17467887       0.28414276      -0.36031810
O        1.14113200       6.08968499       1.11185178       0.01677848      -2.27951552       0.49857126
H        1.66119140       5.17345576       1.23990801      -0.11584173       0.41518428      -0.05757499
H        1.07733822       6.68308821       0.28774175       0.31395805       0.54410196       0.28030070
O        3.16432600       1.31632865       8.37830575       0.65187842      -0.25631580       0.22043695
H        2.11739163       1.14691533       8.24997642       0.54332628       0.28766241       0.08587347
H        3.52615170       1.22273006       9.23801464       0.43459784      -0.47023763      -0.00388662
O      -18.82137815      28.82918702     -16.17487202       0.56576343       0.59368657      -0.47200777
H      -18.74159062      29.14872299     -17.05321152       0.22333590       0.10686955       0.54313352
H      -18.17041303      28.40657463     -15.48141442      -0.47862450       0.61057967      -0.29246918
O        2.88615269      26.85597959      -9.08472932      -1.16345501      -0.62711542      -0.63713996
H        3.65234204      26.97204600      -8.50279149       1.61435317       0.32466582       0.82417685
H        2.09486351      26.42853425      -8.75285894      -0.53166613       0.34305670       0.20137017
O      -18.10446745      18.98435903       1.92296626      -1.11425390      -1.05931509       0.07752255
H      -17.48809413      18.80784230       1.30250482      -0.56447471      -0.14960659       0.25043357
H      -19.01040603      18.67098783       1.94750929       0.32354259       0.53477090       0.30534931
O       11.72025346      17.57650579       7.03889065       0.30817291      -0.03230082      -0.54743775
H       12.62202219      17.39191579       6.79250174       0.09322261       0.25923223       0.05167470
H       11.14012604      18.17106645       6.57358755       0.00541292      -0.18577624      -0.08302119
O       -7.23295955     -11.23745041       5.16742082      -0.23214693      -0.71071291      -0.31838774
H       -6.65110288     -11.31569809       4.33802539      -0.21987712      -0.22369769      -0.45112911
H       -7.43385639     -12.00195246       5.68074912       0.04589244       0.23598733      -0.07791070
O      -24.16824238       3.38263522      10.69121564      -0.60090424      -0.63665574      -0.47720672
H      -24.82715710       3.99055016      10.52781063      -0.03156543      -0.17725489       0.08000682
H      -23.34939236       3.67338173      10.29564991      -0.60739571      -0.32677381       0.22487055
O      -11.43725136      -8.24831433      18.47721238      -0.24031667      -0.99671129       0.51428101
H      -10.65727234      -8.63706586      19.00841774      -0.03826348      -0.14921430       0.02711519
H      -11.51589261      -8.03349540      17.47389893      -0.18070056       0.49675066       0.06023298
O        8.56773959       7.34721707      16.89269811      -1.38301230       0.44432195      -0.65058950
H        9.48141902       7.38227149      16.88356040      -0.16944664       0.01741786       0.21370816
H        8.10165061       6.89280845      16.14097919      -0.23436888       0.21199283      -0.26289237
O      -11.63043090      -0.48502420      20.44924337       0.28733409      -0.21761183       0.29034633
H      -12.49161040      -0.10560223      20.70343221       0.04325162       0.35219675      -0.09053864
H      -11.75404034      -0.57649095      19.46243696      -0.06601215      -0.02994853       0.52594790
O       24.13761769       2.48155352      16.20607034      -0.96731939       0.12857831      -0.88050771
H       23.96121927       2.49546613      17.21012582       0.08454718      -0.18457358       0.05994196
H       24.10171452       1.74939660      15.61638756       0.21470210       0.48723242       0.34991746
O       -5.66918609     -17.93682303      -5.05817920      -0.27515162       0.19363320      -1.39129112
H       -4.68080667     -17.78917292      -5.08845430       0.38493676       0.17829711      -0.59944190
H       -5.93560702     -18.74946871      -5.59417358      -0.26232605       0.18062162       0.19477413
O       29.43387744      -8.96117521      -6.16025944      -1.21558443       0.94955086      -0.54039326
H       30.22452455      -8.93544035      -6.60530268      -0.16393345      -0.00262237       0.39662704
H       29.00279114      -9.83111164      -5.84276440      -0.14767337       0.03689065       0.24223559
O        8.80824628      -0.65948024       3.42263982       0.04075409       0.30157173       0.51969544
H        8.39583298      -0.03729952       2.82346031      -0.06606902       0.16599008      -0.11368349
H        8.37899536      -1.46595056       3.65446530       0.05667495       0.01206521      -0.07044292
O      -19.78556599      -3.14113260      24.75885952      -0.16261517       0.19998266       0.14192348
H      -19.92503711      -3.94249404      24.35650150       0.42776237       0.25107902       0.32530219
H      -19.19798838      -3.31409019      25.51361072      -0.40946207       0.42078955      -0.56703293
O        2.43397809      -5.77411988      -6.03958206       1.31060905       0.66861839      -0.71664482
H        2.59198504      -5.74752463      -5.05898273       0.12163398      -0.35296722       0.55800806
H        1.84760259      -6.61911273      -6.24254208       0.04778679      -0.03925825       0.04229327
O        9.87134001       8.27732077       7.96444633       0.68064649      -0.10659825       0.63579204
H       10.40133622       8.47637758       7.19293047      -0.18216545      -0.06944748      -0.17840508
H       10.04579504       7.41888454       8.38733204      -0.08344487      -0.16117630      -0.10135045
O        5.37662348       9.73793725      -4.84219707       1.03696199      -0.38413421      -1.07291677
H        6.11946887       9.19663772      -4.81734274      -0.21956832       0.19153681      -0.01213962
H        4.79876227       9.74572892      -4.07049754      -0.22580834       0.05653759       0.13345578
O       13.74104307      29.42745522      15.87578473      -0.29874804      -1.00114097       0.12751574
H       12.83094687      29.10996528      15.93325969      -0.34833175       0.18201943      -0.30934858
H       14.35972232      28.65736646      15.83895219      -0.21344110       0.05443914      -0.14258807
O       -2.82232695       3.98220136       1.71151221      -0.26993076      -0.47233753       0.67593842
H       -2.23539161       3.39499193       2.32131908      -0.33179927       0.02353421      -0.43959022
H       -2.66143279       4.93704558       1.67381242       0.17941293       0.30730624      -0.25651561
O        7.82784198     -14.02330727      10.93754807      -0.04284210      -0.42382281      -0.72063129
H        6.85837857     -14.33528740      10.96341676       0.67472553       0.42666070      -0.33606709
H        8.09146668     -14.26550242      10.10272946      -0.42950606      -0.19436965       0.34300788
O       -2.50977314      10.55411624      24.30604929      -1.72315726       0.37524056      -0.55613533
H       -1.99635764      10.10528349      23.55517769       0.27704469      -0.18301374      -0.54368408
H       -3.15768659      11.18920632      24.39964838      -0.02075364      -0.04735519      -0.01088126
O       20.03763231      21.74656163       1.56116398      -0.57903230       0.56966028       0.36050654
H       19.89821352      22.32356021       2.26968173      -0.15756582      -0.20674018      -0.56359145
H       19.68345889      20.94398309       1.35636710      -0.30089619       0.19797896       0.20346562
O       12.18539145      10.01822668     -15.90402366       0.96243632       0.69478482      -0.29296372
H       12.69052486       9.27584855     -15.63559900       0.14885028      -0.35179042      -0.21701306
H       12.49513579      10.09276692     -16.78117522      -0.35139331       0.05153298       0.65175537
O      -11.38663558      22.23289776       1.07462798      -0.00132009      -1.52606738       0.04808013
H      -11.88742364      21.38321768       1.11258764       0.09656288       0.70012727       0.06883353
H      -10.85091796      22.59673987       1.76464019      -0.03410502      -0.04012560       0.06060458
O        2.93214320     -15.05475252      16.09947182      -0.52422610      -0.72912205      -0.88033887
H        3.13885270     -15.73989871      16.69567594      -0.21654208       0.27337073      -0.02504640
H        3.65274694     -14.38524418      16.02509436       0.01188811      -0.33306491       0.06344090
O        2.39716913      16.30006505       0.37732713      -0.43822198      -0.80277888       1.12408898
H        1.81435616      16.41986865      -0.34450904      -0.70574808       0.43435371      -0.33208891
H        3.04035319      15.66422470       0.67422090       0.10812268      -0.06331101       0.01050623
O       -5.73350638      -7.33329256       5.59797011      -1.13093349      -0.84717099      -0.17847894
H       -5.22944315      -7.75425140       6.35686596       0.28738697       0.11568210       0.48983001
H       -5.00226612      -6.79804882       5.24804338      -0.25781478      -0.24499571       0.28264191
O       -2.14649029       2.40454823       6.66985067       0.10199520       0.69142532      -0.06989404
H       -2.28266555       3.31313225       6.76512330      -0.20116166      -0.05678867      -0.14822615
H       -1.85778072       1.87389316       7.27975861       0.26732625      -0.19575106       0.30376483
O       13.18767912      -5.52971523      -1.45844169       0.51566025      -2.12494646       0.09921745
H       13.99613450      -5.24002763      -1.97460062      -0.00477424      -0.31892414      -0.02074940
H       13.01875750      -6.46506684      -1.46384765       0.37142656       0.51455076       0.21353774
O       11.81477089       4.88637686      22.73274101      -0.19918064      -0.20689047       0.09568207
H       11.21946683       4.19209398      22.96272236      -0.10099785       0.09731291       0.09161226
H       12.09264906       4.73639601      21.80104873       0.38873728      -0.10186285      -0.11746111
O        8.13408745      14.48564441      23.84647252      -1.61068946      -0.61300369       1.57145037
H        8.99672121      14.84964709      23.73262336       0.09122172      -0.27767436      -0.29328872
H        8.05531792      13.58784364      24.12772798       0.12573103       0.61446340      -0.23651291
O       -8.05710216       6.97952404      11.42539421       1.07123244      -1.10363969       0.23136078
H       -7.30267507       6.73433233      10.84380752      -0.23217956       0.33061773      -0.03884316
H       -8.47281948       6.44772330      12.13845192      -0.15504261       0.26657280       0.22481700
192
Lattice="12.745084293995372 0.0 0.0 -5.289933716136997e-07 12.745084293995372 0.0 -5.289933716136997e-07 -5.289933716136997e-07 12.745084293995372" Properties=species:S:1:pos:R:3:momenta:R:3 step=120 time_fs=12.0 phase=production pbc="T T T"
O       11.66516264       0.72925021     -16.47093075       1.46293453       0.13393053       0.00027506
H       12.27587340       0.99258504     -15.77406360       0.25920868      -0.03532581       0.09137310
H       10.93475316       0.09550019     -16.45422207       0.05287473      -0.14147908       0.25240213
O       26.36851223      24.77319486       4.95716305      -0.07402914      -0.12735419       1.87067968
H       26.67375640      23.98240615       4.69800269      -0.06873632       0.04922823      -0.04100858
H       25.65122471      25.16686023       4.42810298       0.28600647       0.00288447      -0.11146903
O        4.54221879      -0.33184415       6.58812087      -0.37484463      -0.72072509      -0.94074370
H        5.26080564      -0.99943868       6.80921417       0.29179193       0.26550555      -0.17794596
H        4.29180185       0.23301189       7.33887597       0.25969605      -0.10029002      -0.19154628
O       -2.85754666      -4.36009437       1.06592378      -0.17314933       1.23186385       0.93368629
H       -2.54615876      -3.83294043       0.24873541       0.01839101      -0.24490508       0.03580181
H       -3.66181786      -4.05040145       1.40061709       0.36557574       0.18950988      -0.26482964
O        4.31718524      15.89717835      10.71043013       0.85513939       0.94699675      -0.05148296
H        4.38755035      16.85329232      11.07649937       0.28087506       0.14343883      -0.19777867
H        4.99304735      15.74367537      10.03893916       0.03009494      -0.01493880      -0.43335972
O       -1.36376189       6.58757489       5.14439829       0.90695493      -0.85730180      -0.16053108
H       -1.67655289       6.29403550       4.22642545      -0.41950376      -0.06137473       0.15264976
H       -0.51340253       6.99802044       5.25614357      -0.23203637      -0.06291337       0.14576425
O       22.82760394      12.32406306       5.78013237       0.43344167      -0.55515885       0.04579737
H       23.21307834      13.09776378       6.06424989       0.07245273       0.50253029       0.10278143
H       22.10943572      12.20002023       5.20879191      -0.53616240      -0.05919026       0.56174064
O       -1.07849433     -15.72585424       6.78807623      -1.38736245       1.63019233      -0.49326904
H       -0.56474963     -16.09251946       6.00899987       0.07182997      -0.06963094      -0.14981574
H       -1.45832708     -14.88073166       6.52049552       0.22077541      -0.66461257       0.12883444
O       15.49035050     -17.91200090       9.69953851      -0.05205900      -0.62416099       0.56928801
H       16.04938855     -18.42237271      10.18234221       0.07445295       0.14317330       0.00053606
H       15.69155996     -16.99417976       9.49756252       0.31022482       0.22083937      -0.00782592
O        3.30191131     -14.65866615     -13.38707959       0.79663501      -0.17060203      -0.75179294
H        4.19547862     -14.83012678     -13.21272870      -0.11805470       0.23491558       0.03126732
H        2.62330090     -15.20430128     -12.97896114       0.15701239      -0.29755255      -0.37624510
O       -5.75953787       1.62176584       2.86340825       0.15405000       0.94204126       0.92508304
H       -6.38007333       1.08274765       2.35503231      -0.12085735      -0.10939182      -0.36183908
H       -5.39246644       2.46552416       2.69352992      -0.22823568       0.00091508      -0.00041383
O       -5.37269092      16.10097691      25.90208502       0.17733867       1.15435754      -1.06803732
H       -5.51776963      15.68438875      25.06382623      -0.21503511       0.40357850      -0.21598779
H       -4.23970160      16.13055612      26.24650028      -0.10535296      -0.27573773       0.27224777
O        7.49887216     -15.68700555      -8.43277862       1.54198861       0.27512897       1.57151360
H        8.01686615     -16.42767302      -8.26428660      -0.11468003       0.26377931      -0.06891449
H        6.62457109     -15.27623944      -8.03555447      -0.24097997       0.25267585       0.14342548
O       13.66578945       8.56478090      17.96266536      -0.56830374       0.38484933       0.66491788
H       14.01584755       8.75038129      17.07809180       0.15730341       0.26422348      -0.50205196
H       14.15364459       7.96622736      18.50959186      -0.09995466      -0.05420906       0.37381625
O       -0.16337785       1.23685537      -1.20041904      -0.99908104       1.15257650       0.66865034
H        0.75536110       1.34732294      -1.31340722       0.35178296      -0.30884727      -0.10850168
H       -0.50303583       0.39538191      -0.96317670      -0.06686704      -0.08482073      -0.40661856
O      -14.16602226      12.66036297      15.76933154       0.64945998       0.19576611      -0.57778459
H      -13.71145695      12.49433781      14.83701423       0.39393904       0.10209714      -0.09092380
H      -14.80675209      12.11760493      16.10899903       0.33083341      -0.31448778       0.10604155
O      -16.35510413       5.92640178      12.31313550       2.27487039       1.31244273      -0.58837755
H      -16.88870304       5.86778398      11.46929124       0.11981841      -0.12948771      -0.12074241
H      -16.21211083       6.96048176      12.26256886      -0.44446048      -0.75707106      -0.09218035
O       -9.97213925      32.90250059      -9.59895041      -1.00291671      -0.02101433      -0.50345869
H       -9.17297223      32.44163636      -9.46636423       0.30515483      -0.07630158      -0.21921310
H      -10.77550940      32.63997163      -9.92428854       0.02024707       0.12663281      -0.04962569
O       34.78895601      11.46317939      21.34786579       0.69977158      -0.22487534      -1.55803046
H       34.74877503      11.81438658      20.51148318       0.17169892      -0.08804127       0.42461331
H       35.29440533      10.81098763      21.76138009       0.61919797      -0.15202296       0.12991305
O       30.40322499     -12.62296466       2.13790151      -0.22878768       1.63294188      -0.76546778
H       29.63422685     -12.19663332       2.56853437       0.24831555      -0.43688925      -0.22154098
H       30.24693072     -12.57255931       1.14199432       0.09058704       0.06940462       0.29454867
O       17.57817667       9.25995449      -7.44829298      -0.32516016      -1.77669324      -0.54503342
H       17.33166294       8.42301819      -7.72376293      -0.07476225       0.64737369       0.19274712
H       17.43306558       9.57746820      -6.52225338       0.13731270       0.00813824      -0.08183906
O       -5.10194388       2.58232780      32.19947117       1.41854764      -0.25832439       0.67551060
H       -5.95080087       2.06204784      31.95610321       0.17319937      -0.10086916       0.55549773
H       -4.36713996       2.14436556      32.60172090      -0.26185650       0.18548539       0.16028827
O        3.83183300       0.88480410      -0.23756035       1.63821039      -0.13200526      -0.64408488
H        3.42586620       0.00399312      -0.32894432      -0.01277924       0.52956875       0.17798001
H        4.29895303       1.00994509      -1.12331716       0.10031137       0.10133337       0.26162913
O       23.21025574       3.23348934      11.68042503      -0.30400511       0.35984444       1.32389388
H       23.42270577       3.64594681      12.49792581       0.25456231      -0.20615589      -0.74375030
H       23.71841825       2.40496475      11.71028734      -0.23369088      -0.22593731      -0.16021520
O       -1.42071024      31.84354334      15.04821279       0.29940208       0.61087223       1.17540280
H       -2.10021983      32.39115486      14.67923556      -0.04618891       0.14883123       0.09818110
H       -0.45640050      31.72954575      14.71098124       0.31366991      -0.22487072       0.13889230
O        4.79512652      19.40352435       5.23215113      -0.64226875       0.47814479       0.35837247
H        4.15394394      18.95535881       5.66499209      -0.06668694      -0.05615453       0.01988113
H        5.62040378      18.84539668       5.09967444      -0.20850507      -0.08728658      -0.20259521
O      -10.18875891      10.52093384       9.49917733      -1.19215494       0.68394667       0.16798957
H      -10.81534544      10.73509934       8.86811498      -0.00977146      -0.24759821       0.59292022
H      -10.34361576      10.73258800      10.49809465       0.19979995      -0.12205585       0.30038296
O       17.70018591      17.76245368      26.10803826       0.14761926       0.28680193      -1.70960884
H       18.40062659      17.13808030      26.06344308      -0.33135419      -0.28887268       0.12314600
H       16.83577635      17.31151223      26.04258858       0.09459865       0.09379493       0.03160240
O        6.92571823      18.67649428      10.13794259      -0.28726164      -0.70722259       0.15449236
H        7.35184265      19.33134525       9.54498746       0.19760195      -0.07460036       0.13374871
H        6.49666622      17.99087919       9.69777805      -0.20779907       0.00399506       0.29380210
O       -0.64823051     -13.81923659      13.25489281      -0.35828881      -0.84941981      -0.00066467
H       -1.48815393     -14.19677927      12.94018552      -0.33934369      -0.18281332       0.17074375
H       -0.23554589     -14.62156457      13.49060528      -0.00816169       0.19988101      -0.28943018
O        1.14145833       6.07517318       1.11442217       0.10494042      -2.31574669       0.36751226
H        1.64234877       5.22802007       1.22894323      -0.25902832       0.69213745      -0.16179581
H        1.10987646       6.72411061       0.32555314       0.35228062       0.30768174       0.48451903
O        3.16712721       1.31453592       8.37845685       0.36341102      -0.30469134       0.02633003
H        2.18718708       1.17521096       8.26051672       0.86789144       0.29193058       0.13772673
H        3.56942170       1.17780523       9.24391690       0.43880737      -0.44473271       0.09985744
O      -18.81680751      28.83053958     -16.17534013       0.51403305       0.41100606      -0.01647832
H      -18.71148173      29.15871291     -17.01182881       0.37320843       0.14621261       0.25792853
H      -18.22358047      28.47110169     -15.52158856      -0.57974261       0.71342925      -0.49027770
O        2.87948415      26.85063328      -9.08780124      -0.94716175      -0.61177574      -0.50224407
H        3.79780510      27.00028663      -8.42720416       1.34102875       0.28147711       0.68924752
H        2.04739351      26.46132421      -8.73178068      -0.41668190       0.36902172       0.21415981
O      -18.11104670      18.97754075       1.92479356      -1.33882516      -0.78385633       0.56889179
H      -17.52455558      18.78274271       1.30346845      -0.18896242      -0.34917912      -0.24648639
H      -18.98155784      18.71946952       1.97495862       0.19653546       0.46512672       0.26013696
O       11.72131568      17.57495939       7.03549797       0.26259163      -0.14357226      -0.42316126
H       12.63221616      17.41829159       6.79449037       0.12728675       0.30204554      -0.00148474
H       11.14181870      18.15552345       6.56083766       0.03953022      -0.10893882      -0.17255718
O       -7.23344585     -11.24046194       5.16425921      -0.05720776      -0.46801670      -0.63504027
H       -6.68051342     -11.33885010       4.30635633      -0.39443679      -0.26226757      -0.18244243
H       -7.42907444     -11.98582965       5.67414745       0.04054072       0.06387539      -0.03897577
O      -24.17037639       3.37750979      10.68821898      -0.59314847      -0.98230239      -0.27656502
H      -24.84509587       3.98807155      10.53285034      -0.36955629       0.13048641       0.03682389
H      -23.39384811       3.64435472      10.31041287      -0.28572784      -0.25158418       0.06811815
O      -11.43771990      -8.25379019      18.47884959      -0.13489227      -0.93685224       0.36724332
H      -10.67069021      -8.64465324      18.99943082      -0.24413788      -0.01844879      -0.18670827
H      -11.52908014      -7.99183906      17.49597185      -0.10089422       0.34240349       0.40629671
O        8.55738681       7.34924858      16.88733602      -1.82455113       0.35532882      -0.78291555
H        9.47687765       7.38326905      16.90229369       0.08139664       0.01231220       0.19041668
H        8.08483753       6.91810300      16.12149116      -0.09650990       0.31648118      -0.11127349
O      -11.62844069      -0.48623164      20.44958260       0.14595004      -0.17985213       0.25579326
H      -12.48525834      -0.07074058      20.69684513       0.06955961       0.36501670      -0.01540743
H      -11.75579792      -0.58059259      19.51377199       0.01255143      -0.06255339       0.49291727
O       24.13013847       2.48308185      16.20111113      -1.01562943       0.45058176      -0.40412275
H       23.97020384       2.47513595      17.20057217       0.12848603      -0.22697301      -0.23633396
H       24.12072294       1.78334660      15.64439482       0.20475071       0.17400384       0.21476643
O       -5.66982891     -17.93519805      -5.06696478      -0.02998312       0.02093238      -1.55445486
H       -4.65719738     -17.76915718      -5.14550493       0.08762202       0.20842920      -0.57318022
H       -5.95909550     -18.71776020      -5.56725268      -0.23159578       0.42894134       0.33699382
O       29.42300483      -8.95575153      -6.16226403      -1.77688684       0.65482903      -0.22774262
H       30.22132282      -8.93741449      -6.57630352       0.14279624      -0.04788144       0.18832965
H       28.99890891      -9.81232382      -5.82444613       0.09817469       0.32942950       0.12746614
O        8.80828161      -0.65716776       3.42547039       0.12215399       0.45107491       0.45342053
H        8.38777860      -0.02310041       2.81484438      -0.07571672       0.10729365      -0.04315465
H        8.37976050      -1.47008130       3.64866315      -0.02666636      -0.09191544      -0.04725186
O      -19.78557384      -3.13858741      24.75850087      -0.25228206       0.59399907       0.15955862
H      -19.88917369      -3.93867012      24.37210162       0.28292555      -0.19379418       0.01414019
H      -19.22906219      -3.26830371      25.46823283      -0.20867309       0.50768183      -0.27829195
O        2.44133405      -5.77051575      -6.04319198       1.13749731       0.39972720      -0.55164419
H        2.60268094      -5.78265577      -5.01752448       0.09751320      -0.37186241       0.26724404
H        1.86168892      -6.61107236      -6.23506814       0.24080435       0.19216903       0.10229707
O        9.87481793       8.27597280       7.96820274       0.64040059      -0.17407281       0.73159581
H       10.38446564       8.46971688       7.17651122      -0.15352168      -0.05770152      -0.14535019
H       10.03914224       7.40890841       8.37313978      -0.04147773      -0.03646052      -0.17886300
O        5.38178843       9.73562165      -4.84858726       0.71390400      -0.17849273      -1.07222966
H        6.10981943       9.20464732      -4.81651737       0.03791736      -0.02369325       0.02427977
H        4.77796592       9.74948496      -4.05947413      -0.17076229       0.03206597       0.05650305
O       13.73854489      29.41938797      15.87568010      -0.28366899      -1.05432131       0.13866650
H       12.79993181      29.12643749      15.90113305      -0.25867188       0.19223103      -0.32999174
H       14.33342733      28.66600759      15.82396923      -0.29468708       0.13746780      -0.14664526
O       -2.82356502       3.97904372       1.71573252      -0.21146903      -0.41949439       0.69868933
H       -2.27434914       3.40656912       2.27039924      -0.43777727       0.18494705      -0.56810826
H       -2.64187389       4.95807123       1.65002065       0.21437353       0.10271123      -0.22752661
O        7.82625845     -14.02492295      10.93365476      -0.24013549      -0.33004070      -0.32477880
H        6.92648653     -14.28904067      10.93368232       0.64482659       0.47857774      -0.26216360
H        8.05976812     -14.28783910      10.11270637      -0.20989488      -0.28994306      -0.14276115
O       -2.51865156      10.55457957      24.30081984      -1.21051178      -0.02877424      -0.69878502
H       -1.97896462      10.09548734      23.51164747       0.07000027       0.00062583      -0.30832690
H       -3.17287819      11.19390628      24.39324356      -0.29011076       0.15304702      -0.09183864
O       20.03372781      21.74930067       1.56245348      -0.30949193       0.69886156       0.06203508
H       19.87693010      22.31088632       2.22880337      -0.26187106      -0.00461138      -0.24811740
H       19.64354871      20.94419941       1.37687362      -0.49049404      -0.15688161       0.22042688
O       12.19001561      10.02213803     -15.90399660       0.78531647       0.72224806       0.06747602
H       12.70743141       9.23372878     -15.65047783       0.18568659      -0.45946117      -0.12200759
H       12.46355259      10.10102085     -16.73746733      -0.26555468       0.13403400       0.17383049
O      -11.38609054      22.22236479       1.07435811       0.00541685      -1.42132970      -0.11966255
H      -11.87528266      21.45005088       1.12188089       0.09718800       0.62938685       0.12659920
H      -10.85180946      22.58997665       1.77578085       0.00280713      -0.07045379       0.17154397
O        2.92852073     -15.05759193      16.09250506      -0.62141634      -0.48819604      -1.09231071
H        3.12160861     -15.72303041      16.70092557      -0.13479207       0.04029171       0.16380715
H        3.65116001     -14.41940131      16.03012891      -0.01938870      -0.36153975       0.05457751
O        2.39431573      16.29471877       0.38452241      -0.48582583      -0.62956118       1.16940476
H        1.74776774      16.45739929      -0.37691490      -0.60602922       0.34073667      -0.26974404
H        3.04794967      15.65170036       0.67303552       0.04042229      -0.16391054      -0.04101921
O       -5.73957440      -7.33850974       5.59731878      -0.97275732      -1.01565603       0.10071132
H       -5.21040035      -7.74423065       6.39782192       0.08653291       0.08357689       0.34287610
H       -5.02545174      -6.81688652       5.27052957      -0.19688688      -0.12879955       0.16963269
O       -2.14624653       2.40850261       6.66748252      -0.03746697       0.60555718      -0.51342569
H       -2.30172064       3.32233829       6.75442179      -0.18899319       0.23251221      -0.06361306
H       -1.82181536       1.84159848       7.32999968       0.43919377      -0.41186488       0.67430544
O       13.19074222      -5.54151844      -1.45768834       0.72408345      -1.77510163       0.12758214
H       13.98652235      -5.27653611      -1.97224845      -0.15374874      -0.42305447       0.05413197
H       13.05371126      -6.42491046      -1.44717015       0.34737012       0.24026443       0.13131119
O       11.81336271       4.88502624      22.73147991      -0.03586109      -0.15044138      -0.08991603
H       11.20305493       4.19604023      22.97355474      -0.21164086      -0.00162182       0.14944975
H       12.12745584       4.72849415      21.79359811       0.32866681      -0.05458444       0.00990560
O        8.12343131      14.48174423      23.85448985      -1.67800530      -0.32477537       1.47205238
H        9.01048071      14.82308366      23.70310143       0.17987513      -0.25333900      -0.28258921
H        8.06584064      13.63578463      24.10621508       0.09114064       0.33048687      -0.15997359
O       -8.05025752       6.97227064      11.42631095       0.98288826      -1.11374005       0.29580578
H       -7.32714264       6.76378245      10.84330362      -0.25409043       0.27125885       0.02465038
H       -8.48095224       6.47417110      12.15349377      -0.02244859       0.27792243       0.10157633
192
Lattice="12.744331743658234 0.0 0.0 -5.289621365013247e-07 12.744331743658234 0.0 -5.289621365013247e-07 -5.289621365013247e-07 12.744331743658234" Properties=species:S:1:pos:R:3:momenta:R:3 step=130 time_fs=13.0 phase=production pbc="T T T"
O       11.67343014       0.72987245     -16.47021636       1.45621759       0.08061487      -0.06930146
H       12.29692260       0.98685849     -15.76291761       0.17507875      -0.08512122       0.10325149
H       10.94286784       0.08529331     -16.42680003       0.13557198      -0.06020308       0.28795076
O       26.36582042      24.77218458       4.96889018      -0.27559034       0.24659603       2.04211631
H       26.67413518      23.96548770       4.68628245       0.10072900      -0.34046268      -0.18579467
H       25.67858082      25.16510338       4.41736505       0.30065197      -0.00118026      -0.10907385
O        4.53999346      -0.33663287       6.58209124      -0.26483701      -0.85423792      -0.91971015
H        5.28035705      -0.96693361       6.79109860       0.12291236       0.38917025      -0.18335901
H        4.31679144       0.22149460       7.32020739       0.25016974      -0.12018797      -0.16225972
O       -2.85732040      -4.35216976       1.07054816       0.20149990       1.24560292       0.60380785
H       -2.54779366      -3.86385297       0.26351055      -0.04508832      -0.38305600       0.24692506
H       -3.63901261      -4.02610164       1.38007607       0.07305145       0.31167075      -0.14422014
O        4.32239599      15.90298239      10.70969069       0.94884804       1.23424946      -0.01303770
H        4.41603595      16.84935675      11.05010527       0.30674249      -0.19331953      -0.32428937
H        4.99248996      15.74367334      10.00071662      -0.05976646       0.03952342      -0.31439281
O       -1.35861795       6.58146502       5.14242054       0.72217110      -1.01382027      -0.37327347
H       -1.70943892       6.29127858       4.25320762      -0.25842303       0.00860797       0.38763064
H       -0.53228887       6.99433379       5.26819222      -0.13495551       0.00729519       0.10885551
O       22.82946540      12.31911865       5.78050993       0.61874282      -0.75319266       0.18919604
H       23.22083840      13.15725042       6.07527848       0.08289436       0.66574858       0.10901156
H       22.04580546      12.19398939       5.25463534      -0.71617258      -0.04679007       0.40554783
O       -1.08637607     -15.71548563       6.78431338      -1.16122148       1.36713921      -0.58306844
H       -0.56185706     -16.09529543       6.00207461      -0.01287469      -0.00808697       0.01886886
H       -1.44083515     -14.93642676       6.52940307       0.09869159      -0.41649092       0.03820249
O       15.48818136     -17.91398870       9.70179329      -0.34101124      -0.34145837       0.35103567
H       16.06880727     -18.41434279      10.19212599       0.33536503       0.00589933       0.20601819
H       15.72219668     -16.97410165       9.49939354       0.32638699       0.13580992       0.06375302
O        3.30581639     -14.65856891     -13.39122279       0.53561035      -0.07857355      -0.85834570
H        4.19526499     -14.81159063     -13.20515688       0.12359590       0.12616555       0.10847992
H        2.63817175     -15.23380293     -13.01345977       0.15125749      -0.32740627      -0.34659247
O       -5.75857285       1.62647051       2.86917378       0.02140620       0.59721499       0.98231230
H       -6.38809123       1.07938459       2.31937437      -0.02345576       0.06301597      -0.34237769
H       -5.41272447       2.47384336       2.68661121      -0.18976973       0.17490675      -0.13805218
O       -5.37052037      16.10736278      25.89467697       0.42411778       1.22909697      -0.85381297
H       -5.53573487      15.71960311      25.03778214      -0.15902708       0.33959374      -0.28237167
H       -4.26440298      16.10316036      26.26624449      -0.40283809      -0.26342188       0.16428002
O        7.50632782     -15.68281357      -8.42252077       1.01955402       0.80405614       1.60566771
H        8.01011080     -16.41396129      -8.26619408      -0.00639197      -0.01614658       0.02258432
H        6.61913495     -15.26401969      -8.02693167       0.14028253      -0.02271721       0.02362204
O       13.66149223       8.56691324      17.96499521      -0.53634095       0.46874315       0.40850141
H       14.02749591       8.77330954      17.03925421       0.07943715       0.20542204      -0.22400703
H       14.14479829       7.95958765      18.54622961      -0.07882211      -0.05286337       0.38201369
O       -0.16999401       1.24458554      -1.19638565      -1.10944090       1.37386558       0.62042659
H        0.79585404       1.31497915      -1.32353931       0.42410610      -0.35731540      -0.09278619
H       -0.50931672       0.37751598      -1.00092560      -0.05620189      -0.26202267      -0.37397833
O      -14.15983833      12.66137293      15.76350714       1.07669140       0.36687226      -1.00650301
H      -13.68153876      12.50498942      14.84384506       0.20259010       0.12869911       0.24563395
H      -14.78510888      12.07645804      16.12361869       0.10853950      -0.50337240       0.20746529
O      -16.34046948       5.93489270      12.30795947       2.17529106       1.48919857      -0.84343881
H      -16.87164712       5.85132499      11.46653585       0.19872991      -0.20642101       0.06017894
H      -16.25422301       6.87609167      12.25818079      -0.42466773      -0.88085136       0.01641449
O       -9.97704292      32.90168696      -9.60097102      -0.75686052       0.35911695      -0.33671216
H       -9.13881537      32.42496096      -9.48622799       0.34444875      -0.20250851      -0.20658411
H      -10.78798634      32.63843867      -9.93782184      -0.27867005      -0.11430806      -0.23679874
O       34.79080118      11.46106663      21.33823029       0.60891758      -0.30333364      -1.11716565
H       34.76566669      11.80874882      20.53414506       0.21825219      -0.00124608       0.04219021
H       35.35846606      10.79016270      21.77059209       0.69818053      -0.21262287       0.05398439
O       30.39990141     -12.61206885       2.13253820      -0.21348049       1.64336219      -0.91047300
H       29.65624372     -12.23867991       2.54710624       0.18622018      -0.40981610      -0.17353883
H       30.25504057     -12.56470368       1.17931150       0.10793345       0.07566830       0.40615265
O       17.57542586       9.24982488      -7.45040117      -0.21554195      -1.30545108      -0.28026581
H       17.31868166       8.46607471      -7.70864240      -0.18535258       0.20178589       0.09322748
H       17.44791919       9.57413847      -6.53690622       0.18670748      -0.06037953      -0.21590839
O       -5.09418159       2.58086878      32.20128993       1.01746363      -0.14850915       0.53263391
H       -5.91933172       2.05742646      32.01315405       0.44638674      -0.00203584       0.64813309
H       -4.38718854       2.15599485      32.61863609      -0.13670237       0.04704865       0.23694906
O        3.84213625       0.88401503      -0.24218259       1.79758431      -0.05500035      -0.82117856
H        3.42232883       0.05356960      -0.31074087      -0.08698895       0.42960735       0.19244805
H        4.30314358       1.02150685      -1.08790686       0.01540740       0.14543976       0.42133006
O       23.20691302       3.23481783      11.68723586      -0.34768410       0.09863309       1.06946267
H       23.44791617       3.63747731      12.43982807       0.30657398       0.06413326      -0.38109291
H       23.69406019       2.38068353      11.68980756      -0.24305350      -0.26102751      -0.24623818
O       -1.41776080      31.84492041      15.05464686       0.62341225       0.45720075       1.20366429
H       -2.10346096      32.40878790      14.68380114      -0.00943308       0.24054268       0.01989959
H       -0.44293075      31.71004681      14.72670233      -0.04379791      -0.13426144       0.20238238
O        4.79222354      19.40563162       5.23336859      -0.24038895       0.57392741       0.15359903
H        4.13252295      18.93904943       5.67755759      -0.34734685      -0.24089650       0.23017863
H        5.59216974      18.84148923       5.08010325      -0.35255325       0.02372830      -0.19193444
O      -10.19463387      10.52430231       9.50136232      -0.89216811       0.60875949       0.74401926
H      -10.82937879      10.71479283       8.91529886      -0.31389528      -0.15129915       0.36841370
H      -10.32182337      10.71757855      10.50972063       0.23286992      -0.17175437      -0.04913227
O       17.69960674      17.76355938      26.09590877       0.01977754       0.41639641      -1.73802072
H       18.37393783      17.10306621      26.07298801      -0.19317191      -0.40411168       0.10600864
H       16.84429726      17.32100282      26.04472585       0.08383156       0.11665534       0.04264578
O        6.92397468      18.67193728      10.13862457      -0.15276077      -0.42651772       0.26458514
H        7.36782265      19.31825245       9.55977342       0.14093547      -0.16771761       0.17615273
H        6.47081413      17.98031358       9.71972976      -0.31174512      -0.19148473       0.17224902
O       -0.65103963     -13.82330280      13.25377082      -0.60033876      -0.74217601      -0.12060431
H       -1.52277662     -14.20925749      12.95349618      -0.34997071      -0.07956265       0.12600520
H       -0.22456038     -14.61184867      13.46677260       0.24034201      -0.02649850      -0.18142203
O        1.14187210       6.06130889       1.11624341       0.00156494      -2.00116607       0.24580318
H        1.61784598       5.29540726       1.21017042      -0.18893473       0.61264769      -0.21054667
H        1.14543758       6.74272669       0.38018043       0.37753472       0.08612426       0.62857132
O        3.16934104       1.31246971       8.37810077       0.52277681      -0.33614662       0.05101372
H        2.27487653       1.20224652       8.27472849       0.84278664       0.25247673       0.15447419
H        3.60788592       1.13708521       9.25058689       0.34107740      -0.38346122       0.02633142
O      -18.81365586      28.83122143     -16.17382553       0.10102663       0.38843803       0.14680276
H      -18.66634525      29.17563133     -17.00425030       0.53092084       0.24103768      -0.12630104
H      -18.26875235      28.53505898     -15.56158349      -0.31881853       0.60672439      -0.29377875
O        2.87430697      26.84526424      -9.08936485      -0.61427346      -0.61590427      -0.10881636
H        3.90012276      27.02180326      -8.37549703       0.60531916       0.17673674       0.27167873
H        2.02188854      26.49984658      -8.71116077      -0.05234514       0.46568976       0.19982540
O      -18.11816306      18.97257405       1.92950372      -1.26780959      -0.47985261       0.95987903
H      -17.52616841      18.73863940       1.25761385       0.09256207      -0.51767458      -0.64781578
H      -18.97712874      18.75718825       1.99806893      -0.14918753       0.32644638       0.21740493
O       11.72214563      17.57268139       7.03285477       0.23541901      -0.25843026      -0.30735671
H       12.64419505      17.44866350       6.79189226       0.12582093       0.34225058      -0.03970385
H       11.14641022      18.14762193       6.53938655       0.07001978      -0.03459724      -0.25605474
O       -7.23280847     -11.24183828       5.15901658       0.12574901      -0.20323034      -0.95022340
H       -6.72558337     -11.36511856       4.30136059      -0.51557747      -0.29032647       0.06749888
H       -7.42474508     -11.98939682       5.67382863       0.04741434      -0.14930100       0.04263961
O      -24.17316658       3.37033894      10.68663189      -0.82424517      -1.24736069      -0.04403839
H      -24.89167797       4.01174315      10.53444857      -0.56022226       0.31711997       0.01640716
H      -23.39955649       3.62513407      10.30608068       0.12856362      -0.13677217      -0.14160788
O      -11.43775180      -8.25877835      18.47962267      -0.12166647      -0.84047126       0.25429701
H      -10.70009916      -8.64142741      18.97187594      -0.33786661       0.05559482      -0.33429761
H      -11.53408747      -7.96615891      17.54721037      -0.01786773       0.18052880       0.62693045
O        8.54459597       7.35079232      16.88118275      -2.13842533       0.30032646      -0.88000727
H        9.49276349       7.38381276      16.91848756       0.22632952       0.00737780       0.16035465
H        8.08138980       6.95269685      16.11642884       0.02529755       0.39034768       0.00850354
O      -11.62725546      -0.48710839      20.45059438       0.01480868      -0.10948410       0.49978781
H      -12.47633336      -0.03438484      20.69824819       0.10336765       0.37980957       0.06773662
H      -11.75113657      -0.58993418      19.54607827       0.06547733      -0.13424270       0.16061304
O       24.12233410       2.48699970      16.19916887      -1.05967975       0.87205077       0.04588844
H       23.98295337       2.45141878      17.16493831       0.15637831      -0.25558638      -0.43963187
H       24.13906357       1.77959485      15.65368266       0.20250732      -0.24613200      -0.00428656
O       -5.66866215     -17.93389202      -5.07634955       0.32343121       0.11869839      -1.56624075
H       -4.66424180     -17.74708128      -5.19887184      -0.24119188       0.22027095      -0.52543014
H       -5.98275106     -18.67216597      -5.53364853      -0.28108278       0.42679750       0.30773835
O       29.40887221      -8.95178869      -6.16252225      -2.21631889       0.50868041      -0.00573744
H       30.24707460      -8.94368677      -6.56646991       0.39749228      -0.09192869       0.02091656
H       29.01565521      -9.77039713      -5.81585316       0.25475761       0.47643339       0.05729746
O        8.80856186      -0.65385896       3.42772890       0.12850635       0.60394837       0.34928070
H        8.38175672      -0.01858708       2.81672349      -0.03405790      -0.01896173       0.08867066
H        8.37414625      -1.48141075       3.64405827      -0.06978533      -0.12697991      -0.04735217
O      -19.78664129      -3.13357687      24.75752321      -0.48694577       0.94014605      -0.02452759
H      -19.86684476      -3.97770666      24.35754153       0.15831945      -0.57656868      -0.26466063
H      -19.23258255      -3.21521142      25.46146899       0.11594744       0.57939180       0.17464978
O        2.44770897      -5.76848949      -6.04555314       0.99218413       0.15621340      -0.32855749
H        2.61059665      -5.81863446      -5.00716391       0.06944284      -0.36940439      -0.05966191
H        1.89360889      -6.58197348      -6.22213484       0.40972974       0.38710922       0.15278096
O        9.87805737       8.27434846       7.97238229       0.60419042      -0.17820757       0.77180107
H       10.36981049       8.46399205       7.16461139      -0.13591815      -0.04954190      -0.08673495
H       10.03684447       7.40890999       8.35253023       0.00973205       0.02779822      -0.22504645
O        5.38458278       9.73461777      -4.85458046       0.30450216       0.03165840      -0.96577718
H        6.12587589       9.19100910      -4.81193054       0.28711801      -0.23660519       0.06409166
H        4.76816304       9.75077158      -4.06298073      -0.01655170       0.00562508      -0.14236661
O       13.73559621      29.41138494      15.87565629      -0.43978905      -0.95964966       0.16126564
H       12.78110749      29.14419709      15.86735047      -0.10443853       0.20799818      -0.34286554
H       14.30449627      28.67566482      15.80829227      -0.26037174       0.06652959      -0.15725707
O       -2.82502943       3.97732707       1.71938446      -0.34578581      -0.02683282       0.49542108
H       -2.31230765       3.42191714       2.21845174      -0.31435210       0.10023635      -0.46759298
H       -2.62000208       4.95358609       1.62979421       0.22937842      -0.19161558      -0.18311098
O        7.82496248     -14.02546840      10.93211143       0.02780075      -0.11585420      -0.00321372
H        6.97145283     -14.24456075      10.90895586       0.24675346       0.40415332      -0.24044834
H        8.04576800     -14.31992639      10.07843629      -0.08738478      -0.37496609      -0.50530925
O       -2.52452589      10.55273523      24.29465960      -0.78330407      -0.33650401      -0.83420464
H       -1.98241379      10.10408952      23.49278156      -0.14069606       0.18477186      -0.05163242
H       -3.21040944      11.21452176      24.37875071      -0.45283623       0.25441022      -0.17789668
O       20.03140769      21.75211323       1.56155537      -0.08499356       0.59354820      -0.32284049
H       19.84430079      22.32208681       2.22302552      -0.38144357       0.25446976       0.12150611
H       19.58859025      20.91676502       1.40010373      -0.58577659      -0.33055024       0.26570815
O       12.19385781      10.02537893     -15.90085543       0.72558606       0.49764010       0.64645291
H       12.72018564       9.19274183     -15.65928676       0.07471029      -0.34708154      -0.07950776
H       12.44305723      10.11885073     -16.75151467      -0.14833912       0.24845647      -0.47866063
O      -11.38477157      22.21347948       1.07307487       0.24784146      -0.99564989      -0.26889327
H      -11.87363545      21.49356505       1.13787269      -0.11144734       0.24309834       0.20766249
H      -10.85011412      22.57999127       1.79672447       0.00965075      -0.11169021       0.24825574
O        2.92398558     -15.05923893      16.08424550      -0.80575542      -0.36789474      -1.27041917
H        3.11138043     -15.72971926      16.72528480      -0.07849141      -0.17652462       0.33972669
H        3.65219525     -14.44999900      16.03325187       0.05820224      -0.26934089       0.02752159
O        2.39064858      16.29046496       0.39125649      -0.66685834      -0.44257500       1.02495416
H        1.70181037      16.48238332      -0.39057953      -0.32658492       0.18734943      -0.00529083
H        3.04699690      15.63149408       0.66536125      -0.05793952      -0.22907930      -0.11804682
O       -5.74496202      -7.34506085       5.59873542      -0.89883055      -1.26011648       0.47215344
H       -5.21282162      -7.73705907       6.42147323      -0.14336922       0.05358026       0.14742746
H       -5.03684680      -6.81991457       5.27876321      -0.03974325       0.06110834       0.00418809
O       -2.14638187       2.41142230       6.66361099      -0.02288987       0.37808008      -0.54758210
H       -2.31810295       3.35215672       6.75134226      -0.14260326       0.34322611       0.00400732
H       -1.77806469       1.80351976       7.39779151       0.42486192      -0.31547403       0.66104987
O       13.19482995      -5.55050450      -1.45656514       0.83776867      -1.25235886       0.22313231
H       13.97039140      -5.31837508      -1.96728314      -0.12781686      -0.42419355       0.02561923
H       13.08249422      -6.42646803      -1.43683711       0.25096421      -0.30325694       0.08510194
O       11.81286824       4.88379032      22.72896359       0.08855149      -0.17470714      -0.28538597
H       11.17983750       4.19416033      22.98730938      -0.23385494      -0.01415076       0.15108364
H       12.15381312       4.72511444      21.80238833       0.22290539      -0.00991765       0.19837644
O        8.11291298      14.48057816      23.86158661      -1.56481352       0.24822806       1.29117436
H        9.02585262      14.79782809      23.67528275       0.12077430      -0.25208181      -0.25555175
H        8.07079332      13.64156539      24.09620570       0.01753647      -0.21462924      -0.01178585
O       -8.04434918       6.96523823      11.42782151       0.77332067      -1.02486003       0.42070666
H       -7.34629742       6.78449773      10.84370319      -0.12512809       0.15442224      -0.02035948
H       -8.47698349       6.49947905      12.15842367       0.08635006       0.23854113       0.02730189
192
Lattice="12.74357095637909 0.0 0.0 -5.289305595090827e-07 12.74357095637909 0.0 -5.289305595090827e-07 -5.289305595090827e-07 12.74357095637909" Properties=species:S:1:pos:R:3:momenta:R:3 step=140 time_fs=14.0 phase=production pbc="T T T"
O       11.68169600       0.73017165     -16.46970124       1.46801988       0.03567409      -0.07808832
H       12.30694856       0.97545838     -15.75411395       0.04283862      -0.14736606       0.05305790
H       10.96044667       0.08435727     -16.39671414       0.23553900       0.03913443       0.30649318
O       26.36228763      24.77279355       4.98155709      -0.33973576       0.37918704       2.16517978
H       26.68748469      23.92103400       4.66378326       0.18376599      -0.48941748      -0.25052449
H       25.70592067      25.16463291       4.40523895       0.28852223       0.02341146      -0.13777301
O        4.53829534      -0.34231635       6.57577784      -0.21796064      -0.99702039      -1.02543377
H        5.28700550      -0.92688693       6.77341309       0.04362034       0.40721218      -0.16559145
H        4.33851781       0.21246788       7.31002911       0.19505906      -0.05240377      -0.02197837
O       -2.85487168      -4.34456085       1.07360647       0.50959322       1.12616903       0.46436460
H       -2.55155985      -3.90322303       0.28967895      -0.01589748      -0.40281503       0.24266570
H       -3.64877870      -3.98884769       1.37321832      -0.26845871       0.44383826       0.00204792
O        4.32842446      15.91013508      10.70874804       1.09284289       1.36179841      -0.09998970
H        4.44654694      16.81831601      11.01410385       0.32560743      -0.37667212      -0.38237030
H        4.97939250      15.74984336       9.97830902      -0.19564363       0.10330736      -0.13850681
O       -1.35477159       6.57437486       5.13952808       0.51787536      -1.15605176      -0.42785956
H       -1.72813309       6.29340095       4.29590164      -0.14126074       0.03027786       0.45151640
H       -0.53754460       6.99985545       5.27673654       0.02769865       0.11623091       0.07193518
O       22.83229983      12.31403522       5.78165724       0.71092592      -0.63279954       0.27774859
H       23.22121965      13.21434407       6.08115566      -0.06042198       0.48947089       0.01016064
H       21.97568325      12.19041588       5.29249616      -0.64415582      -0.00649369       0.40588900
O       -1.09229921     -15.70787139       6.78030051      -0.77840402       0.78225089      -0.58053781
H       -0.56670570     -16.09275316       6.01198032      -0.08343643       0.03688209       0.18792283
H       -1.44440056     -14.94892535       6.52396864      -0.18805936       0.17007977      -0.14964220
O       15.48461384     -17.91398002       9.70282807      -0.48631679      -0.01704425       0.19852141
H       16.10921146     -18.41613101      10.21827263       0.48295792      -0.04125886       0.31776386
H       15.75165128     -16.97012667       9.50966477       0.29152169      -0.08557983       0.16005442
O        3.30817253     -14.65792618     -13.39601409       0.31323262      -0.00420760      -0.95738055
H        4.21769530     -14.80362007     -13.19049782       0.32196381       0.02235937       0.17074040
H        2.65290537     -15.26608201     -13.04489562       0.15876532      -0.35043337      -0.31484642
O       -5.75873856       1.62884947       2.87489987      -0.18593951       0.22832554       0.92936659
H       -6.38080066       1.09693266       2.29102795       0.16714929       0.29910815      -0.22908868
H       -5.42880003       2.49786144       2.66687180      -0.15452570       0.30106580      -0.25568253
O       -5.36689517      16.11404957      25.88836626       0.64915428       1.25239903      -0.71560574
H       -5.54791075      15.74948485      25.00801075      -0.09653294       0.29900603      -0.28222681
H       -4.31652087      16.07807219      26.27552629      -0.66673904      -0.22761478       0.05853638
O        7.51052696     -15.67528563      -8.41206045       0.51647268       1.32262901       1.63723441
H        8.01445092     -16.42874424      -8.25909726       0.09558184      -0.29235928       0.10856817
H        6.65083730     -15.27863302      -8.02982126       0.50582943      -0.28842560      -0.08770827
O       13.65782098       8.56940154      17.96548611      -0.38420879       0.49852545       0.10962817
H       14.02801175       8.78822887      17.03670276      -0.05341899       0.10876235       0.19674987
H       14.13411725       7.95846680      18.57849151      -0.13258717       0.05352840       0.28882797
O       -0.17642954       1.25324284      -1.19267969      -0.96239040       1.43365565       0.56313819
H        0.82742846       1.27722226      -1.32964536       0.18669467      -0.41422670      -0.02742333
H       -0.51203009       0.34981911      -1.03696670       0.01130386      -0.27103936      -0.37176248
O      -14.15154410      12.66303629      15.75540790       1.29578620       0.37863767      -1.28070045
H      -13.66977151      12.51712194      14.88123235       0.03050061       0.12925068       0.52064077
H      -14.77824260      12.02358710      16.14439128       0.05781488      -0.52139490       0.21185253
O      -16.32647050       5.94271971      12.30156419       2.07195535       1.10026226      -0.98329864
H      -16.84917371       5.82721215      11.47716127       0.23968095      -0.27524732       0.16493786
H      -16.29118096       6.80801475      12.26276624      -0.35478087      -0.43757491       0.08251879
O       -9.98007385      32.90251550      -9.60201421      -0.44061926       0.50616453      -0.20738991
H       -9.11303918      32.40353790      -9.50663114       0.13904362      -0.17439292      -0.22725724
H      -10.82303822      32.61614902      -9.96701683      -0.40363429      -0.28259386      -0.35222576
O       34.79280715      11.45745209      21.33202130       0.75377936      -0.68076739      -0.48762406
H       34.78748394      11.81342789      20.51661099       0.27326864       0.10566894      -0.35893231
H       35.41783378      10.77802793      21.76344521       0.52906392       0.01321206      -0.19415999
O       30.39753250     -12.60156387       2.12701128       0.05952336       1.52370475      -0.81088771
H       29.65916424     -12.27109187       2.54061934      -0.11263443      -0.26229220       0.06101446
H       30.26350302     -12.55639038       1.20651037       0.09996392       0.08027997       0.09867270
O       17.57358335       9.24298888      -7.45100625      -0.04198471      -0.76588093      -0.09623422
H       17.29184938       8.45688749      -7.70623795      -0.34119181      -0.36742331      -0.04824372
H       17.46678457       9.56624942      -6.55939111       0.21777644      -0.07878838      -0.22352127
O       -5.08848939       2.58049249      32.20222657       0.78235143       0.10362588       0.40478582
H       -5.87008403       2.05727559      32.07694089       0.50727832      -0.02778801       0.68926840
H       -4.39126579       2.15260152      32.64523121       0.05285520      -0.11342054       0.35208608
O        3.85331915       0.88435436      -0.24696541       1.90154021       0.18726617      -0.69539853
H        3.40444486       0.08099865      -0.29167626      -0.28392341       0.12291688       0.19659591
H        4.30733027       1.04015425      -1.05139659       0.10150048       0.24665350       0.28005355
O       23.20318406       3.23401731      11.69184953      -0.41131924      -0.29967029       0.66805893
H       23.48175703       3.66028311      12.42698776       0.41804333       0.39621392       0.11910221
H       23.66703109       2.35638016      11.66147635      -0.28766874      -0.21848913      -0.31372180
O       -1.41312496      31.84551331      15.06113369       0.83320188       0.36806669       1.19926955
H       -2.09899797      32.43167252      14.68298526       0.11060135       0.25702422      -0.01035767
H       -0.46397792      31.69972962      14.74823106      -0.37306553      -0.04000164       0.25184516
O        4.79100180      19.40810740       5.23372334      -0.13228051       0.58908274       0.09968060
H        4.09268329      18.91101949       5.70442268      -0.41462763      -0.27598364       0.29359020
H        5.55428001      18.84564038       5.06169657      -0.39801379       0.06977583      -0.18022174
O      -10.19837198      10.52712096       9.50710777      -0.53111657       0.51414664       1.27502756
H      -10.87653350      10.70422223       8.93824366      -0.65401877      -0.05901115       0.12729046
H      -10.29757030      10.69844605      10.48900925       0.24800701      -0.20190910      -0.34022568
O       17.69859126      17.76535448      26.08361073       0.01864971       0.49528876      -1.75983951
H       18.35918560      17.05977588      26.08133872      -0.10375092      -0.44290505       0.09857799
H       16.84754927      17.33141506      26.04760799      -0.00441796       0.11614004       0.04781494
O        6.92284205      18.66878143      10.13998059      -0.10494960      -0.27151594       0.37105407
H        7.37927766      19.29772672       9.57651030       0.10962978      -0.21956725       0.16744845
H        6.43705431      17.95453294       9.73196657      -0.35670239      -0.29201749       0.10483953
O       -0.65570428     -13.82687757      13.25180745      -0.92937882      -0.71820603      -0.25612281
H       -1.55258801     -14.20941890      12.96431547      -0.24689663       0.05934381       0.11669998
H       -0.18961142     -14.62314941      13.45300430       0.45653158      -0.19515536      -0.09408365
O        1.14084791       6.05044560       1.11748619      -0.35108036      -1.39664231       0.20765556
H        1.61330766       5.33497793       1.18902284       0.13468246       0.15450854      -0.21753874
H        1.18333866       6.74302733       0.44458634       0.40309123      -0.04468220       0.66683082
O        3.17441473       1.31031412       8.37844347       1.29341428      -0.33576621       0.24511608
H        2.33330319       1.22205512       8.28769840       0.26068851       0.14466243       0.11151890
H        3.63327312       1.10433503       9.24429235       0.17907298      -0.28092946      -0.15320472
O      -18.81386404      28.83222284     -16.17252605      -0.55278319       0.52590078      -0.11997475
H      -18.60698052      29.20151001     -17.03094608       0.65073481       0.30976569      -0.39605452
H      -18.27425176      28.58109296     -15.56588613       0.21163366       0.36089379       0.22295662
O        2.87239203      26.83999644      -9.08754958       0.06501796      -0.56321650       0.48995935
H        3.89193291      27.03038623      -8.38483167      -0.74242960       0.03223504      -0.44881067
H        2.04019598      26.54867841      -8.69005438       0.39306190       0.55196867       0.23722249
O      -18.12377888      18.96908925       1.93559354      -0.85945034      -0.32548018       0.97710295
H      -17.51581303      18.68434581       1.19016890       0.02411892      -0.53930907      -0.64384055
H      -19.00829375      18.78100991       2.01710354      -0.49577012       0.19093930       0.17477074
O       11.72282539      17.56975606       7.03079966       0.21328989      -0.34571043      -0.23488521
H       12.65356939      17.48290711       6.78687950       0.07382343       0.38178442      -0.04961710
H       11.15487549      18.14554109       6.51132828       0.12267489       0.00654903      -0.30358108
O       -7.23110674     -11.24177295       5.15246920       0.25728199      -0.00411669      -1.04416594
H       -6.77391339     -11.39459378       4.31338989      -0.45882191      -0.33265826       0.14823981
H       -7.41745734     -12.01108286       5.68063969       0.09769424      -0.28837646       0.08851330
O      -24.17803608       3.36241855      10.68619954      -1.24088777      -1.22508068       0.09211465
H      -24.93873772       4.03988502      10.53650914      -0.38630915       0.22814740       0.04542643
H      -23.37154424       3.61671961      10.28387991       0.38059457      -0.03842886      -0.28409016
O      -11.43825215      -8.26309559      18.48013140      -0.29423948      -0.72875408       0.30984928
H      -10.72694817      -8.63723933      18.93720628      -0.18693483      -0.00004908      -0.33083979
H      -11.53206268      -7.95288440      17.60461171       0.04063341       0.10200388       0.50710746
O        8.53070141       7.35221967      16.87479974      -2.17340714       0.32004358      -0.84586864
H        9.51279854       7.38373940      16.93096511       0.16047180      -0.00003177       0.11296163
H        8.08614788       6.99057586      16.11637015       0.06720330       0.38042487      -0.01758684
O      -11.62691529      -0.48745842      20.45342870      -0.13390335      -0.01055236       0.81365961
H      -12.46251571       0.00272981      20.70687596       0.17180544       0.37705354       0.12797674
H      -11.74196793      -0.60690942      19.54089327       0.10596584      -0.21307119      -0.22898251
O       24.11432933       2.49330675      16.19895307      -1.07250733       1.20615431       0.12407301
H       23.99631071       2.42475863      17.12280075       0.13986995      -0.29218143      -0.35124968
H       24.15756646       1.73899279      15.64441692       0.20737050      -0.55351470      -0.14353752
O       -5.66508003     -17.93110311      -5.08530039       0.72432113       0.46414529      -1.43402322
H       -4.70255724     -17.72439075      -5.24696353      -0.53407823       0.22358957      -0.46835258
H       -6.01615395     -18.64054279      -5.51201376      -0.42117078       0.17427250       0.11311490
O       29.39301478      -8.94785726      -6.16207130      -2.30473361       0.63644450      -0.01126305
H       30.28810319      -8.95419352      -6.56734923       0.43051964      -0.13346024      -0.02154425
H       29.03999126      -9.72733822      -5.80876831       0.26067200       0.35687489       0.09977448
O        8.80875436      -0.64988454       3.42945002       0.10698067       0.65513874       0.29286695
H        8.37988332      -0.02622423       2.83108858      -0.00069341      -0.12747992       0.19866229
H        8.36670728      -1.49185701       3.63823182      -0.06612484      -0.07730976      -0.07091893
O      -19.78916119      -3.12747431      24.75507739      -0.69879436       0.90830316      -0.29228277
H      -19.85334433      -4.03722076      24.32575450       0.11135223      -0.56124404      -0.30088213
H      -19.20772184      -3.15574824      25.49426969       0.33253270       0.62693110       0.47589465
O        2.45346554      -5.76760301      -6.04642808       0.97074966       0.07584607      -0.06445408
H        2.61651223      -5.85300137      -5.02755478       0.06076239      -0.33672474      -0.35445589
H        1.93711479      -6.54071370      -6.20627793       0.44064078       0.38954333       0.14622944
O        9.88104785       8.27302862       7.97661627       0.56048693      -0.07463996       0.75647577
H       10.35675809       8.45927178       7.15903141      -0.11846809      -0.03533667      -0.01984777
H       10.04056022       7.40974430       8.33014205       0.08217439      -0.01884417      -0.21571826
O        5.38520392       9.73465015      -4.85989171       0.05384338       0.13817345      -0.86820863
H        6.16035234       9.16084484      -4.80365932       0.38605522      -0.34102840       0.09694537
H        4.77399708       9.74933521      -4.08627417       0.13321820      -0.02339443      -0.32829951
O       13.73132719      29.40436399      15.87579059      -0.68487638      -0.74207485       0.19111486
H       12.77833415      29.16332281      15.83263100       0.05664046       0.21737770      -0.34958970
H       14.28385830      28.67155698      15.79122171      -0.13886033      -0.12434424      -0.17547635
O       -2.82770063       3.97829958       1.72143308      -0.60079397       0.40610438       0.19553589
H       -2.33200061       3.42160642       2.18187623      -0.07767189      -0.12160746      -0.26822388
H       -2.59658323       4.92302105       1.61416858       0.25319261      -0.39746681      -0.13857664
O        7.82625282     -14.02484034      10.93169869       0.56881564       0.01773386       0.01334232
H        6.96727248     -14.20988972      10.88504369      -0.33652038       0.29256128      -0.23362547
H        8.03913190     -14.35582680      10.02313671      -0.04853263      -0.35501661      -0.55330501
O       -2.52850039      10.54971158      24.28779504      -0.60518910      -0.40116157      -0.92019074
H       -2.00543903      10.12939700      23.49805988      -0.32825374       0.34099498       0.18172510
H       -3.25304003      11.23488755      24.35507774      -0.38841649       0.14141536      -0.28099527
O       20.02984308      21.75353761       1.55850539      -0.07754272       0.26925799      -0.61122223
H       19.80171501      22.35397160       2.24718306      -0.45616364       0.39988574       0.34202449
H       19.53392298      20.88884207       1.42991141      -0.47809578      -0.16413205       0.35144882
O       12.19776578      10.02695749     -15.89470802       0.81000845       0.21740011       0.96052499
H       12.71898189       9.16740538     -15.66483264      -0.08801756      -0.14936086      -0.06489405
H       12.42990774      10.14714133     -16.81965767      -0.12957151       0.32464833      -0.84228526
O      -11.38138866      22.20777067       1.07106238       0.62673463      -0.45316454      -0.35267976
H      -11.89863097      21.49136380       1.16281706      -0.40150149      -0.23630234       0.30511803
H      -10.85044931      22.56455318       1.82139046      -0.03836127      -0.18234302       0.24792297
O        2.91835430     -15.06075110      16.07536995      -0.95588189      -0.45553528      -1.26979473
H        3.10416741     -15.74872841      16.75910529      -0.07555908      -0.18914717       0.33364968
H        3.66273325     -14.46931301      16.03373141       0.15750248      -0.15124024       0.00346330
O        2.38587109      16.28731339       0.39706670      -0.84030124      -0.27146016       0.87644088
H        1.68426960      16.49153382      -0.37839393      -0.03099554       0.01949857       0.25104909
H        3.03578191      15.60604865       0.64947109      -0.17124505      -0.26841899      -0.20923009
O       -5.74985668      -7.35299685       5.60240554      -0.78895555      -1.44882979       0.82107258
H       -5.23773359      -7.73273153       6.42541399      -0.37352641       0.02788056      -0.06023671
H       -5.03453078      -6.80563049       5.27180626       0.05781364       0.20521707      -0.12773573
O       -2.14619870       2.41303122       6.66036038       0.03407697       0.22790977      -0.37512874
H       -2.32791916       3.38164016       6.75353147      -0.05429437       0.22721235       0.04462376
H       -1.74118792       1.78363666       7.45285898       0.32938851      -0.09129875       0.47560407
O       13.19917315      -5.55653646      -1.45464775       0.81616504      -0.86510717       0.37871274
H       13.96452922      -5.35654399      -1.96978617       0.03559358      -0.36293592      -0.08593297
H       13.10107135      -6.48026345      -1.43003196       0.15239251      -0.76480846       0.05118359
O       11.81286096       4.88214594      22.72543762       0.12344564      -0.27215756      -0.40105415
H       11.15890481       4.19560490      22.99883208      -0.17278691       0.05821095       0.10858909
H       12.16933218       4.72573141      21.82838072       0.11370660       0.02580523       0.34562486
O        8.10346201      14.48282929      23.86755971      -1.34824667       0.72078338       1.12931175
H        9.02894261      14.77103971      23.65153522      -0.06036425      -0.28503566      -0.19718604
H        8.06879999      13.59774632      24.09948128      -0.04322770      -0.61483959       0.09399267
O       -8.03982632       6.95905713      11.43005608       0.55262447      -0.84021005       0.51507941
H       -7.34819095       6.79222958      10.83614790       0.07946959       0.01135008      -0.12318275
H       -8.46486589       6.51763897      12.16037799       0.14245180       0.13067837       0.04408128
192
Lattice="12.742775028436602 0.0 0.0 -5.288975239797644e-07 12.742775028436602 0.0 -5.288975239797644e-07 -5.288975239797644e-07 12.742775028436602" Properties=species:S:1:pos:R:3:momenta:R:3 step=150 time_fs=15.0 phase=production pbc="T T T"
O       11.69009533       0.73030884     -16.46917612       1.51169907       0.03351819      -0.09363913
H       12.30431305       0.95857232     -15.75036187      -0.07282335      -0.19280694       0.01167350
H       10.98566520       0.09147672     -16.36544451       0.28148277       0.09466152       0.31347016
O       26.35866462      24.77308657       4.99459451      -0.28829239       0.17136961       2.16390627
H       26.70181256      23.87837209       4.64143643       0.12462630      -0.30785093      -0.18165105
H       25.73127218      25.16612374       4.39010660       0.26262243       0.03713316      -0.16530591
O        4.53652427      -0.34866381       6.56862865      -0.28447946      -1.05914925      -1.16257266
H        5.29292606      -0.89201061       6.75901939       0.10321069       0.28985685      -0.11809588
H        4.35357819       0.21233954       7.31628598       0.11793174       0.04653988       0.15398375
O       -2.85124558      -4.33791277       1.07670283       0.55490401       0.96211875       0.60646612
H       -2.54802076      -3.93791808       0.30391837       0.09012763      -0.30305762       0.03224744
H       -3.68529244      -3.94139494       1.37800074      -0.43308938       0.50250545       0.07603986
O        4.33509741      15.91708607      10.70703903       1.14831091       1.17777942      -0.23940690
H        4.47954306      16.78608939      10.97900109       0.36073412      -0.20317454      -0.30033254
H        4.95658433      15.76032859       9.96946216      -0.24743837       0.11990337      -0.05386648
O       -1.35181138       6.56666201       5.13703936       0.44710588      -1.20556905      -0.24655096
H       -1.73970625       6.29402200       4.33273105      -0.11073806      -0.01865829       0.27939141
H       -0.52818816       7.01555769       5.28118333       0.14838173       0.20727844       0.02296359
O       22.83497803      12.31000164       5.78302837       0.60213420      -0.42360248       0.27970231
H       23.20554430      13.24876999       6.07622616      -0.22985803       0.23127752      -0.10156576
H       21.92504957      12.19167143       5.33630161      -0.34506216       0.04698704       0.50495289
O       -1.09600269     -15.70360429       6.77639586      -0.48737543       0.35426504      -0.55179633
H       -0.57691937     -16.08687103       6.03607777      -0.11778402       0.05872296       0.29711020
H       -1.47486359     -14.90648319       6.50102968      -0.40764403       0.62073015      -0.29424288
O       15.48081053     -17.91233419       9.70344073      -0.40271293       0.16096101       0.22797698
H       16.15354495     -18.41456510      10.24678533       0.41395633       0.07308672       0.25412357
H       15.77646533     -16.98885354       9.52926997       0.23717830      -0.31435668       0.25199118
O        3.30960292     -14.65696432     -13.40121988       0.25666978       0.00536930      -0.99723063
H        4.25116555     -14.80440270     -13.17196913       0.32835694      -0.05061795       0.18102654
H        2.66987762     -15.29921150     -13.07339289       0.19916790      -0.34207194      -0.28778620
O       -5.75998492       1.62955845       2.88020912      -0.31243837       0.08845567       0.86161520
H       -6.35646365       1.13604940       2.27427418       0.30769996       0.48983556      -0.12177014
H       -5.44477774       2.52604203       2.63893008      -0.19468322       0.24202148      -0.29934015
O       -5.36189036      16.12065629      25.88252185       0.87598115       1.21873588      -0.67749735
H       -5.55348788      15.77724271      24.98316874      -0.02174818       0.29794259      -0.17562355
H       -4.39358863      16.05757041      26.27400536      -0.92427953      -0.16907248      -0.06156407
O        7.51247636     -15.66522631      -8.40153216       0.36561371       1.56739774       1.59852142
H        8.02437272     -16.46359885      -8.24529709       0.09547413      -0.40741452       0.15580581
H        6.70871849     -15.31433462      -8.03954112       0.61896229      -0.43067316      -0.09070326
O       13.65510008       8.57190883      17.96432875      -0.23790366       0.48812080      -0.09401169
H       14.01601757       8.79344668      17.07369985      -0.16364838       0.01463215       0.55521526
H       14.11664972       7.97003861      18.59899531      -0.20432940       0.19028919       0.15713730
O       -0.18165711       1.26162805      -1.18932515      -0.74191997       1.29859873       0.50483312
H        0.82861916       1.23486222      -1.32805959      -0.16617738      -0.44832005       0.05916252
H       -0.50544667       0.33039608      -1.07369197       0.12662402      -0.10716870      -0.38278387
O      -14.14277745      12.66413461      15.74647951       1.22292545       0.22865270      -1.23479581
H      -13.67086054      12.52689299      14.93722476      -0.03747007       0.07293403       0.58564956
H      -14.76624425      11.98006252      16.15896957       0.18464703      -0.33592596       0.09534053
O      -16.31287860       5.94686055      12.29463470       2.04564542       0.35181919      -0.99793459
H      -16.82414561       5.79774177      11.49490796       0.23819398      -0.32324748       0.19123192
H      -16.32236614       6.80215002      12.27132734      -0.31368023       0.34388644       0.10749154
O       -9.98170185      32.90341338      -9.60263536      -0.33004204       0.42681629      -0.21176630
H       -9.11420909      32.38979020      -9.52947180      -0.18227706      -0.05812303      -0.25250646
H      -10.85432282      32.58391690     -10.00007504      -0.20766564      -0.31740324      -0.31644862
O       34.79598886      11.45125792      21.32941775       0.99091542      -1.08733189       0.03655667
H       34.81461321      11.82625947      20.46619363       0.32668890       0.16124504      -0.61890288
H       35.45424840      10.79388486      21.72919009       0.26391409       0.32045744      -0.47392871
O       30.39699167     -12.59179907       2.12252534       0.36646066       1.41169788      -0.60713018
H       29.63030803     -12.28883349       2.55851485      -0.41986925      -0.13047273       0.28862526
H       30.27049685     -12.54728510       1.19512778       0.07993104       0.09180985      -0.31283476
O       17.57266491       9.23875719      -7.45113803       0.08824032      -0.46874383      -0.12649049
H       17.25220159       8.40024616      -7.71449064      -0.43730406      -0.74431179      -0.11645688
H       17.48762772       9.55916561      -6.57480961       0.23126494      -0.05070700      -0.08735010
O       -5.08343397       2.58200579      32.20241584       0.80539147       0.43611697       0.32691479
H       -5.82781467       2.04720140      32.14193195       0.32650359      -0.19061994       0.68186505
H       -4.37694637       2.13500982      32.68276894       0.21597328      -0.22650632       0.44624019
O        3.86482658       0.88608360      -0.25041996       1.91051323       0.36925714      -0.43267925
H        3.36784155       0.07954344      -0.27321920      -0.44084412      -0.12149652       0.17504356
H        4.32408200       1.06948351      -1.03707646       0.24119842       0.34917153       0.01525098
O       23.19917691       3.23095379      11.69441118      -0.40295356      -0.59793036       0.45541176
H       23.52476075       3.70780680      12.45310032       0.47556982       0.53695199       0.36948255
H       23.63466782       2.34107451      11.62924676      -0.34506447      -0.07952000      -0.32221285
O       -1.40777036      31.84567218      15.06760342       0.83153924       0.34108274       1.23149770
H       -2.08089941      32.45380096      14.68084273       0.25481178       0.23824654      -0.01384949
H       -0.50942598      31.69753824      14.77188409      -0.50504238       0.02692060       0.23435729
O        4.78925788      19.41032563       5.23434111      -0.38727922       0.52683759       0.23098034
H        4.05935482      18.88860907       5.72849332      -0.23703125      -0.14120535       0.18913102
H        5.51818654      18.84956913       5.04398549      -0.31286879       0.01750047      -0.18003551
O      -10.20014284      10.52932437       9.51506213      -0.28477783       0.41831214       1.42544318
H      -10.95034114      10.70028991       8.94358492      -0.83538685      -0.01794998       0.02555477
H      -10.27335974      10.67857393      10.45005181       0.22921940      -0.18271730      -0.39408145
O       17.69792047      17.76719183      26.07112692       0.13482771       0.44173767      -1.77495484
H       18.34792133      17.01893472      26.08906546      -0.11975615      -0.35388501       0.09277287
H       16.84109657      17.34156523      26.05083191      -0.10221597       0.11678287       0.05189807
O        6.92151608      18.66586942      10.14188081      -0.21283067      -0.33383850       0.44910640
H        7.38958928      19.27515263       9.58895192       0.11807262      -0.20924172       0.08907255
H        6.40429896      17.92622957       9.74194575      -0.28704555      -0.24104255       0.12667393
O       -0.66215837     -13.83086147      13.24912872      -1.15932967      -0.89655077      -0.33502094
H       -1.56794190     -14.19669718      12.97539501      -0.06036105       0.17690262       0.12987620
H       -0.14172689     -14.64035277      13.44426006       0.48973017      -0.13404171      -0.08170718
O        1.13723204       6.04317697       1.11905832      -0.78516844      -0.91459039       0.35776566
H        1.64636647       5.32210587       1.16785275       0.52328985      -0.37458134      -0.21853173
H        1.22426720       6.73965456       0.50420239       0.44135476       0.01374453       0.53260311
O        3.18524943       1.30819741       8.38008381       2.24562838      -0.32938867       0.43175544
H        2.31849874       1.22990238       8.29503747      -0.51177487       0.02598992       0.05804935
H        3.64260217       1.08263781       9.22060360       0.02507385      -0.16608380      -0.29967496
O      -18.81762368      28.83432188     -16.17387161      -0.97706933       0.74569875      -0.65246261
H      -18.54134588      29.22690222     -17.06538603       0.64948312       0.22072923      -0.26408770
H      -18.23026672      28.60506698     -15.52136080       0.60947989       0.19764540       0.60731956
O        2.87447628      26.83521803      -9.08328208       0.64697221      -0.44311176       0.64213370
H        3.78389321      27.02657825      -8.44588315      -1.33760077      -0.06077233      -0.74511562
H        2.08216992      26.59901419      -8.66059665       0.39449128       0.49370412       0.37103543
O      -18.12628620      18.96589778       1.94059689      -0.36045065      -0.34485774       0.67997276
H      -17.52772061      18.63598376       1.14335905      -0.29625415      -0.42022586      -0.30058679
H      -19.06664179      18.79352386       2.03169241      -0.68571902       0.10036031       0.12553435
O       11.72330230      17.56638169       7.02899409       0.17638290      -0.38905200      -0.21889535
H       12.65598417      17.52079788       6.78222024      -0.00930709       0.41679126      -0.03453724
H       11.16992297      18.14515722       6.48105303       0.20420576       0.00165363      -0.30189276
O       -7.22925410     -11.24062743       5.14592066       0.17230053       0.13316191      -0.95572979
H       -6.81284105     -11.42905388       4.32345836      -0.34637508      -0.39093572       0.03904358
H       -7.40425982     -12.03927672       5.68680086       0.16678825      -0.28004064       0.02723788
O      -24.18507979       3.35520088      10.68618461      -1.48093898      -1.03735560       0.08902915
H      -24.95996529       4.05261365      10.54253972      -0.07876485       0.03419880       0.09242891
H      -23.33175574       3.61465773      10.25406542       0.34064005      -0.01971045      -0.28081037
O      -11.44019462      -8.26676135      18.48151567      -0.57998593      -0.63668371       0.53233272
H      -10.73092382      -8.64229500      18.90726713       0.10032434      -0.11798494      -0.25583769
H      -11.52508307      -7.94257467      17.63573222       0.08774478       0.10678706       0.13395368
O        8.51729672       7.35394910      16.86901250      -1.99808536       0.40034964      -0.67838084
H        9.51811104       7.38290459      16.93781352      -0.05334097      -0.00776219       0.04653213
H        8.09101012       7.02357806      16.10652142       0.03374575       0.29720393      -0.18075970
O      -11.62753147      -0.48717915      20.45777546      -0.30754206       0.08706126       0.97458722
H      -12.43994345       0.03770790      20.71864565       0.28119181       0.33207002       0.12739690
H      -11.72977224      -0.63020496      19.50596490       0.12557462      -0.25488407      -0.40864669
O       24.10628755       2.50100671      16.19793093      -1.05060750       1.29375300      -0.18592905
H       24.00655091       2.39355857      17.10067307       0.09982172      -0.34714955      -0.06395935
H       24.17619300       1.68061961      15.63029586       0.20152688      -0.57797661      -0.08303097
O       -5.65946963     -17.92601698      -5.09327545       0.92775418       0.80100936      -1.26883144
H       -4.76175779     -17.70092659      -5.29039729      -0.63755266       0.24154704      -0.44036143
H       -6.06402224     -18.63653039      -5.51138968      -0.55813615      -0.09811788      -0.09657601
O       29.37781455      -8.94259605      -6.16238011      -1.99989501       0.90668776      -0.24110107
H       30.31730877      -8.96807521      -6.56549548       0.16828822      -0.15858601       0.06703839
H       29.06070354      -9.70457939      -5.79293754       0.19567585       0.08321409       0.22777945
O        8.80888894      -0.64603507       3.43113495       0.12728186       0.56215151       0.34578467
H        8.37854680      -0.04035976       2.85195705      -0.02893708      -0.14376557       0.21437963
H        8.36110252      -1.49472947       3.62942213      -0.03582686       0.02049758      -0.10576025
O      -19.79232362      -3.12254749      24.75132791      -0.68677230       0.62595116      -0.37074255
H      -19.84108925      -4.07710452      24.30218058       0.11555704      -0.25004979      -0.14346983
H      -19.17486858      -3.09409401      25.53851256       0.26831630       0.62945936       0.40306468
O        2.45979453      -5.76616163      -6.04557150       1.16186898       0.31380432       0.20740811
H        2.62371021      -5.88226092      -5.07208156       0.09927719      -0.26798570      -0.53867945
H        1.97022313      -6.51746824      -6.19711091       0.21049050       0.03927287       0.01836731
O        9.88372110       8.27253161       7.98068832       0.51172592       0.08212006       0.73688766
H       10.34570107       8.45639146       7.15931563      -0.09325406      -0.01127157       0.03042539
H       10.05195169       7.40239322       8.31045801       0.16387368      -0.12411277      -0.17614975
O        5.38531021       9.73473868      -4.86484427       0.15043366       0.06360716      -0.87262263
H        6.19182912       9.12958357      -4.79322013       0.23282051      -0.26303049       0.10708361
H        4.79041899       9.74505105      -4.12240084       0.18270231      -0.05153816      -0.38425883
O       13.72567160      29.39873068      15.87605659      -0.85186821      -0.50055559       0.21808396
H       12.78797892      29.18210603      15.79731422       0.13942802       0.19971169      -0.35546417
H       14.27525234      28.64876460      15.77190432      -0.02975612      -0.29213420      -0.20057891
O       -2.83225853       3.98141313       1.72159187      -0.94764468       0.63894175      -0.09434483
H       -2.32612779       3.39610270       2.16645336       0.18735903      -0.39108463      -0.05478381
H       -2.56873093       4.88354363       1.60164985       0.32550658      -0.36295204      -0.12155651
O        7.83079651     -14.02391217      10.93033127       1.02588328      -0.02239730      -0.25625985
H        6.90860428     -14.18359228      10.86382379      -0.81863182       0.24369877      -0.17725026
H        8.03546328     -14.38397700       9.97737451      -0.00751812      -0.23535982      -0.36303173
O       -2.53194217      10.54678811      24.28048877      -0.58397570      -0.32339281      -0.94826294
H       -2.04471920      10.16793225      23.52360303      -0.46662636       0.44962662       0.35284820
H       -3.28284355      11.23784381      24.32097772      -0.22899123      -0.06599442      -0.38584042
O       20.02758800      21.75294080       1.55444411      -0.27690988       0.02100104      -0.62081463
H       19.75650297      22.38983638       2.28023076      -0.42373857       0.31883819       0.28381834
H       19.49667151      20.88686609       1.46799411      -0.25464157       0.15316786       0.42657221
O       12.20259697      10.02695556     -15.88829790       1.02203252      -0.00550253       0.75341142
H       12.70097133       9.16476366     -15.67233865      -0.26591610       0.11430034      -0.11765814
H       12.41187501      10.17607298     -16.89261723      -0.23529552       0.26298176      -0.61970088
O      -11.37600527      22.20467364       1.06877703       0.85978306      -0.15428354      -0.35819884
H      -11.94419738      21.45405627       1.19634624      -0.51068115      -0.44915095       0.37724864
H      -10.85749862      22.54099741       1.84292991      -0.12367781      -0.27394469       0.18974556
O        2.91211276     -15.06329900      16.06705683      -0.99909511      -0.68808941      -1.09321333
H        3.09510156     -15.75816124      16.78179614      -0.10846582      -0.00543632       0.13321244
H        3.68041159     -14.48011691      16.03229982       0.19471454      -0.10376027      -0.01027903
O        2.38006339      16.28508646       0.40197302      -0.99950564      -0.12855301       0.73170129
H        1.69541850      16.48412590      -0.34233200       0.25815565      -0.14906769       0.48241920
H        3.01290004      15.57835293       0.62431036      -0.29570509      -0.27441217      -0.30620093
O       -5.75367588      -7.36165194       5.60790853      -0.55827499      -1.49534001       1.06019953
H       -5.28421567      -7.73030164       6.40930093      -0.57745450       0.01170123      -0.25263520
H       -5.03052323      -6.78374636       5.25632773      -0.00641833       0.21303984      -0.16833610
O       -2.14574936       2.41422729       6.65826538       0.06977814       0.21818318      -0.16446521
H       -2.32729277       3.39054345       6.75849073       0.06681795      -0.05214448       0.06342254
H       -1.71398821       1.78556394       7.48866489       0.22280040       0.13582695       0.26062519
O       13.20317184      -5.56120423      -1.45176631       0.76009725      -0.85113060       0.52038129
H       13.97468825      -5.38906702      -1.98317043       0.17236121      -0.31878467      -0.17897097
H       13.11249747      -6.56142925      -1.42727264       0.11175689      -0.81500857      -0.00023027
O       11.81275505       4.87986473      22.72161827       0.06669757      -0.36532664      -0.34387572
H       11.14561366       4.20570120      23.00519565      -0.08519912       0.15390309       0.05141970
H       12.17615174       4.72867723      21.86178595       0.05562678       0.03435058       0.33144359
O        8.09534236      14.48697322      23.87270763      -1.14419679       0.84154761       1.05445878
H        9.01243418      14.74020332      23.63465177      -0.25851504      -0.32586863      -0.11802136
H        8.06229681      13.53108994      24.10857783      -0.07560655      -0.65891561       0.10328828
O       -8.03639862       6.95415075      11.43252509       0.41981254      -0.61723933       0.50206361
H       -7.33148189       6.78626574      10.81968715       0.23622843      -0.12022239      -0.18573888
H       -8.44943839       6.52265297      12.16776512       0.16112984      -0.02224445       0.12748131
192
Lattice="12.741900375811184 0.0 0.0 -5.288612209290636e-07 12.741900375811184 0.0 -5.288612209290636e-07 -5.288612209290636e-07 12.741900375811184" Properties=species:S:1:pos:R:3:momenta:R:3 step=160 time_fs=16.0 phase=production pbc="T T T"
O       11.69876731       0.73060498     -16.46885334       1.57443737       0.08727858      -0.18657112
H       12.29351091       0.93894616     -15.74741624      -0.11659508      -0.20214529       0.04129907
H       11.01075829       0.10006581     -16.33342795       0.23394141       0.06825347       0.32139550
O       26.35540902      24.77128068       5.00731203      -0.18161419      -0.21831727       2.07971999
H       26.70602371      23.86360602       4.63039854      -0.00516477       0.05175702      -0.03079472
H       25.75344211      25.16841902       4.37277797       0.23044012       0.04414660      -0.18007577
O        4.53409628      -0.35504339       6.56089095      -0.40440836      -1.00841563      -1.18052489
H        5.30758567      -0.87158602       6.74947138       0.19866993       0.13124572      -0.07144526
H        4.36121887       0.21894878       7.33554435       0.04955415       0.06889458       0.22329315
O       -2.84840615      -4.33190755       1.08125999       0.26432365       0.91935215       0.91535338
H       -2.53391844      -3.96099098       0.29515665       0.19010334      -0.17706059      -0.20582835
H       -3.72120127      -3.89560578       1.38311585      -0.26252010       0.40944188       0.01113478
O        4.34171435      15.92221610      10.70452454       1.08799976       0.84565785      -0.32437404
H        4.51667943      16.78325610      10.95684445       0.40882395       0.17996107      -0.13439165
H        4.93412615      15.76895687       9.96183072      -0.19056666       0.07136053      -0.10944487
O       -1.34876032       6.55890624       5.13604405       0.54370917      -1.15918626       0.04446376
H       -1.75074029       6.28811245       4.34684891      -0.12022555      -0.09419192       0.01275027
H       -0.51272184       7.03706503       5.27973332       0.14285735       0.22952182      -0.04979275
O       22.83654240      12.30728769       5.78433196       0.41320565      -0.18154905       0.27895683
H       23.17411415      13.25746424       6.06103197      -0.37768234      -0.03532760      -0.19957223
H       21.90721838      12.19746084       5.38972848       0.00963399       0.08563656       0.59229468
O       -1.09871575     -15.70048191       6.77262718      -0.47336294       0.39884203      -0.52939497
H       -0.58746596     -16.08018636       6.06511885      -0.08788004       0.04991034       0.28654854
H       -1.51617616     -14.84043723       6.47030045      -0.40174186       0.63364373      -0.30150606
O       15.47781556     -17.91002015       9.70458492      -0.22816878       0.14755995       0.37704128
H       16.18424989     -18.39764708      10.26391038       0.22925972       0.24861006       0.10621406
H       15.79668161     -17.02502816       9.55638673       0.21175216      -0.40751236       0.30736518
O        3.31125989     -14.65607697     -13.40635561       0.37802918      -0.05089463      -0.96740172
H        4.27443603     -14.81041511     -13.15546239       0.13200651      -0.08900861       0.13155676
H        2.69229517     -15.32950900     -13.09937875       0.26725804      -0.29710641      -0.26398855
O       -5.76150810       1.63025890       2.88521799      -0.28698459       0.20869251       0.85303562
H       -6.32404429       1.18861776       2.26383445       0.32207194       0.56801426      -0.11326720
H       -5.46773418       2.53940797       2.61058449      -0.28670088       0.02354279      -0.26968280
O       -5.35565339      16.12687059      25.87646571       0.97358878       1.17567382      -0.73296390
H       -5.55101063      15.80616937      24.97285002       0.06346927       0.31451705      -0.00600805
H       -4.49284247      16.04310741      26.26040365      -1.05736742      -0.11005183      -0.16059358
O        7.51510858     -15.65477747      -8.39156169       0.73190203       1.42841304       1.44985378
H        8.02761078     -16.49849217      -8.22941579      -0.04098073      -0.29060326       0.14898237
H        6.75796186     -15.35484345      -8.04095015       0.35318857      -0.40165196       0.07176567
O       13.65275057       8.57417673      17.96260771      -0.26157890       0.43260538       0.00056152
H       13.99881682       8.79253187      17.13125656      -0.13864489      -0.00164727       0.57365875
H       14.09382291       7.99266643      18.60801253      -0.23488089       0.27215624       0.06528362
O       -0.18554833       1.26887682      -1.18633117      -0.54123107       1.09117957       0.44470957
H        0.79612291       1.19080886      -1.31821456      -0.47676715      -0.44690920       0.13677711
H       -0.48780999       0.33011470      -1.11093141       0.22439195       0.09423933      -0.37893859
O      -14.13520260      12.66417091      15.73902010       0.90686786       0.07202532      -0.80396726
H      -13.66889949      12.52669052      14.98167670       0.07785886      -0.07277004       0.31184168
H      -14.73844049      11.95926069      16.15895761       0.36689336      -0.07008828      -0.07736453
O      -16.29896239       5.94689844      12.28798772       2.13429476      -0.13121788      -0.87889262
H      -16.80389750       5.76208649      11.50775327       0.13979907      -0.41151550       0.06787999
H      -16.35096362       6.86520241      12.28304765      -0.29524736       0.89564756       0.15926843
O       -9.98314729      32.90328403      -9.60351759      -0.39676356       0.27094830      -0.29928323
H       -9.14634637      32.38795157      -9.55419729      -0.46517189       0.05350688      -0.26515900
H      -10.85785640      32.55220488     -10.02490738       0.12799305      -0.28154865      -0.20068158
O       34.80018766      11.44320196      21.32871332       1.12099449      -1.20901014       0.10708099
H       34.84606813      11.83843389      20.40530336       0.36375852       0.07316188      -0.52271276
H       35.46861435      10.83420491      21.67184107       0.11964086       0.48182081      -0.64556471
O       30.39756651     -12.58235283       2.11910856       0.44222183       1.40755673      -0.48689089
H       29.58204197     -12.29862424       2.58963465      -0.47027573      -0.10864357       0.31279292
H       30.27467292     -12.53670166       1.15470240       0.04935951       0.10730371      -0.44429907
O       17.57208481       9.23527698      -7.45183945       0.07975938      -0.54685624      -0.29344115
H       17.20870813       8.32263549      -7.72403796      -0.39560218      -0.74648521      -0.06294881
H       17.50964139       9.55513301      -6.57533915       0.24588192      -0.01845534       0.06402920
O       -5.07735985       2.58521569      32.20232741       1.09651627       0.63276987       0.39244799
H       -5.80773726       2.01884871      32.20549406       0.08202715      -0.38390824       0.66918762
H       -4.35569073       2.11373613      32.72272942       0.17283773      -0.17635081       0.38853772
O        3.87605205       0.88830868      -0.25238755       1.81560952       0.33245938      -0.23790421
H        3.32458080       0.06616198      -0.25876056      -0.40446948      -0.10311469       0.11661282
H        4.35088556       1.10612271      -1.04512274       0.29515523       0.39392311      -0.15537974
O       23.19550281       3.22680848      11.69666231      -0.25613607      -0.64015357       0.58460394
H       23.56606109       3.75489086      12.48372884       0.38233073       0.39926443       0.22704625
H       23.59734829       2.34142753      11.59838934      -0.38244033       0.08604714      -0.29183601
O       -1.40337321      31.84564082      15.07450376       0.53278060       0.36671466       1.36700990
H       -2.05011205      32.47398134      14.67842441       0.36784105       0.22265906      -0.01510045
H       -0.55099932      31.69893964      14.78829212      -0.30617102       0.03963924       0.10904468
O        4.78528325      19.41207011       5.23601868      -0.80898677       0.47819511       0.43576996
H        4.04853018      18.88264070       5.73876147       0.02395508       0.04675928       0.02708633
H        5.49531506      18.84433402       5.02549489      -0.14454878      -0.10304612      -0.19303497
O      -10.20110307      10.53094673       9.52237875      -0.30906224       0.35356472       1.09845336
H      -11.02787355      10.69720599       8.94923928      -0.71538131      -0.04056751       0.13905325
H      -10.25233798      10.66279214      10.41913078       0.18556195      -0.12096310      -0.19036044
O       17.69794469      17.76823221      26.05841350       0.26193739       0.28102902      -1.78227026
H       18.33166725      16.99104139      26.09574025      -0.19157284      -0.18756062       0.07934879
H       16.82693189      17.35261015      26.05438968      -0.15408758       0.13888894       0.05831551
O        6.91907749      18.66191525      10.14412171      -0.43787778      -0.55049812       0.50509481
H        7.40223898      19.25564628       9.59111050       0.15361518      -0.16217541      -0.03462173
H        6.38338251      17.90848433       9.75721313      -0.12286231      -0.08875848       0.20481644
O       -0.66958121     -13.83629122      13.24605779      -1.25750374      -1.18089748      -0.36382502
H       -1.56347039     -14.17453248      12.98806962       0.14622459       0.24955661       0.14722932
H       -0.09891263     -14.64260915      13.43369821       0.37726576       0.07280667      -0.11925744
O        1.13147587       6.03756692       1.12192592      -1.02165639      -0.84153684       0.60369488
H        1.70779349       5.27182133       1.14550482       0.69574340      -0.59179188      -0.24225603
H        1.26960057       6.74784437       0.54621921       0.49089762       0.16735242       0.33094552
O        3.20029177       1.30607661       8.38210879       2.61759331      -0.33292510       0.37045505
H        2.25150471       1.22919341       8.30022756      -0.76592015      -0.02872886       0.06933915
H        3.64045214       1.07032204       9.19118874      -0.04663997      -0.09446416      -0.25421560
O      -18.82251563      28.83747178     -16.17800795      -0.95681996       0.90069991      -0.97921663
H      -18.48081648      29.23831961     -17.07437104       0.55918951       0.05480357       0.05665653
H      -18.16482722      28.62080348     -15.45789894       0.63179833       0.19142102       0.59386316
O        2.87989740      26.83103327      -9.07874036       1.14859609      -0.33307097       0.60280514
H        3.63892237      27.01603875      -8.52487651      -1.58288679      -0.10657356      -0.85950378
H        2.11153067      26.64034791      -8.61553756       0.19894927       0.39136594       0.54462463
O      -18.12670073      18.96218399       1.94374155      -0.25672254      -0.45548198       0.39364910
H      -17.56987561      18.60070229       1.13145648      -0.58499902      -0.27399205       0.05741487
H      -19.12645309      18.80082320       2.04051264      -0.49683825       0.08930624       0.05329529
O       11.72339034      17.56273804       7.02712297       0.10839483      -0.40202404      -0.23583056
H       12.65099907      17.56139588       6.77938224      -0.06457644       0.43809293      -0.01518249
H       11.19338284      18.14261436       6.45260948       0.29038296      -0.02969994      -0.27040768
O       -7.22816652     -11.23887746       5.14031674       0.02386410       0.16970354      -0.74401053
H       -6.83999663     -11.46938596       4.31777247      -0.22206125      -0.45123141      -0.15303556
H       -7.38357909     -12.06021142       5.68283068       0.24561850      -0.15421245      -0.10646523
O      -24.19242535       3.34940771      10.68559553      -1.42992664      -0.77087219      -0.05212796
H      -24.95101166       4.04573068      10.55313748       0.22444635      -0.16932606       0.13911367
H      -23.31165840       3.60940513      10.23295024       0.01849393      -0.08911674      -0.12590806
O      -11.44385700      -8.26986141      18.48429342      -0.85731768      -0.55985015       0.77923306
H      -10.70650752      -8.65875761      18.88466071       0.37225880      -0.22548629      -0.18687971
H      -11.51353069      -7.93079572      17.62778176       0.13230642       0.11915484      -0.25968059
O        8.50513464       7.35619955      16.86434416      -1.78041359       0.49404987      -0.47008424
H        9.50031568       7.38118483      16.93744354      -0.29387948      -0.01751483      -0.03111457
H        8.09104229       7.04686685      16.07777305      -0.01873527       0.19196808      -0.38210805
O      -11.62918437      -0.48641290      20.46216118      -0.48748420       0.14465259       0.88058582
H      -12.40572854       0.06609826      20.72701702       0.40102859       0.24661387       0.06698298
H      -11.71645649      -0.65423471      19.46899634       0.12898914      -0.22964652      -0.28568307
O       24.09832132       2.50832106      16.19416144      -1.00428221       1.12457764      -0.67807346
H       24.01270470       2.35665163      17.10873764       0.06229861      -0.40567573       0.24209614
H       24.19280325       1.63560603      15.63189137       0.16993858      -0.31923753       0.14783751
O       -5.65375277     -17.91942738      -5.10028567       0.74487056       0.89132564      -1.14159246
H       -4.81672460     -17.67343534      -5.33453353      -0.45878598       0.30533380      -0.48473183
H       -6.12056547     -18.65124232      -5.52645468      -0.58406522      -0.18602338      -0.19423722
O       29.36486354      -8.93555928      -6.16434520      -1.56434585       1.17356088      -0.53238526
H       30.31322449      -8.98316448      -6.55222231      -0.21129921      -0.16059660       0.19473570
H       29.07415800      -9.71023004      -5.76293428       0.12526382      -0.20232342       0.37624795
O        8.80929945      -0.64307380       3.43342309       0.21392139       0.38426287       0.48408864
H        8.37112642      -0.05121789       2.86958260      -0.11814100      -0.06825525       0.14141722
H        8.35844310      -1.48810300       3.61747133      -0.01102649       0.10471695      -0.13076942
O      -19.79469004      -3.11932513      24.74764080      -0.52012169       0.36124496      -0.27024119
H      -19.82829964      -4.08488137      24.29498580       0.11875975       0.08520044       0.03092514
H      -19.15790508      -3.03380833      25.56349415       0.04557600       0.59664274       0.13832984
O        2.46739473      -5.76283222      -6.04355450       1.34863678       0.63321081       0.25703033
H        2.63700206      -5.90534561      -5.12419302       0.18546621      -0.22359870      -0.48698945
H        1.97645607      -6.53370465      -6.20237554      -0.06803071      -0.36282167      -0.12941279
O        9.88605030       8.27285865       7.98471591       0.46968595       0.19290020       0.76372314
H       10.33773743       8.45623627       7.16306573      -0.05275713       0.02059123       0.05154504
H       10.07056011       7.38603112       8.29427229       0.22679892      -0.18533229      -0.15013768
O        5.38695401       9.73395973      -4.87034434       0.53655624      -0.10710607      -1.04925128
H        6.20050234       9.11178598      -4.78277691      -0.05676912      -0.08056406       0.09810707
H        4.80335623       9.73808628      -4.15368489       0.06825251      -0.07747667      -0.23782386
O       13.71946096      29.39419678      15.87638210      -0.83005896      -0.33807670       0.24223408
H       12.80038622      29.19744063      15.76105696       0.11694407       0.15222380      -0.36813587
H       14.27307427      28.61505517      15.75031383      -0.01446062      -0.33248040      -0.21820624
O       -2.83891989       3.98511818       1.72027306      -1.26889538       0.62636102      -0.27504331
H       -2.29792275       3.34791621       2.16819655       0.36748780      -0.56781244       0.07471436
H       -2.53126879       4.85694325       1.58973041       0.44390718      -0.16833690      -0.12050873
O        7.83673623     -14.02348474      10.92709179       0.97660777      -0.16606925      -0.55644358
H        6.82420919     -14.15744792      10.85028865      -0.78320996       0.28460562      -0.08646159
H        8.03731862     -14.39996927       9.95042908       0.04778451      -0.11238945      -0.17238452
O       -2.53579381      10.54470151      24.27352717      -0.77035002      -0.09024072      -0.72160628
H       -2.08991133      10.21065403      23.55439837      -0.42548979       0.41319438       0.25339341
H       -3.29707551      11.22028396      24.27711963      -0.06635597      -0.27955428      -0.47679320
O       20.02366470      21.75124408       1.55106757      -0.55112396      -0.07382609      -0.43482854
H       19.71901075      22.40857168       2.29672293      -0.31404626       0.09191185       0.05224935
H       19.48208481      20.91547615       1.51200928      -0.02166813       0.45382575       0.47545335
O       12.20863416      10.02578581     -15.88358525       1.19372746      -0.11417720       0.41963582
H       12.66700416       9.18676217     -15.68591464      -0.39228754       0.31700981      -0.17633857
H       12.38207010      10.19483148     -16.93498459      -0.35620643       0.12977973      -0.27268595
O      -11.36989330      22.20223540       1.06669149       0.83682049      -0.19454751      -0.28209557
H      -11.98775437      21.41272817       1.23396024      -0.36085687      -0.31819845       0.38370535
H      -10.87343713      22.50815691       1.85710297      -0.21973570      -0.36773485       0.09829509
O        2.90592970     -15.06713681      16.05991747      -0.93300204      -0.88253016      -0.87605280
H        3.08268442     -15.74667012      16.78149019      -0.14052603       0.21387859      -0.11229530
H        3.69685022     -14.49034283      16.02985375       0.13074985      -0.13806224      -0.01679331
O        2.37344908      16.28351682       0.40617800      -1.07298776      -0.02385135       0.68414710
H        1.73120373      16.46143020      -0.28805560       0.44084566      -0.28083287       0.58913908
H        2.97796690      15.55116357       0.59012648      -0.41022157      -0.26449314      -0.38975887
O       -5.75608208      -7.37008983       5.61418762      -0.38454991      -1.38448873       1.04451742
H       -5.34531265      -7.73147338       6.38130853      -0.64753566      -0.07113561      -0.25437015
H       -5.03733389      -6.76573994       5.24009454      -0.14571335       0.13770304      -0.15051540
O       -2.14500983       2.41528009       6.65751928       0.12923156       0.15227835       0.06914294
H       -2.31484770       3.37241005       6.76488637       0.17955578      -0.28671325       0.07865061
H       -1.69811118       1.81009846       7.50153994       0.10008743       0.36781754       0.01331293
O       13.20689895      -5.56694080      -1.44820645       0.76367520      -1.16120721       0.59497252
H       13.99229927      -5.41948390      -2.00159742       0.18820935      -0.31956647      -0.18712093
H       13.12299888      -6.62512010      -1.43069035       0.12708828      -0.47199970      -0.07552652
O       11.81200880       4.87713014      22.71860863      -0.04704645      -0.40495833      -0.10928525
H       11.14021142       4.22421173      23.00625595      -0.01735936       0.22365180       0.00673144
H       12.18112937       4.73072398      21.88404482       0.07386789       0.01017552       0.13503047
O        8.08809057      14.49048024      23.87758319      -1.07349298       0.59647825       1.07789463
H        8.98111306      14.70661592      23.62503813      -0.33566936      -0.33496943      -0.05283140
H        8.05356768      13.47880942      24.11361759      -0.09099570      -0.37450149       0.02919290
O       -8.03337325       6.95047335      11.43452550       0.40535948      -0.43824036       0.39373504
H       -7.30567821       6.76911080      10.80234806       0.25725577      -0.21489497      -0.13281706
H       -8.43191961       6.51292043      12.18284826       0.19219445      -0.16139346       0.18815516
192
Lattice="12.740915332117089 0.0 0.0 -5.288203360221532e-07 12.740915332117089 0.0 -5.288203360221532e-07 -5.288203360221532e-07 12.740915332117089" Properties=species:S:1:pos:R:3:momenta:R:3 step=170 time_fs=17.0 phase=production pbc="T T T"
O       11.70767471       0.73132397     -16.46924367       1.61575096       0.16498864      -0.36456963
H       12.28240955       0.92009774     -15.73765464      -0.08156665      -0.17912364       0.14143533
H       11.02778928       0.10309167     -16.30036203       0.12948400      -0.00930354       0.33073523
O       26.35250717      24.76684129       5.01928005      -0.11363354      -0.58369613       1.93753972
H       26.69718421      23.88477591       4.63505305      -0.12667387       0.40533455       0.12886118
H       25.77346322      25.17042715       4.35580430       0.22903914       0.03329987      -0.15191632
O        4.53100774      -0.36084533       6.55351467      -0.47138013      -0.88610109      -1.03677064
H        5.32801609      -0.86437859       6.74331995       0.20880792       0.02971829      -0.04849399
H        4.36371883       0.22201749       7.35356160       0.01457791      -0.02003674       0.13765534
O       -2.84774859      -4.32580614       1.08772096      -0.11410563       0.97299987       1.19230046
H       -2.51214187      -3.97279796       0.26656598       0.24128375      -0.08167866      -0.35352604
H       -3.73179023      -3.86317793       1.37811322       0.04374824       0.24654475      -0.11379511
O        4.34775328      15.92532498      10.70166998       0.99623054       0.60317564      -0.32510714
H        4.55825438      16.81644101      10.95046812       0.44584531       0.49130217       0.00917343
H        4.92004276      15.77127870       9.94469876      -0.09367412       0.00253589      -0.22412341
O       -1.34471187       6.55159510       5.13679894       0.74795520      -1.05392128       0.31549534
H       -1.76246739       6.27531985       4.33574699      -0.11596682      -0.15151911      -0.21675153
H       -0.50444556       7.05675760       5.27004219       0.01092263       0.17592049      -0.14276900
O       22.83679411      12.30598571       5.78572040       0.26776314       0.06398335       0.33365134
H       23.12938806      13.23968484       6.03668808      -0.49964490      -0.30806822      -0.28990377
H       21.92171605      12.20602523       5.44909438       0.29549450       0.10699689       0.62039224
O       -1.10211145     -15.69574775       6.76897570      -0.68042271       0.76952571      -0.47739633
H       -0.59153520     -16.07629223       6.08702284       0.01372258      -0.00249366       0.15627403
H       -1.54861595     -14.78959644       6.44391211      -0.26081085       0.37366395      -0.22778991
O       15.47564168     -17.90845131       9.70678759      -0.10181267      -0.11767516       0.58917148
H       16.19519719     -18.36503008      10.26612177       0.02462700       0.37347821      -0.03665516
H       15.81789236     -17.05564287       9.58529171       0.25694981      -0.20070445       0.28749242
O        3.31390764     -14.65547553     -13.41109889       0.57306101      -0.12055042      -0.91532683
H        4.27396065     -14.81895001     -13.14535159      -0.13787835      -0.10743204       0.05253606
H        2.72149726     -15.35472127     -13.12270213       0.33327016      -0.24709147      -0.23273912
O       -5.76240833       1.63211606       2.89052750      -0.13957494       0.44049134       0.96826175
H       -6.29812445       1.24193627       2.24677179       0.17556732       0.50370102      -0.25576371
H       -5.49903673       2.53080505       2.58712112      -0.35244846      -0.17616584      -0.20442092
O       -5.35020138      16.13291898      25.86946377       0.59448998       1.21698465      -0.91630703
H       -5.54101998      15.83506582      24.97592952       0.12634829       0.29714837       0.09175162
H       -4.58195964      16.03214208      26.24565430      -0.69925140      -0.09882880      -0.06281914
O        7.52099917     -15.64585870      -8.38264944       1.39537605       1.07060774       1.23671975
H        8.01275198     -16.51285790      -8.21626452      -0.25215748      -0.02235798       0.10505382
H        6.76908862     -15.38746181      -8.02091960      -0.13123443      -0.28596046       0.33466176
O       13.64950687       8.57594918      17.96217345      -0.47711359       0.36507740       0.32680172
H       13.99111354       8.79464772      17.17299383       0.01700834       0.06962245       0.27727572
H       14.07098190       8.01895578      18.61176010      -0.19904209       0.26381385       0.05764407
O       -0.18861869       1.27499584      -1.18365151      -0.50951908       0.95898836       0.40384092
H        0.74493724       1.14918556      -1.30257730      -0.50128725      -0.39915940       0.17354758
H       -0.46527338       0.34458957      -1.14644758       0.21362480       0.17167106      -0.34708999
O      -14.12960057      12.66335188      15.73445334       0.57952318       0.00625046      -0.30089371
H      -13.65178696      12.50912354      14.99261510       0.25476962      -0.27160648      -0.06419712
H      -14.69426805      11.96283369      16.14233579       0.49574572       0.13707472      -0.22350579
O      -16.28435566       5.94533133      12.28197090       2.19311379      -0.12368401      -0.79268274
H      -16.79429284       5.71627234      11.50696127       0.04677870      -0.50266435      -0.03842327
H      -16.37703266       6.96114616      12.30139302      -0.26322753       0.96172154       0.22901838
O       -9.98567693      32.90216952      -9.60499455      -0.72411437       0.22102584      -0.42746809
H       -9.19508908      32.39059450      -9.57900921      -0.50044652       0.02175965      -0.25584753
H      -10.82722343      32.52506350     -10.03695473       0.48023112      -0.22164694      -0.06131586
O       34.80419491      11.43544163      21.32681604       1.01976670      -0.98586982      -0.22661560
H       34.87968564      11.83578434      20.36948531       0.37810083      -0.11400742      -0.16160989
H       35.48096530      10.87807039      21.60521219       0.23573689       0.39618636      -0.66502455
O       30.39743322     -12.57248330       2.11584730       0.25518010       1.49733163      -0.54775816
H       29.54276693     -12.31086554       2.61373375      -0.26731650      -0.16657422       0.17406175
H       30.27647907     -12.52472686       1.12005812       0.04008324       0.11794437      -0.22589027
O       17.57079276       9.23001794      -7.45385359      -0.06520308      -0.94345564      -0.54699506
H       17.17716746       8.26473970      -7.72252761      -0.21820852      -0.41357035       0.08315231
H       17.53298419       9.55431658      -6.56164942       0.26077630       0.01475552       0.19900762
O       -5.06915412       2.58896072      32.20276833       1.42229134       0.61188134       0.57338063
H       -5.80696192       1.97530905      32.26778239      -0.03806226      -0.47522188       0.65847124
H       -4.34780229       2.10421537      32.74946886      -0.02854918      -0.00618988       0.20090293
O        3.88650750       0.88973460      -0.25368208       1.69670825       0.14957898      -0.22374754
H        3.29363991       0.06566940      -0.25109055      -0.21097595       0.10768131       0.03764485
H        4.37676447       1.14399255      -1.06100505       0.22035573       0.37296516      -0.13770107
O       23.19265070       3.22307699      11.70010632      -0.09970624      -0.45132434       0.84001114
H       23.59373140       3.78190109      12.49192651       0.21767832       0.15257277      -0.04447766
H       23.55881258       2.35352803      11.57067548      -0.35533065       0.13180463      -0.26091887
O       -1.40123753      31.84554030      15.08229325       0.12445939       0.39974987       1.55531354
H       -2.01016043      32.49284757      14.67555743       0.44213318       0.21981604      -0.02256943
H       -0.56455458      31.69993773      14.78942531       0.03577220       0.02929081      -0.06531358
O        4.77872412      19.41334471       5.23888243      -1.18027936       0.42003157       0.61674330
H        4.06273669      18.89440968       5.73328748       0.26205799       0.21663460      -0.12291256
H        5.48814797      18.82731733       5.00591581      -0.00949823      -0.20445939      -0.19655500
O      -10.20285201      10.53217964       9.52663959      -0.53205441       0.31484485       0.51487921
H      -11.08131545      10.68980694       8.97322706      -0.38340737      -0.09555138       0.37315983
H      -10.23597516      10.65407094      10.41564995       0.13358577      -0.03970630       0.14286652
O       17.69842092      17.76793925      26.04545634       0.32608795       0.06687675      -1.78146535
H       18.30779096      16.98051201      26.10050661      -0.26707678      -0.00242788       0.05900669
H       16.81080781      17.36695087      26.05841641      -0.14000118       0.18655661       0.06536294
O        6.91513776      18.65640020      10.14656680      -0.65874455      -0.76059026       0.54293066
H        7.41790224      19.24001172       9.58127892       0.17208136      -0.13731456      -0.14323214
H        6.38001754      17.90648543       9.78030229       0.06011775       0.06868612       0.27930201
O       -0.67723132     -13.84318838      13.24281126      -1.21156730      -1.39209479      -0.34866141
H       -1.54279973     -14.14828105      13.00113806       0.23461758       0.24853291       0.12964790
H       -0.06890524     -14.62461683      13.41902901       0.23854320       0.26713412      -0.15927184
O        1.12518136       6.03118467       1.12621393      -0.95599564      -1.12333654       0.80478447
H        1.77161583       5.21880952       1.12014728       0.57700369      -0.43863828      -0.27450726
H        1.31920623       6.77040015       0.57004412       0.52357695       0.29449783       0.17199064
O        3.21572896       1.30389400       8.38302158       2.41651877      -0.34474086       0.11241389
H        2.18531391       1.22553220       8.30841478      -0.52826213      -0.04116234       0.11400074
H        3.63584753       1.06275299       9.17500585      -0.02752945      -0.06584934      -0.03904816
O      -18.82601472      28.84102415     -16.18297930      -0.64040073       0.98415878      -1.04214521
H      -18.43097833      29.23351164     -17.05209930       0.42703822      -0.10714430       0.37425281
H      -18.11314597      28.64047615     -15.41210894       0.39075117       0.25704930       0.31421214
O        2.88654399      26.82676423      -9.07574544       0.89313456      -0.44002862       0.02219811
H        3.50531717      27.00952315      -8.59346565      -0.95727891       0.07110706      -0.42938077
H        2.11603901      26.67064906      -8.55280821      -0.10356280       0.27553787       0.71840065
O      -18.12727049      18.95744920       1.94518525      -0.40235211      -0.60650399       0.13660814
H      -17.63771012      18.58049271       1.15434610      -0.82285318      -0.11408655       0.40396172
H      -19.15401178      18.80936699       2.04131299      -0.09325879       0.11697976      -0.03380718
O       11.72285931      17.55889505       7.02507521       0.01090136      -0.40815573      -0.25254119
H       12.64427893      17.60293687       6.77801951      -0.03695357       0.43827922      -0.00284180
H       11.22358086      18.13706320       6.42736892       0.33614600      -0.05096722      -0.23984582
O       -7.22779334     -11.23703612       5.13596624      -0.07147251       0.13849455      -0.56778312
H       -6.85651678     -11.51435764       4.29447442      -0.13879413      -0.48067199      -0.29846648
H       -7.35621066     -12.06696362       5.66559374       0.29846131      -0.00791045      -0.22951420
O      -24.19900580       3.34519301      10.68397787      -1.31459848      -0.53405324      -0.19874785
H      -24.91408980       4.01998717      10.56766821       0.47525606      -0.33747742       0.17105435
H      -23.32524794       3.59672565      10.22851458      -0.32707360      -0.16211187       0.04747442
O      -11.44879761      -8.27242302      18.48815238      -1.00760340      -0.47985114       0.90775047
H      -10.66111184      -8.68288130      18.86625871       0.50787521      -0.26631616      -0.17591392
H      -11.49781314      -7.92034910      17.58831420       0.17101446       0.06292909      -0.46989318
O        8.49395314       7.35884992      16.86057979      -1.68112218       0.54417617      -0.35755243
H        9.46197831       7.37840268      16.92941772      -0.45474136      -0.02766443      -0.10423889
H        8.08774539       7.06105956      16.03265257      -0.02414152       0.11954920      -0.49362367
O      -11.63168536      -0.48543122      20.46542808      -0.59934740       0.14921175       0.68965148
H      -12.36183250       0.08615420      20.72835588       0.46095651       0.17593347      -0.00264369
H      -11.70328999      -0.67369299      19.45068536       0.12145954      -0.16648060      -0.05185444
O       24.09040796       2.51435515      16.18761142      -0.97211561       0.89726435      -0.98645183
H       24.01589418       2.31515271      17.13949427       0.04710304      -0.43093325       0.35951915
H       24.20537718       1.61983995      15.65652368       0.12619571      -0.00082151       0.37546552
O       -5.65015983     -17.91310855      -5.10674101       0.24809955       0.67515424      -1.10370308
H       -4.84549351     -17.63765088      -5.38589837      -0.13011180       0.40402279      -0.58342955
H       -6.17103891     -18.66099272      -5.54332440      -0.43427033      -0.00580348      -0.14076814
O       29.35403312      -8.92719774      -6.16778104      -1.26997231       1.28045749      -0.70456901
H       30.27447723      -8.99778169      -6.52797059      -0.50521445      -0.15416038       0.27969135
H       29.08253256      -9.73757100      -5.72123221       0.10738238      -0.32797168       0.44610316
O        8.81032529      -0.64115123       3.43658582       0.34616032       0.23933826       0.62692605
H        8.35387303      -0.05264089       2.87826572      -0.22082461       0.03886445       0.04227722
H        8.35665299      -1.47650184       3.60419899      -0.01861677       0.11698528      -0.13195962
O      -19.79581811      -3.11758656      24.74439401      -0.34787665       0.13087305      -0.16617779
H      -19.81510719      -4.05991947      24.30478691       0.12015420       0.41980922       0.20890495
H      -19.16325934      -2.97862156      25.56176205      -0.18329346       0.52541918      -0.13090241
O        2.47556560      -5.75797208      -6.04214212       1.32701601       0.74257062       0.01346727
H        2.66103337      -5.92629338      -5.15820675       0.31925037      -0.21817787      -0.19231039
H        1.96189501      -6.57903001      -6.21975481      -0.18687688      -0.51239176      -0.22558307
O        9.88807469       8.27343456       7.98901131       0.44233148       0.18068237       0.84340260
H       10.33426107       8.45903818       7.16751267      -0.00153083       0.04904171       0.04814290
H       10.09348506       7.36904280       8.27858154       0.25322610      -0.13119569      -0.16586897
O        5.39123081       9.73199907      -4.87711661       0.98271802      -0.27948394      -1.27763430
H        6.18003871       9.11257037      -4.77371451      -0.34081144       0.10280988       0.07977103
H        4.80102383       9.72857811      -4.16589049      -0.11010312      -0.10177454      -0.01889107
O       13.71381764      29.39006394      15.87670311      -0.64408325      -0.28442598       0.26116347
H       12.80652981      29.20703093      15.72289837       0.02226416       0.08998102      -0.39177787
H       14.26729178      28.58425780      15.72767779      -0.09319855      -0.23748320      -0.21767020
O       -2.84695656       3.98810238       1.71833519      -1.37172582       0.41524550      -0.28212519
H       -2.26105973       3.29349111       2.17496452       0.34385499      -0.49268231       0.03497844
H       -2.48199040       4.84844581       1.57848870       0.55738414      -0.01803924      -0.10307644
O        7.84130460     -14.02394310      10.92183295       0.72289861      -0.33367625      -0.88721437
H        6.76410242     -14.12661844      10.84360587      -0.43829548       0.31730089      -0.04270128
H        8.04034759     -14.40274214       9.94531847       0.01221373       0.03786376       0.09780413
O       -2.54126943      10.54426606      24.26853518      -1.07825057       0.20912031      -0.26796295
H       -2.12240288      10.24348210      23.56154438      -0.22729973       0.26452044      -0.09954371
H       -3.29689040      11.18336871      24.22535177       0.04809984      -0.44221926      -0.54139097
O       20.01809462      21.74925039       1.54895942      -0.72553332       0.03077372      -0.20795839
H       19.69288220      22.40376669       2.28948564      -0.18891688      -0.15837973      -0.20029035
H       19.48609218      20.96669834       1.55989925       0.09851842       0.57559286       0.50825425
O       12.21508855      10.02470541     -15.88089820       1.18822416       0.06206546       0.04967339
H       12.62812251       9.21577700     -15.70240442      -0.36055968       0.24597427      -0.17688094
H       12.34152169      10.19925295     -16.94379813      -0.45162811      -0.02338369       0.06261796
O      -11.36437813      22.19871100       1.06518090       0.65257101      -0.41182216      -0.19584160
H      -12.00919369      21.39337131       1.26927276      -0.09091290      -0.03678938       0.33689684
H      -10.89773547      22.46696820       1.86271014      -0.28360391      -0.43238760       0.03726848
O        2.90034051     -15.07167908      16.05380213      -0.81755832      -0.94960496      -0.73742199
H        3.06783042     -15.71725441      16.76037286      -0.15417731       0.33495326      -0.26448382
H        3.70336641     -14.50588313      16.02663594       0.00837103      -0.20109541      -0.02572174
O        2.36703254      16.28235938       0.41094005      -0.91707628       0.05042188       0.92612270
H        1.77101535      16.43020414      -0.23831051       0.32955238      -0.31959556       0.37875907
H        2.93452997      15.52312142       0.54936690      -0.46782414      -0.29247566      -0.44166786
O       -5.75785164      -7.37723020       5.61924591      -0.35058012      -1.11258070       0.71594610
H       -5.40413200      -7.74710752       6.36808179      -0.55408091      -0.27177638       0.01611824
H       -5.05881954      -6.75749949       5.22750735      -0.30245165       0.01536556      -0.09398825
O       -2.14376833       2.41528108       6.65807968       0.22729163      -0.12964222       0.27530527
H       -2.29363818       3.34265227       6.77337968       0.24317583      -0.27220927       0.10988642
H       -1.69395473       1.85595523       7.49075361      -0.01562181       0.57018241      -0.21873722
O       13.21081259      -5.57465560      -1.44439808       0.85747272      -1.48877844       0.59807512
H       14.00584903      -5.45112228      -2.01682235       0.09903405      -0.33785876      -0.11884743
H       13.13556502      -6.65121608      -1.44203528       0.15061790      -0.07636441      -0.15847963
O       11.81054764       4.87432882      22.71702858      -0.11610399      -0.37268366       0.15985121
H       11.13859210       4.24651884      23.00404758      -0.01074285       0.22782494      -0.01073072
H       12.18977838       4.72950935      21.88329468       0.12294491      -0.02825446      -0.11218578
O        8.08047872      14.49201144      23.88257300      -1.23473253       0.25912876       1.15677146
H        8.95383327      14.67449726      23.61902800      -0.17528197      -0.29344925      -0.04190967
H        8.04336643      13.45709152      24.11055835      -0.10656278      -0.04969027      -0.05316320
O       -8.03007417       6.94758083      11.43563162       0.47511259      -0.34356899       0.25699962
H       -7.28450912       6.74489022      10.79581980       0.14976133      -0.26393707       0.02904798
H       -8.40945309       6.49200388      12.19993702       0.26239290      -0.24722792       0.16635836
192
Lattice="12.739825399476613 0.0 0.0 -5.287750976283522e-07 12.739825399476613 0.0 -5.287750976283522e-07 -5.287750976283522e-07 12.739825399476613" Properties=species:S:1:pos:R:3:momenta:R:3 step=180 time_fs=18.0 phase=production pbc="T T T"
O       11.71661523       0.73244039     -16.47064200       1.61540454       0.20722239      -0.53880099
H       12.27640526       0.90431732     -15.71730959      -0.02234035      -0.14269761       0.24074365
H       11.03478233       0.09877455     -16.26673399       0.04321139      -0.06995229       0.32670073
O       26.34952465      24.76046607       5.03029754      -0.13995458      -0.76076097       1.80653711
H       26.67952649      23.93299693       4.65271304      -0.16844877       0.57979587       0.22500853
H       25.79471053      25.17081318       4.34363341       0.24898073       0.02524562      -0.09117579
O        4.52778908      -0.36587673       6.54722672      -0.43428295      -0.76672410      -0.82503117
H        5.34361295      -0.86300864       6.73817297       0.10441438       0.00767832      -0.04847007
H        4.36423312       0.21349985       7.35893170       0.00668071      -0.15686126      -0.01945339
O       -2.84910307      -4.31905448       1.09520446      -0.38005584       1.12139284       1.22475350
H       -2.48977110      -3.97936421       0.23422045       0.19378316      -0.07795836      -0.26234782
H       -3.71255110      -3.84694875       1.36100446       0.33765037       0.08169086      -0.23105310
O        4.35350030      15.92768451      10.69885569       1.02632284       0.66763505      -0.29452695
H        4.60063749      16.86482455      10.95326194       0.41784449       0.46440080       0.04619206
H        4.91295585      15.76798454       9.91936887      -0.05869421      -0.03339490      -0.25488951
O       -1.33944945       6.54483815       5.13873365       0.91009620      -0.97615813       0.41926366
H       -1.77057381       6.25966568       4.30930873      -0.03687830      -0.14488250      -0.28226617
H       -0.51178417       7.06922375       5.25097648      -0.16171108       0.09148330      -0.23820112
O       22.83660920      12.30582815       5.78767397       0.35072287       0.17605699       0.47195505
H       23.07461565      13.19878857       6.00439932      -0.56220156      -0.45214958      -0.34786651
H       21.95183354      12.21557040       5.50604073       0.29792706       0.10164589       0.53656030
O       -1.10695436     -15.68847008       6.76574781      -0.92488063       1.15564547      -0.38647474
H       -0.58395028     -16.07864784       6.09334809       0.13903628      -0.07358364      -0.01365391
H       -1.56717791     -14.76451608       6.42443024      -0.12666765       0.12269635      -0.16300556
O       15.47392117     -17.90862384       9.71019633      -0.03602564      -0.41866321       0.78033331
H       16.18821891     -18.32611093      10.25752651      -0.12469866       0.37211658      -0.10629089
H       15.84436236     -17.05631710       9.60885849       0.30783146       0.15628227       0.20830121
O        3.31772680     -14.65511118     -13.41544604       0.75090326      -0.16085081      -0.88117214
H        4.24817884     -14.82866704     -13.14304335      -0.36437477      -0.11713423      -0.02437493
H        2.75572487     -15.37618525     -13.14184640       0.36502523      -0.22899212      -0.17835314
O       -5.76230207       1.63522069       2.89677114      -0.00053666       0.58596164       1.14725627
H       -6.29180386       1.28262804       2.21143273      -0.06022003       0.32264441      -0.46288544
H       -5.53223193       2.51127420       2.57042526      -0.32132631      -0.17989412      -0.13614944
O       -5.34821948      16.13940812      25.86082344      -0.12084334       1.36209104      -1.17242191
H       -5.52734346      15.86007860      24.98189595       0.13587077       0.23615495       0.04725189
H       -4.61459120      16.01932654      26.25177052       0.05422660      -0.14296215       0.25784266
O        7.53066886     -15.63890685      -8.37487712       1.90588644       0.79300985       1.08041867
H        7.97873818     -16.50148303      -8.20758578      -0.41514024       0.20440773       0.06185563
H        6.73565628     -15.40934832      -7.97659561      -0.49880401      -0.20250850       0.53867258
O       13.64445656       8.57732916      17.96373669      -0.79286725       0.33070351       0.66884033
H       14.00135944       8.80596234      17.17911694       0.21592436       0.17842297      -0.11651167
H       14.05474232       8.04028689      18.61893874      -0.10245872       0.17998922       0.13180996
O       -0.19228106       1.28077855      -1.18112147      -0.71361205       0.98317699       0.39008662
H        0.70906165       1.11229337      -1.28511228      -0.20939271      -0.36644126       0.18250924
H       -0.44852291       0.35863344      -1.17791219       0.13100527       0.10428469      -0.30023255
O      -14.12536341      12.66257655      15.73231506       0.45357938       0.12644418      -0.01005983
H      -13.61803003      12.47252641      14.96977556       0.40109532      -0.44562152      -0.34940404
H      -14.64502392      11.97688517      16.11712975       0.45667931       0.13007628      -0.23943338
O      -16.26958116       5.94506205      12.27607816       2.15576181       0.20822507      -0.79235547
H      -16.78921793       5.66796503      11.50352354       0.03646505      -0.45989545       0.00526521
H      -16.39966139       7.03636316      12.32322978      -0.23100411       0.56827132       0.23228649
O       -9.99055743      32.90095063      -9.60712460      -1.11766356       0.32922674      -0.51344735
H       -9.23577377      32.38280082      -9.60209661      -0.32651128      -0.13836646      -0.23308247
H      -10.76674701      32.50275931     -10.03672341       0.69144638      -0.19574223       0.02649197
O       34.80676062      11.42950001      21.32227947       0.77870231      -0.62706579      -0.65446881
H       34.91335316      11.81450186      20.37140081       0.36885533      -0.29429463       0.22932395
H       35.51399136      10.90542911      21.54107170       0.51614980       0.17497802      -0.60703416
O       30.39562485     -12.56190022       2.11189426       0.00058881       1.59932199      -0.68043792
H       29.52703616     -12.32919479       2.62207915       0.00036233      -0.22973254      -0.00069571
H       30.27792856     -12.51172069       1.11404698       0.04273897       0.12683180       0.10663157
O       17.56839041       9.22227248      -7.45707288      -0.22908073      -1.31002116      -0.67322260
H       17.16347671       8.24131292      -7.70716858      -0.03326069      -0.05123173       0.21468535
H       17.55758890       9.55496799      -6.53962003       0.27455378       0.00271017       0.20740188
O       -5.05958385       2.59182780      32.20420395       1.51647838       0.36710925       0.79454632
H       -5.80653501       1.93300176      32.32746831       0.06196566      -0.36168692       0.61529929
H       -4.36005680       2.11260332      32.75613905      -0.21837855       0.17962222      -0.00191874
O        3.89637872       0.89006205      -0.25538838       1.63488904      -0.00886268      -0.35052100
H        3.28408053       0.08795225      -0.25178796       0.02071847       0.34741718      -0.05386645
H        4.38994228       1.17665018      -1.06694391       0.04960798       0.29259195       0.02597007
O       23.19038003       3.22114280      11.70512020      -0.00013262      -0.07116803       1.11943751
H       23.60410727       3.78309649      12.47275179       0.03601245      -0.12276670      -0.32538229
H       23.52654315       2.36132632      11.54518790      -0.25965992       0.01638095      -0.24342410
O       -1.40148023      31.84529271      15.09115647      -0.22018650       0.39979972       1.74898804
H       -1.96487356      32.51244634      14.67112747       0.47812674       0.24390433      -0.04508463
H       -0.54500342      31.69948640      14.77361639       0.34692479       0.01880087      -0.22605468
O        4.77053876      19.41400733       5.24247781      -1.29979892       0.34073146       0.67132642
H        4.09463350      18.91888025       5.71676925       0.36574469       0.29559431      -0.18225763
H        5.48843641      18.80486969       4.98765349       0.00539977      -0.20540266      -0.16277217
O      -10.20605541      10.53312610       9.52723445      -0.79793978       0.29065151      -0.03105875
H      -11.09966146      10.67675706       9.02030812      -0.01295839      -0.15414247       0.60372268
H      -10.22440103      10.65319709      10.44376529       0.08864446       0.03801441       0.43095471
O       17.69891056      17.76621163      26.03229738       0.31208407      -0.11896204      -1.78068067
H       18.27798779      16.98641251      26.10286846      -0.29883451       0.13701147       0.03553487
H       16.79793737      17.38641447      26.06281850      -0.09454474       0.24257306       0.07045102
O        6.91013439      18.64987175      10.14909967      -0.74875514      -0.80897546       0.56534973
H        7.43258406      19.22346674       9.56409275       0.13137306      -0.18053801      -0.17862911
H        6.39208123      17.91590947       9.80826245       0.18202882       0.13137391       0.29830993
O       -0.68380836     -13.85082882      13.23976685      -0.91883490      -1.45845331      -0.26582929
H       -1.52686827     -14.12741478      13.00838765       0.04996884       0.14107678       0.02913073
H       -0.05186467     -14.58958525      13.40081513       0.11810027       0.41523121      -0.18852680
O        1.11981064       6.02292469       1.13131132      -0.74888796      -1.35394640       0.85074569
H        1.81747828       5.18830079       1.09256235       0.36857608      -0.18207191      -0.28534179
H        1.36954172       6.79948280       0.58374474       0.49599821       0.27409960       0.14171308
O        3.22903922       1.30165956       8.38195722       2.00216362      -0.34676788      -0.22337511
H        2.15256964       1.22085774       8.32095826      -0.13636067      -0.05449091       0.15554569
H        3.63623668       1.05641084       9.18477903       0.04336548      -0.06298213       0.25468412
O      -18.82724742      28.84486030     -16.18813269      -0.29268824       1.06156667      -1.06966017
H      -18.39537854      29.21313905     -16.99963548       0.27667366      -0.24976749       0.65113700
H      -18.08587642      28.66574637     -15.39391926       0.13915219       0.30938321       0.03487456
O        2.88940973      26.82094072      -9.07691657       0.08144287      -0.72094128      -0.59078163
H        3.45711561      27.02766186      -8.60193089      -0.04987725       0.34516205       0.22526915
H        2.10141511      26.69255796      -8.48065084      -0.12745478       0.23486037       0.69716909
O      -18.12908358      18.95194142       1.94569521      -0.74322971      -0.61448760       0.17005111
H      -17.72099486      18.57094902       1.20034276      -0.86539513      -0.09295188       0.45217600
H      -19.14152829      18.82050495       2.03354841       0.31434927       0.14380180      -0.12226601
O       11.72163572      17.55485334       7.02289501      -0.07529360      -0.41958032      -0.26216583
H       12.64437511      17.64309405       6.77786972       0.06887857       0.41220149       0.01447707
H       11.25453291      18.13073768       6.40413066       0.30550605      -0.04250581      -0.22948629
O       -7.22768207     -11.23544848       5.13208520      -0.08062199       0.05923309      -0.59036028
H       -6.86873178     -11.55859411       4.26401725      -0.13682142      -0.43235380      -0.29415633
H       -7.32555207     -12.06138445       5.63945383       0.31059863       0.08987764      -0.28241870
O      -24.20439784       3.34180093      10.68163412      -1.09937237      -0.54515490      -0.23471819
H      -24.86212950       3.98644218      10.58318722       0.48604332      -0.28678298       0.15618025
H      -23.36784919       3.57861282      10.23840512      -0.54539182      -0.19067840       0.15008303
O      -11.45389602      -8.27437476      18.49192664      -0.93796404      -0.38621159       0.80261354
H      -10.61366220      -8.70538232      18.84416584       0.41182441      -0.19373626      -0.25627347
H      -11.47869026      -7.92148754      17.54479992       0.19780032      -0.11685801      -0.34458232
O        8.48256351       7.36155328      16.85683054      -1.84413464       0.53094038      -0.42893391
H        9.41670197       7.37462269      16.91511021      -0.41752125      -0.03711754      -0.15536267
H        8.08765090       7.07104162      15.98487691       0.05145358       0.10928284      -0.42301533
O      -11.63433234      -0.48472445      20.46717684      -0.56178905       0.04904222       0.44236311
H      -12.31862949       0.10373959      20.72464142       0.38022666       0.20453308      -0.02809516
H      -11.69099386      -0.68598287      19.45662270       0.10999626      -0.08531508       0.20912903
O       24.08240388       2.51882880      16.18024285      -0.96620872       0.62645235      -0.91767426
H       24.01899464       2.27506446      17.16426119       0.06134313      -0.37650372       0.14272840
H       24.21364952       1.63436590      15.70071770       0.08772070       0.29273130       0.54769426
O       -5.64982516     -17.90840269      -5.11313308      -0.27257753       0.36587445      -1.13061411
H       -4.84361588     -17.59246713      -5.44698573       0.13071322       0.48286929      -0.67015584
H       -6.20120617     -18.64581953      -5.55135737      -0.19111386       0.28632690      -0.03447408
O       29.34379049      -8.91893274      -6.17145128      -1.31835735       1.13131009      -0.61765869
H       30.21857724      -9.01209087      -6.50017217      -0.52475662      -0.15881740       0.25341685
H       29.09282898      -9.76356006      -5.67989362       0.16154905      -0.18857271       0.37369705
O        8.81208793      -0.63982229       3.44043158       0.46388587       0.19541681       0.70634988
H        8.32789251      -0.04475761       2.87854656      -0.28707052       0.11078688      -0.01964096
H        8.35248192      -1.46723894       3.59172734      -0.05578372       0.06339125      -0.11600569
O      -19.79577879      -3.11710143      24.74156514      -0.19759686      -0.02940275      -0.06076786
H      -19.80166302      -4.00380904      24.33112970       0.12183666       0.69506421       0.36104334
H      -19.18961417      -2.93182022      25.53460824      -0.38250155       0.42624698      -0.37296224
O        2.48282857      -5.75344425      -6.04262864       1.09428649       0.54479822      -0.33603282
H        2.69958507      -5.94681847      -5.15913909       0.47451955      -0.21246040       0.15157346
H        1.94619631      -6.62184816      -6.24329481      -0.11545159      -0.35127390      -0.25994119
O        9.88992031       8.27353218       7.99379909       0.43842109       0.07370585       0.93646018
H       10.33567924       8.46425106       7.17100837       0.04747199       0.07266861       0.03623765
H       10.11723226       7.36193832       8.25979928       0.24811458       0.00340986      -0.20548440
O        5.39773914       9.72916881      -4.88511298       1.22986910      -0.34010450      -1.44464338
H        6.13842689       9.12647947      -4.76611316      -0.45931581       0.16580603       0.07226482
H        4.78255291       9.71682466      -4.15871889      -0.24342079      -0.12098293       0.13686097
O       13.70939163      29.38577324      15.87698329      -0.42156521      -0.30293770       0.26953022
H       12.80264434      29.21043085      15.68201768      -0.07211097       0.03432045      -0.41852829
H       14.25135368      28.56591333      15.70604260      -0.21095525      -0.08436478      -0.19554955
O       -2.85487315       3.98951941       1.71669605      -1.26209592       0.17814632      -0.20400484
H       -2.23536540       3.25722982       2.17110764       0.17024888      -0.23523453      -0.11571550
H       -2.42436865       4.84764680       1.57039412       0.60495572      -0.02048198      -0.05471461
O        7.84439341     -14.02526108      10.91439345       0.49721025      -0.48316689      -1.23054658
H        6.73786302     -14.09433188      10.83948699      -0.08441932       0.31776901      -0.02286876
H        8.03698790     -14.38996149       9.96878051      -0.06886425       0.19726364       0.39839077
O       -2.54838844      10.54532246      24.26634380      -1.27078803       0.39551552       0.21002817
H       -2.13280062      10.25980953      23.52949971       0.00162814       0.09462925      -0.49813643
H       -3.29150223      11.13698702      24.16883010       0.02802784      -0.46032053      -0.57101546
O       20.01195300      21.74875636       1.54821739      -0.68828123       0.44641015      -0.00381371
H       19.67911271      22.37578456       2.25832695      -0.05979800      -0.34722966      -0.41647268
H       19.49049375      21.01174465       1.61029484      -0.00446090       0.32436166       0.52158012
O       12.22101207      10.02531430     -15.88048034       1.06967109       0.43864462      -0.36503094
H       12.59782853       9.22662759     -15.71618709      -0.22819119      -0.03331257      -0.12500499
H       12.29280966      10.18904703     -16.91996882      -0.52249194      -0.16285274       0.39809567
O      -11.36022413      22.19341755       1.06391209       0.37412509      -0.70144083      -0.20211234
H      -12.00326259      21.40233723       1.29845904       0.18736468       0.25423763       0.25915047
H      -10.92419347      22.42224812       1.86805705      -0.26459779      -0.43526152       0.09449462
O        2.89524388     -15.07596708      16.04779545      -0.78226021      -0.83818608      -0.81203827
H        3.05350406     -15.68680775      16.73544274      -0.12753379       0.21855520      -0.17182784
H        3.69963918     -14.52520455      16.02155033      -0.06323624      -0.20675626      -0.05497501
O        2.36217631      16.28140966       0.41790547      -0.57821329       0.08925233       1.37656817
H        1.78796903      16.39830893      -0.22175992      -0.00544122      -0.29911200      -0.06667401
H        2.88767364      15.49083082       0.50464378      -0.48145005      -0.34631886      -0.47098296
O       -5.75957109      -7.38252742       5.62196241      -0.38033245      -0.82958168       0.33509042
H       -5.45140010      -7.78322182       6.38438039      -0.42644583      -0.47510118       0.32031023
H       -5.09425966      -6.76185670       5.22154385      -0.42112672      -0.11224558      -0.01953817
O       -2.14181406       2.41302082       6.65980109       0.35301852      -0.54719052       0.47370806
H       -2.26810127       3.32438210       6.78570721       0.27484868      -0.08438972       0.15651413
H       -1.70097463       1.92041027       7.45769405      -0.13408462       0.75625094      -0.45080945
O       13.21537909      -5.58430793      -1.44072230       1.00250374      -1.81228938       0.55415880
H       14.00831310      -5.48360499      -2.02360912      -0.02132990      -0.32920897      -0.02523624
H       13.14963969      -6.63977170      -1.46062145       0.15543288       0.29140283      -0.21850434
O       11.80888444       4.87186632      22.71666139      -0.07671164      -0.29008481       0.32637886
H       11.13419847       4.26575689      23.00111844      -0.06738825       0.16672182      -0.00701023
H       12.20199492       4.72470463      21.86136116       0.13777148      -0.05860165      -0.27474816
O        8.07145074      14.49126455      23.88793426      -1.47607076      -0.09714728       1.25292650
H        8.94873254      14.64782417      23.61209856       0.08522674      -0.22684579      -0.05941416
H        8.03117722      13.46664363      24.09962828      -0.13187127       0.26626968      -0.12626300
O       -8.02621757       6.94496468      11.43592350       0.55344402      -0.32647907       0.16892253
H       -7.27676437       6.71773498      10.80731636      -0.00383193      -0.27718922       0.22477626
H       -8.37837615       6.46558848      12.21058629       0.36381484      -0.27474896       0.06267971
192
Lattice="12.738661654121943 0.0 0.0 -5.287267955877642e-07 12.738661654121943 0.0 -5.287267955877642e-07 -5.287267955877642e-07 12.738661654121943" Properties=species:S:1:pos:R:3:momenta:R:3 step=190 time_fs=19.0 phase=production pbc="T T T"
O       11.72534911       0.73355086     -16.47270491       1.57210436       0.15987900      -0.59756334
H       12.27442211       0.89188479     -15.69062224      -0.00658902      -0.11341261       0.25940105
H       11.03705533       0.09200694     -16.23495903       0.04112941      -0.05382731       0.28760122
O       26.34588937      24.75378747       5.04090396      -0.28142570      -0.62481284       1.82314907
H       26.66509591      23.98128004       4.67351949      -0.04954837       0.39444231       0.18793580
H       25.81599263      25.17283163       4.33641633       0.23064473       0.07177820      -0.05006674
O        4.52499547      -0.37023882       6.54221051      -0.33866766      -0.66836639      -0.62122721
H        5.34584698      -0.86175263       6.73230404      -0.04735857       0.01547330      -0.06027056
H        4.36445858       0.19171722       7.34855879       0.00514393      -0.28387022      -0.17347338
O       -2.85157682      -4.31125080       1.10214103      -0.47080630       1.27435837       1.04609593
H       -2.47628114      -3.98918091       0.22094177       0.07431003      -0.13327397      -0.00047174
H       -3.66817055      -3.84520952       1.33412183       0.53259033      -0.03412861      -0.30576161
O        4.35984431      15.93113067      10.69609436       1.18160392       0.94373978      -0.29267404
H        4.63695627      16.89563176      10.95468920       0.33037800       0.17858625      -0.00444998
H        4.90528687      15.76364986       9.89724003      -0.09786712      -0.01941069      -0.16651709
O       -1.33354469       6.53830477       5.14064268       0.95207352      -0.97050579       0.33348520
H       -1.76697687       6.24814876       4.28554554       0.11301592      -0.07266318      -0.17968287
H       -0.53462892       7.07383666       5.22313348      -0.29357192       0.02410144      -0.31982255
O       22.83733760      12.30517536       5.79047346       0.57572787      -0.07732892       0.60912770
H       23.02235931      13.16496153       5.97208702      -0.43186141      -0.13861169      -0.28304774
H       21.96491543      12.22023528       5.54894476      -0.03383944      -0.00634669       0.33675436
O       -1.11317091     -15.67891108       6.76289746      -1.11874507       1.47778427      -0.36357140
H       -0.56587309     -16.08689150       6.08531349       0.21565341      -0.11596975      -0.11971763
H       -1.57339182     -14.76225570       6.41097972      -0.00414444      -0.10316719      -0.09907528
O       15.47239040     -17.90989952       9.71442965      -0.00538851      -0.46780290       0.86460994
H       16.17171278     -18.29248304      10.24679127      -0.16071154       0.26885028      -0.07662526
H       15.87232996     -17.02776241       9.62449418       0.27397068       0.34830562       0.13603869
O        3.32222291     -14.65472599     -13.41967815       0.77293233      -0.13871940      -0.91101848
H        4.20912447     -14.83916141     -13.14612707      -0.37804784      -0.12719379      -0.05089855
H        2.78968182     -15.39873607     -13.15427854       0.32166316      -0.27354618      -0.09875554
O       -5.76170997       1.63858894       2.90388541      -0.01476266       0.52537534       1.21654881
H       -6.30580589       1.30559508       2.16066490      -0.20692493       0.16972012      -0.53033532
H       -5.55867863       2.50097892       2.55940665      -0.22797004      -0.01132589      -0.08772249
O       -5.35033244      16.14684102      25.85087546      -0.65324105       1.53323856      -1.24973038
H       -5.51389611      15.87718471      24.97755097       0.13373638       0.14153857      -0.09474777
H       -4.57654810      16.00176664      26.28841474       0.64069823      -0.17802319       0.49916789
O        7.54217759     -15.63276850      -8.36764671       1.97155295       0.79797506       1.05751262
H        7.93459951     -16.47671955      -8.20164852      -0.45378377       0.23462358       0.05103362
H        6.68104245     -15.42671417      -7.91984761      -0.53438834      -0.19898445       0.57165470
O       13.63744729       8.57858338      17.96689201      -1.06654526       0.33965680       0.86142659
H       14.02867554       8.82677243      17.15184648       0.35391056       0.25506181      -0.37428785
H       14.04908847       8.05217144      18.63462705       0.01150782       0.08199863       0.22063785
O       -0.19740842       1.28698312      -1.17864643      -0.95101843       1.07674144       0.37973578
H        0.70419332       1.07612115      -1.26635779       0.09725357      -0.37484395       0.20318273
H       -0.43871948       0.36403343      -1.20471345       0.07204431       0.00769820      -0.25175445
O      -14.12094533      12.66286433      15.73080367       0.61686588       0.34081333      -0.08700124
H      -13.57597779      12.42347327      14.93039876       0.39706260      -0.51288940      -0.36703040
H      -14.60704726      11.98026731      16.09626146       0.28345234      -0.05339324      -0.14966789
O      -16.25511395       5.94674011      12.26999364       2.06592847       0.50327080      -0.82901366
H      -16.78312219       5.62748458      11.50799432       0.06113312      -0.35498489       0.11438244
H      -16.41911166       7.07019932      12.34392934      -0.19814493       0.14583618       0.21462788
O       -9.99708642      32.90078971      -9.60925636      -1.26170301       0.62176757      -0.44181555
H       -9.25283648      32.35635081      -9.62216703      -0.02390846      -0.34522619      -0.19275664
H      -10.70352724      32.47655184     -10.03603570       0.52374190      -0.30311560      -0.06084500
O       34.80769855      11.42557808      21.31520658       0.59083294      -0.34342644      -0.97820917
H       34.94406653      11.77921988      20.40665902       0.32017323      -0.38373402       0.49338625
H       35.57470866      10.91018653      21.48398814       0.77266514      -0.04461935      -0.52186640
O       30.39209604     -12.55064410       2.10728884      -0.23586240       1.69043501      -0.72688800
H       29.53749211     -12.35282655       2.61323536       0.26324676      -0.27374216      -0.17246084
H       30.27902808     -12.49781525       1.13794722       0.03192047       0.13557305       0.35291315
O       17.56487863       9.21244223      -7.46036594      -0.38907874      -1.60849297      -0.59342641
H       17.16761078       8.25349175      -7.67994243       0.15010817       0.31577607       0.32677761
H       17.58310007       9.55075718      -6.52635660       0.27953586      -0.08042621       0.02984478
O       -5.04997412       2.59293385      32.20676107       1.42865999       0.08194500       0.97768758
H       -5.79287192       1.90677883      32.38059571       0.20431698      -0.16837285       0.52916432
H       -4.38527197       2.13735113      32.74569167      -0.26916825       0.31440640      -0.12579215
O        3.90596904       0.88963258      -0.25791313       1.61585454      -0.08126746      -0.46460897
H        3.29566763       0.13127418      -0.26166210       0.20350941       0.51658145      -0.14932844
H        4.38576059       1.20045796      -1.05609329      -0.11853780       0.20167207       0.18038282
O       23.18845898       3.22159652      11.71164210       0.04926867       0.28790851       1.32092526
H       23.59761303       3.75861864      12.42858671      -0.10817164      -0.35139710      -0.52624538
H       23.50417135       2.35568297      11.52121449      -0.15818562      -0.12141075      -0.22498195
O       -1.40328896      31.84474236      15.10095981      -0.35874518       0.36386205       1.86910253
H       -1.91712888      32.53478396      14.66406932       0.49917738       0.27103410      -0.06964506
H       -0.50288389      31.69871072      14.74524190       0.46369488       0.03147558      -0.30642797
O        4.76257754      19.41427300       5.24580155      -1.10260488       0.33824358       0.53676327
H        4.12516605      18.94319194       5.70252234       0.22851940       0.21288136      -0.07094940
H        5.48591318      18.78649769       4.97415724      -0.05535015      -0.12435523      -0.10156215
O      -10.21070349      10.53392248       9.52513894      -0.98787008       0.28372938      -0.29626213
H      -11.08467048      10.65805521       9.08701760       0.26514545      -0.20588111       0.76191690
H      -10.21632419      10.65873556      10.49074800       0.06054822       0.08893859       0.50096686
O       17.69891455      17.76365432      26.01895816       0.19779516      -0.15337677      -1.79303866
H       18.25018668      16.99932105      26.10321184      -0.21380925       0.12912416       0.02388304
H       16.78868765      17.41068931      26.06745586      -0.06933463       0.28501794       0.07312096
O        6.90508336      18.64363863      10.15177153      -0.66484770      -0.63133132       0.61419139
H        7.44060403      19.19973881       9.54692274       0.04201467      -0.27573008      -0.14797147
H        6.41050204      17.92324848       9.83379516       0.18771405       0.02382309       0.22978562
O       -0.68835009     -13.85835011      13.23722746      -0.60501039      -1.37753523      -0.17167247
H       -1.53630136     -14.11949668      13.00318758      -0.24347730      -0.00524915      -0.11223169
H       -0.04335057     -14.54459378      13.38053625       0.07628010       0.45482078      -0.19883992
O        1.11595787       6.01401590       1.13606796      -0.46092989      -1.34270414       0.71218128
H        1.84336654       5.18165309       1.06501223       0.16530573       0.05393185      -0.27551960
H        1.41244973       6.81527915       0.60290986       0.37450346       0.03864856       0.26905686
O        3.23981134       1.29934617       8.37903130       1.62137986      -0.37872865      -0.44140023
H        2.15838105       1.21449559       8.33673544       0.25742660      -0.07390072       0.18111006
H        3.64227307       1.05118993       9.21950576       0.07092402      -0.03195327       0.43760844
O      -18.82660199      28.84869560     -16.19266977      -0.09492326       1.01765694      -0.82680330
H      -18.36905212      29.18415405     -16.93177184       0.26651611      -0.26051134       0.64619297
H      -18.08229529      28.69534772     -15.40218406      -0.09767957       0.35056635      -0.23204326
O        2.88641283      26.81296099      -9.08106486      -0.98457107      -1.08754670      -1.01650129
H        3.49754371      27.07434452      -8.54623845       0.89561562       0.67587219       0.90300132
H        2.09821215      26.71234980      -8.42290365       0.06957761       0.21468895       0.45339213
O      -18.13330785      18.94699607       1.94764469      -1.13022062      -0.40614277       0.55058680
H      -17.79611905      18.55244498       1.22924649      -0.68406630      -0.27577781       0.10006606
H      -19.09447272      18.83351133       2.01795066       0.54751461       0.15294395      -0.18175454
O       11.72002053      17.55066461       7.02057122      -0.08417230      -0.41693476      -0.29320112
H       12.65507479      17.67929865       6.78051307       0.16281219       0.35951935       0.05820556
H       11.27928625      18.12589927       6.38118233       0.21863240      -0.02443172      -0.22848183
O       -7.22739905     -11.23429744       5.12746272      -0.03683667      -0.00732051      -0.78658932
H       -6.88298175     -11.59428514       4.23900306      -0.16831185      -0.31276909      -0.20615552
H       -7.29565108     -12.05044712       5.61302283       0.28346930       0.08988623      -0.22807974
O      -24.20837191       3.33717494      10.67966345      -0.94275806      -0.90540866      -0.05709840
H      -24.82528452       3.97248989      10.59520235       0.18400580       0.04003959       0.10979829
H      -23.41486940       3.56174150      10.24950502      -0.39657628      -0.13734595       0.06378419
O      -11.45803900      -8.27571957      18.49449572      -0.74236352      -0.30093037       0.57514243
H      -10.58277707      -8.71732917      18.81217254       0.19465336      -0.06442215      -0.36400320
H      -11.45803519      -7.94305105      17.52299144       0.20045062      -0.34022510      -0.05975688
O        8.46935314       7.36397420      16.85199666      -2.22586712       0.47326063      -0.65925544
H        9.38489719       7.36978925      16.89683857      -0.19842716      -0.04858467      -0.18486110
H        8.09845537       7.08276311      15.95303246       0.18958696       0.14829758      -0.18371736
O      -11.63633133      -0.48487823      20.46723423      -0.42936828      -0.11583338       0.19639957
H      -12.28845374       0.12861509      20.72051983       0.21001788       0.31254761      -0.01373796
H      -11.67986685      -0.69029485      19.48684598       0.09565257      -0.00762994       0.43174886
O       24.07426496       2.52174907      16.17374271      -0.97403588       0.44202131      -0.69382961
H       24.02361422       2.24275835      17.16336000       0.07673926      -0.27464798      -0.11752062
H       24.21878772       1.67223371      15.75670728       0.07080603       0.43264409       0.59218942
O       -5.65192781     -17.90512836      -5.11986437      -0.51197615       0.21186248      -1.22808705
H       -4.82760943     -17.54358243      -5.51204520       0.13345849       0.46446238      -0.64946365
H       -6.20812731     -18.60395171      -5.55039502       0.02374086       0.51570532       0.03110053
O       29.33196078      -8.91195596      -6.17385348      -1.69430776       0.86811021      -0.32947152
H       30.17775554      -9.02768427      -6.48184162      -0.22085927      -0.17901366       0.09563334
H       29.10905886      -9.76856766      -5.64960980       0.22222339       0.07610715       0.23234996
O        8.81427136      -0.63841288       3.44444222       0.48990430       0.25962431       0.68600609
H        8.29914167      -0.03420768       2.87696269      -0.27207867       0.08750401       0.01007225
H        8.34407975      -1.46429059       3.58104758      -0.09980590      -0.00306813      -0.09675440
O      -19.79494467      -3.11655656      24.73939945      -0.15417808       0.18808687       0.08420137
H      -19.78745517      -3.93753196      24.36471391       0.13594100       0.57391264       0.33716505
H      -19.23086784      -2.89508782      25.48861135      -0.46552168       0.32919801      -0.47956917
O        2.48862178      -5.75037841      -6.04487609       0.88057994       0.27470981      -0.53092391
H        2.75076680      -5.96641773      -5.13477835       0.56095887      -0.19694283       0.28259671
H        1.94048688      -6.64456554      -6.26741200       0.00836343      -0.12159293      -0.23533665
O        9.89174430       8.27289655       7.99901243       0.45194415      -0.02404728       0.98883360
H       10.34132114       8.47188651       7.17358434       0.08527214       0.10210961       0.03283549
H       10.13973676       7.36746653       8.23772859       0.23303778       0.10980406      -0.22533090
O        5.40457878       9.72649480      -4.89369092       1.09672241      -0.21579818      -1.46609402
H        6.09789154       9.13652402      -4.75785192      -0.32570774       0.02813365       0.09206971
H        4.75732119       9.70377437      -4.14424306      -0.23762221      -0.12479321       0.11743042
O       13.70603395      29.38107034      15.87714845      -0.28566440      -0.35808411       0.25112118
H       12.79262798      29.20953551      15.63916669      -0.09475363       0.00898150      -0.42704070
H       14.22407815      28.56277993      15.68724626      -0.31536514       0.06974478      -0.15923425
O       -2.86170693       3.98992338       1.71547110      -1.03146372       0.09608544      -0.14810489
H       -2.22781619       3.24711233       2.15217368      -0.01908761       0.03025570      -0.26609133
H       -2.36703457       4.83819807       1.56844655       0.55126106      -0.18522762       0.02074925
O        7.84595798     -14.02731081      10.90491996       0.23660835      -0.58226780      -1.48930268
H        6.74637839     -14.06247166      10.83747179       0.26498608       0.30932129       0.00400692
H        8.02616451     -14.36309552      10.01852479      -0.12503721       0.30698200       0.59451345
O       -2.55588365      10.54685721      24.26640206      -1.20677681       0.39103963       0.48510272
H       -2.12476735      10.26224543      23.46690768       0.13754566      -0.01005124      -0.69645835
H       -3.29541797      11.09639126      24.11040802      -0.12598027      -0.33818491      -0.58078870
O       20.00632015      21.75084370       1.54833530      -0.54170932       0.83528013       0.04642894
H       19.67659019      22.34085514       2.21433483       0.02813798      -0.27165390      -0.43224934
H       19.47898435      21.01819255       1.65948255      -0.19104342      -0.16139887       0.48295957
O       12.22598101      10.02841447     -15.88254072       0.91198486       0.85754305      -0.74598827
H       12.58221613       9.20494281     -15.72263745      -0.07228201      -0.39245244      -0.03320313
H       12.23856891      10.16746316     -16.86474359      -0.56015009      -0.24718474       0.67013520
O      -11.35777065      22.18617929       1.06241091       0.10111956      -0.98276632      -0.25873648
H      -11.97328739      21.43645871       1.31837981       0.37756265       0.45821143       0.14686032
H      -10.94464148      22.38054232       1.88343743      -0.16111975      -0.36480383       0.23322316
O        2.89001347     -15.07912214      16.04068856      -0.84763687      -0.63813127      -1.03362090
H        3.04317259     -15.67713294      16.72958198      -0.07783362      -0.05765951       0.09291615
H        3.69313561     -14.54126694      16.01243299      -0.05214626      -0.14204067      -0.10371160
O        2.35948018      16.28055485       0.42769766      -0.25503850       0.11568648       1.79212640
H        1.76952876      16.36935873      -0.25074479      -0.34348550      -0.26744820      -0.49549933
H        2.84111836      15.45293198       0.45826701      -0.46786719      -0.39659853      -0.47687079
O       -5.76165501      -7.38641924       5.62270702      -0.48213361      -0.69836601       0.12402296
H       -5.48746677      -7.83534756       6.42504501      -0.33613594      -0.58446547       0.48715750
H       -5.13622444      -6.77588453       5.22163930      -0.42539203      -0.17045515       0.02043438
O       -2.13918011       2.40829808       6.66249172       0.40692982      -0.88028908       0.54193820
H       -2.24005074       3.32680746       6.80244734       0.29198186       0.14812509       0.19439495
H       -1.71773431       1.99996211       7.40498654      -0.17623452       0.83467907      -0.55616617
O       13.22079896      -5.59586774      -1.43736310       1.15442381      -2.10154114       0.49937073
H       14.00104070      -5.51175628      -2.02260559      -0.08691237      -0.24514026       0.03163873
H       13.16175321      -6.59675436      -1.48246362       0.10704199       0.54612740      -0.22241615
O       11.80773108       4.86987523      22.71661839       0.06635523      -0.22054843       0.30134030
H       11.12295665       4.27768809      22.99867839      -0.14131448       0.08730387      -0.00082864
H       12.21161040       4.71827044      21.83193422       0.06660029      -0.05821467      -0.25458566
O        8.06121305      14.48833063      23.89363099      -1.57831499      -0.41264990       1.29931077
H        8.96512107      14.62759201      23.60408821       0.23189882      -0.16260582      -0.05179224
H        8.01567407      13.50549893      24.08239577      -0.17507727       0.54400875      -0.17660164
O       -8.02193945       6.94225826      11.43581601       0.59241483      -0.34920774       0.14504845
H       -7.28277235       6.69012816      10.83645800      -0.12044605      -0.27670407       0.38177781
H       -8.33712403       6.43839120      12.20909319       0.46318484      -0.26985392      -0.06781737
192
Lattice="12.737470023774776 0.0 0.0 -5.286773361616417e-07 12.737470023774776 0.0 -5.286773361616417e-07 -5.286773361616417e-07 12.737470023774776" Properties=species:S:1:pos:R:3:momenta:R:3 step=200 time_fs=20.0 phase=production pbc="T T T"
O       11.73370232       0.73411962     -16.47464216       1.50506915       0.04079583      -0.51642983
H       12.27088065       0.88159356     -15.66707961      -0.04927167      -0.09685631       0.18121483
H       11.04335973       0.09047692     -16.20907239       0.11665611       0.02915116       0.20603431
O       26.34099983      24.74863337       5.05189197      -0.51895348      -0.28206769       1.91196166
H       26.66834516      23.99825417       4.68575707       0.17527252      -0.01574700       0.06561212
H       25.83478531      25.18077904       4.33369164       0.20662552       0.13879805       0.00792054
O        4.52273214      -0.37406488       6.53818893      -0.27173596      -0.59707141      -0.51933682
H        5.33556923      -0.86116903       6.72523185      -0.13280668      -0.01716372      -0.07054486
H        4.36372695       0.16048157       7.32669823      -0.01888126      -0.33604622      -0.23347170
O       -2.85366464      -4.30301914       1.10763444      -0.24568515       1.24005455       0.77093002
H       -2.47466379      -4.00448947       0.23389548      -0.03870004      -0.18534237       0.25441012
H       -3.61860051      -3.84678954       1.30461960       0.42338852       0.02569022      -0.27982952
O        4.36725172      15.93638214      10.69325768       1.36213567       1.25194269      -0.30216121
H        4.66350194      16.89512941      10.94981629       0.22135218      -0.15479120      -0.07351241
H        4.89239083      15.76184406       9.88614358      -0.15472985       0.01159533      -0.04578639
O       -1.32783056       6.53150521       5.14171491       0.84101724      -1.06471079       0.16641018
H       -1.74807034       6.24503281       4.27524692       0.26872304       0.02143099      -0.02113574
H       -0.56420688       7.07538945       5.18845971      -0.28477457       0.04005337      -0.37837307
O       22.83941546      12.30226365       5.79405165       0.77619723      -0.49159458       0.72870676
H       22.98941839      13.17741698       5.94982688      -0.20333505       0.41466045      -0.16662621
H       21.93839006      12.20954904       5.56937949      -0.44484885      -0.18911224       0.10175337
O       -1.12025269     -15.66761985       6.75966078      -1.20112780       1.70608838      -0.51708359
H       -0.54577260     -16.09554410       6.07393739       0.17381195      -0.07613645      -0.07509721
H       -1.56758057     -14.78212316       6.40454653       0.12166771      -0.33467261      -0.01722500
O       15.47094844     -17.91036399       9.71875458       0.00226328      -0.18757596       0.82327449
H       16.15825529     -18.27302722      10.24405820      -0.06571953       0.08323007       0.05458205
H       15.89075559     -16.99406386       9.63452977       0.11874979       0.27849480       0.09143246
O        3.32612329     -14.65406324     -13.42428537       0.56540787      -0.09947688      -1.00351010
H        4.18271802     -14.85089463     -13.14828229      -0.12319663      -0.14207821      -0.00998693
H        2.81573872     -15.42737049     -13.15879396       0.21543863      -0.33724455      -0.02341867
O       -5.76180425       1.64110987       2.91065399      -0.20900520       0.34186520       1.04610646
H       -6.32511494       1.31888684       2.11616308      -0.18286866       0.11651520      -0.35022460
H       -5.57551090       2.50923112       2.55293176      -0.12970100       0.17843922      -0.03721002
O       -5.35436802      16.15510335      25.84117928      -0.73301923       1.62901827      -1.07964569
H       -5.49962674      15.88463870      24.95910426       0.14910342       0.04357844      -0.22945704
H       -4.50335583      15.98396869      26.33616407       0.76304440      -0.13788178       0.48334188
O        7.55254020     -15.62562809      -8.36002791       1.59179836       1.08388538       1.18211666
H        7.89247654     -16.45962985      -8.19503972      -0.38245251       0.05615035       0.07311233
H        6.64164865     -15.44732894      -7.87001359      -0.23311263      -0.25704763       0.41859881
O       13.62923332       8.58001341      17.97044677      -1.14951926       0.39615595       0.79251720
H       14.06240572       8.85085440      17.11383053       0.32948419       0.23548771      -0.30348689
H       14.05326883       8.05630789      18.65632441       0.09118700       0.03101881       0.24296127
O       -0.20359803       1.29362353      -1.17627745      -1.02852600       1.10094680       0.35138537
H        0.72275258       1.04022065      -1.24462510       0.24218318      -0.34735853       0.24408313
H       -0.43431966       0.36103552      -1.22669191       0.01796088      -0.05693921      -0.20108263
O      -14.11473051      12.66431055      15.72769916       0.99097098       0.50439215      -0.46569811
H      -13.54420566      12.37449786      14.90491526       0.21325553      -0.45467249      -0.10407184
H      -14.58814615      11.96298211      16.08577410       0.07841074      -0.27580647      -0.03573633
O      -16.24124111       5.95006223      12.26364075       1.96055736       0.76107977      -0.85886392
H      -16.77409183       5.59834713      11.52369968       0.08810939      -0.23170198       0.22280321
H      -16.43508444       7.06429349      12.36246891      -0.16000330      -0.25305766       0.18716215
O      -10.00376493      32.90249228      -9.61064042      -1.17797721       0.90210071      -0.30440796
H       -9.23956260      32.31173158      -9.63727020       0.24159940      -0.47648858      -0.13361899
H      -10.66867574      32.43568151     -10.04961104       0.16883294      -0.47293858      -0.23789228
O       34.80816950      11.42246423      21.30713359       0.68417867      -0.39290080      -0.92291849
H       34.96912196      11.74398394      20.45112305       0.26617566      -0.28087027       0.38133083
H       35.64833854      10.90009037      21.43505754       0.73987942      -0.10425939      -0.44564105
O       30.38740681     -12.53890626       2.10305163      -0.31997663       1.73894741      -0.55588595
H       29.56937492     -12.37918638       2.58979180       0.40818132      -0.28215427      -0.27997003
H       30.27736174     -12.48268172       1.17312206      -0.01285796       0.15352840       0.31299427
O       17.56046048       9.20097187      -7.46280277      -0.49693854      -1.81729392      -0.42566440
H       17.18878053       8.29945919      -7.64290120       0.30305908       0.61053551       0.40988458
H       17.60836881       9.53688959      -6.53392387       0.27094506      -0.18278652      -0.18751729
O       -5.04167227       2.59262042      32.20988779       1.08083965      -0.08347665       0.99446291
H       -5.76567212       1.90060368      32.42361048       0.34577691       0.04798895       0.41263993
H       -4.40262656       2.16826387      32.73221086      -0.05674267       0.29850873      -0.05820226
O        3.91572020       0.88930852      -0.26074344       1.69886698       0.03629756      -0.43275562
H        3.31664088       0.18073900      -0.28084775       0.19434915       0.45388714      -0.24566590
H        4.36894606       1.21739802      -1.03621194      -0.19832270       0.16143893       0.19464721
O       23.18637555       3.22354836      11.71852316      -0.05048117       0.39413698       1.21748534
H       23.58422497       3.72077359      12.37798259      -0.08821424      -0.37780443      -0.42929817
H       23.49073591       2.33895465      11.49973385      -0.07681816      -0.20503344      -0.19098093
O       -1.40500282      31.84384421      15.11097685      -0.20838910       0.31312930       1.83384971
H       -1.86685309      32.55785014      14.65572600       0.52937350       0.25859596      -0.06947184
H       -0.46473190      31.70097705      14.71568541       0.28383367       0.07917389      -0.25503116
O        4.75650478      19.41464953       5.24785812      -0.71597547       0.37592827       0.28415118
H        4.13347787      18.95394982       5.70532927      -0.06196781       0.03891566       0.14745795
H        5.47577658      18.77897628       4.96739956      -0.14178825       0.01115065      -0.02639460
O      -10.21567341      10.53464819       9.52267102      -0.87601652       0.27187439      -0.15013009
H      -11.05637193      10.63580934       9.16169927       0.22444159      -0.22351978       0.75481367
H      -10.21026176      10.66741874      10.53172765       0.04690544       0.10419830       0.32742825
O       17.69791413      17.76134519      26.00544624       0.01057207      -0.04411573      -1.81637478
H       18.23631647      17.00387421      26.10326908      -0.02823642      -0.01549869       0.02922649
H       16.78051348      17.43813205      26.07222573      -0.06791036       0.30864213       0.07498169
O        6.90088349      18.63893350      10.15484148      -0.48916209      -0.32737496       0.70101022
H        7.43924089      19.16600738       9.53419864      -0.05168374      -0.37564717      -0.09599216
H        6.42470609      17.91359977       9.84948074       0.10857054      -0.19477404       0.10769969
O       -0.69158319     -13.86492826      13.23511394      -0.51543877      -1.17645461      -0.12379830
H       -1.57018778     -14.12504605      12.98503303      -0.42201415      -0.12825300      -0.22625601
H       -0.03335581     -14.50300650      13.36010988       0.14290586       0.35220234      -0.19346761
O        1.11402933       6.00542068       1.13975532      -0.13069829      -1.28234295       0.52625918
H        1.84898627       5.19774148       1.03898251      -0.04939041       0.28684589      -0.25544931
H        1.44108265       6.80434487       0.63696954       0.21645875      -0.24323089       0.42681950
O        3.24868045       1.29660093       8.37561125       1.39615709      -0.48907916      -0.36720790
H        2.20134516       1.20636199       8.35422480       0.62090624      -0.08917903       0.19183528
H        3.64519607       1.05251779       9.25874281      -0.02477023       0.07309087       0.33667107
O      -18.82522618      28.85178014     -16.19474148      -0.04226732       0.85386333      -0.31149916
H      -18.33470452      29.16111565     -16.87986345       0.42028069      -0.14015447       0.34460246
H      -18.10179565      28.72823617     -15.43547702      -0.34055831       0.37367852      -0.46763737
O        2.87843206      26.80332451      -9.08627228      -1.37710474      -1.16357350      -0.82375414
H        3.60480619      27.14449501      -8.44644339       1.14106763       0.74473870       1.00249326
H        2.11447387      26.72822958      -8.39203499       0.28859641       0.16275536       0.15692328
O      -18.13876096      18.94365450       1.95217255      -1.12898051      -0.10527875       0.96426692
H      -17.84752016      18.51116320       1.21528409      -0.40334495      -0.53218863      -0.37419736
H      -19.04831581      18.84570230       2.00080790       0.29155345       0.12998057      -0.15356944
O       11.71865283      17.54658865       7.01787746       0.01104530      -0.36635148      -0.38133413
H       12.67062773      17.70906507       6.78898418       0.16351467       0.28135634       0.13279280
H       11.29488725      18.12175434       6.35913377       0.12516489      -0.03243014      -0.20605812
O       -7.22675365     -11.23331066       5.12125671       0.02758910      -0.00638722      -1.09029333
H       -6.90010901     -11.61609934       4.22339780      -0.19531227      -0.15269990      -0.10560720
H       -7.26974987     -12.04550484       5.59751323       0.23197161      -0.02374462      -0.06763150
O      -24.21175975       3.32983680      10.67915714      -0.91771640      -1.37568356       0.21905307
H      -24.82501810       3.99616265      10.60292768      -0.21650542       0.44489587       0.07134250
H      -23.43332987       3.55228493      10.24520722      -0.01894576      -0.04833093      -0.13744556
O      -11.46083286      -8.27659488      18.49554469      -0.51534374      -0.24365458       0.33663233
H      -10.57407090      -8.71615959      18.77032864      -0.03471276       0.07105992      -0.45491181
H      -11.43818122      -7.98541519      17.53016813       0.18241732      -0.53587853       0.23287770
O        8.45365229       7.36601105      16.84561040      -2.61493557       0.41933170      -0.89400108
H        9.37782417       7.36382480      16.87648221       0.06796431      -0.05884615      -0.19794893
H        8.12234029       7.09827436      15.94622022       0.30399557       0.17651604       0.05790161
O      -11.63747198      -0.48596761      20.46614862      -0.30425737      -0.23713453       0.12148466
H      -12.27505753       0.16438169      20.71822670       0.04967338       0.41352726       0.00352417
H      -11.67048481      -0.68855933      19.53139282       0.07235114       0.03228047       0.47393641
O       24.06586311       2.52453588      16.16911381      -1.03969053       0.59222527      -0.30170393
H       24.02893898       2.22286687      17.14116803       0.07565872      -0.12288867      -0.29107634
H       24.22541771       1.70392367      15.80367739       0.12375442       0.16179724       0.36621007
O       -5.65441799     -17.90197449      -5.12729746      -0.42452391       0.31901647      -1.33491719
H       -4.82339273     -17.50186030      -5.56899582      -0.07257966       0.34829231      -0.51931431
H       -6.19893622     -18.54739494      -5.54742644       0.12369476       0.56664275      -0.00697421
O       29.31745688      -8.90663691      -6.17429301      -2.12302508       0.59722894      -0.00896391
H       30.17271368      -9.04503096      -6.48162521       0.16833897      -0.19071053      -0.10234819
H       29.12950794      -9.74699335      -5.63345991       0.24564595       0.34053460       0.09281201
O        8.81625153      -0.63643507       3.44807626       0.40858311       0.36369292       0.59625188
H        8.27567772      -0.03033340       2.88259931      -0.18548413      -0.01586502       0.11925739
H        8.33216055      -1.46635152       3.57199355      -0.12320899      -0.03284688      -0.08420656
O      -19.79451461      -3.11365282      24.73769456      -0.34234933       0.69826051       0.09177878
H      -19.77091077      -3.90342097      24.38701608       0.16785346       0.06490417       0.14306951
H      -19.26887144      -2.86451676      25.44697480      -0.31768724       0.30785120      -0.27920415
O        2.49336708      -5.74914605      -6.04746651       0.75502086      -0.05841812      -0.46279517
H        2.80436179      -5.98263318      -5.11362941       0.52707949      -0.13932290       0.10276523
H        1.94854787      -6.64319836      -6.28631896       0.16422485       0.14072557      -0.15939454
O        9.89365341       8.27189696       8.00430306       0.47238369      -0.03180003       0.96424986
H       10.34978382       8.48313820       7.17679189       0.10428172       0.14794961       0.05129529
H       10.16106868       7.37826877       8.21596377       0.22654855       0.10465364      -0.19672635
O        5.40969626       9.72489413      -4.90192984       0.71442136      -0.00458973      -1.35285205
H        6.07771913       9.12703005      -4.74687134      -0.06984321      -0.21102417       0.12526908
H        4.73972762       9.69144501      -4.14049723      -0.09978483      -0.10662807      -0.06619790
O       13.70307623      29.37597717      15.87708179      -0.28346399      -0.39432667       0.20994029
H       12.78391909      29.20816223      15.59669258      -0.05398780       0.02567776      -0.41139408
H       14.18961307      28.57219793      15.67219903      -0.34691266       0.15934181      -0.12097586
O       -2.86686882       3.99011781       1.71452969      -0.73324551       0.09297644      -0.10831863
H       -2.23856618       3.26171600       2.11945991      -0.20429737       0.26963457      -0.39707987
H       -2.31856218       4.80875460       1.57425232       0.43352765      -0.40914336       0.09945338
O        7.84562930     -14.02940900      10.89504944      -0.12164231      -0.50063079      -1.32479267
H        6.78607745     -14.03125005      10.83905105       0.54843175       0.30718916       0.05619713
H        8.01586568     -14.33409816      10.06617671      -0.04459399       0.23045611       0.32453449
O       -2.56232281      10.54790083      24.26710279      -0.94722553       0.25581284       0.42885872
H       -2.11093249      10.25975651      23.40047469       0.11746344      -0.00376635      -0.56989603
H       -3.31507314      11.06961594      24.05168912      -0.27426307      -0.19386709      -0.57447397
O       20.00145978      21.75409714       1.54806750      -0.47043770       0.79962821      -0.10078590
H       19.67743341      22.32803067       2.18271719       0.01595577       0.08376150      -0.18146693
H       19.45472307      20.98193865       1.70223715      -0.22296116      -0.48400306       0.38385641
O       12.23004866      10.03358494     -15.88578136       0.80695971       1.07707928      -0.69170292
H       12.57921590       9.15258863     -15.72011567       0.01500075      -0.61938229       0.04726421
H       12.18261320      10.14194459     -16.79978697      -0.56288972      -0.24407679       0.53924908
O      -11.35650601      22.17763143       1.06052139       0.01447342      -1.07352481      -0.32453186
H      -11.93457556      21.48001077       1.32732456       0.35012219       0.42614432       0.05354213
H      -10.95225316      22.34859691       1.91291274      -0.02099505      -0.24862562       0.36094659
O        2.88425426     -15.08117282      16.03225019      -0.93476741      -0.51533523      -1.19884892
H        3.03742012     -15.69306451      16.74850565      -0.03942153      -0.26908394       0.29640482
H        3.68975431     -14.54972742      15.99842782      -0.01219878      -0.06352776      -0.15108889
O        2.35816778      16.27976667       0.43923573      -0.15245450       0.11378907       1.90857450
H        1.72853665      16.34222774      -0.30863693      -0.43610321      -0.26389788      -0.62175095
H        2.79536008      15.41293880       0.41201341      -0.47220942      -0.37611065      -0.47003340
O       -5.76451938      -7.39029130       5.62318044      -0.63487848      -0.83165268       0.25985654
H       -5.51879824      -7.88957865       6.46835433      -0.33046337      -0.51205855       0.36453189
H       -5.17204611      -6.79053556       5.22236574      -0.30090252      -0.12747380      -0.00650902
O       -2.13692161       2.40238303       6.66443356       0.22210373      -0.90532171       0.23767845
H       -2.21191694       3.35297541       6.82039941       0.27867200       0.37218837       0.17408317
H       -1.72629755       2.07252697       7.36194797       0.04043278       0.61299544      -0.24407124
O       13.22702490      -5.60856664      -1.43421636       1.26563824      -2.13368834       0.49750019
H       13.99152941      -5.52945703      -2.01911179      -0.07027992      -0.13401467       0.02738340
H       13.16693933      -6.54133629      -1.50320826       0.02470094       0.51094448      -0.21348842
O       11.80760205       4.86815503      22.71586234       0.25083965      -0.20080451       0.13232692
H       11.10538608       4.28272795      22.99634954      -0.19047413       0.03072348      -0.00565238
H       12.21049338       4.71345175      21.81264578      -0.07213549      -0.02873906      -0.08391977
O        8.05108363      14.48401566      23.89924198      -1.43969051      -0.47700078       1.23473593
H        8.98528192      14.61326132      23.59935578       0.16991792      -0.10326229       0.00635204
H        7.99447204      13.56271952      24.06277792      -0.25353097       0.58294246      -0.16389184
O       -8.01759960       6.93948329      11.43566573       0.56189099      -0.32850147       0.15973567
H       -7.29539447       6.66204227      10.87663389      -0.12950346      -0.29283300       0.44404286
H       -8.28784086       6.41122192      12.19688039       0.52437962      -0.28196706      -0.14568184
