192
Lattice="13.288496017456055 0.0 0.0 -5.291772140481044e-07 13.288496017456055 0.0 -5.291772140481044e-07 -5.291772140481044e-07 13.288496017456055" Properties=species:S:1:pos:R:3:momenta:R:3 step=0 time_fs=0.0 phase=equilibration pbc="T T T"
O       10.17015076       0.35964999       9.46951962       1.11768299       0.20408896       0.69008038
H       10.80574608       0.00635965      10.10670185       0.36097603       0.29840838      -0.15413935
H        9.30436420       0.37878188       9.94948387       0.15239367      -0.02783003      -0.01289933
O       11.30772305       2.57693410       2.47144794       0.24636511       0.03920975       0.99621760
H       10.65016747       3.17880964       2.08389974       0.12184479       0.01628950       0.07550418
H       12.17276859       2.94019842       2.25909972       0.05278673       0.23805757      -0.02937182
O        3.03503227       8.26135540      10.90665913       0.18357736      -0.60336600      -1.58355279
H        2.08776283       8.18049717      10.79701424       0.10448683       0.13631298      -0.11614725
H        3.25474119       9.19699383      10.75833035       0.36563978      -0.23838440       0.01117406
O        8.90150070       6.19523621       7.56225967      -0.13847139       0.93324112       1.00592910
H        9.21435070       5.87428999       8.40375710       0.02390609       0.05773556      -0.13967824
H        7.96517515       5.98128986       7.57273722      -0.32121079      -0.05959153       0.02904448
O        6.64789438      13.46962261       0.01088729       0.77406131       0.72053872      -0.18935610
H        6.68631220      12.51578140      -0.11776997      -0.04998140      -0.17280874      -0.22568214
H        7.32624626      13.63806057       0.66713369      -0.27684983       0.31185556      -0.07857528
O       12.52948666       6.87258291       9.58488083      -0.29998804      -0.86003830       0.56052247
H       11.94363499       7.32502985      10.19994354      -0.26192329      -0.03774898      -0.14091939
H       12.96695805       7.56797457       9.07427692       0.06138793      -0.08591356      -0.18699957
O        7.73963976       9.76443100       5.20761108      -0.03611034       0.22222706       0.10281672
H        7.52807474       8.86848068       5.36209965       0.04774470      -0.10587278      -0.05483579
H        8.19758987       9.88074303       4.34724855      -0.10979553      -0.06147261      -0.12761717
O        0.68278676      12.79407501       3.27111936      -1.12930256       0.06070057      -0.19866128
H       -0.26201731      12.71639252       3.40794873      -0.26455731       0.07140934      -0.14283130
H        0.80041224      12.91229343       2.31259966       0.00726189       0.11444236       0.02462237
O        8.93208790       8.56494427       1.40294397       0.71554873      -0.84846998       0.31901162
H        8.94944477       8.77322865       0.49570197      -0.11179112      -0.14408501      -0.08975696
H        9.22366428       9.34733295       2.05123377      -0.05147608       0.00570373      -0.18449776
O        3.56649542       7.78700066       3.79284048       0.56196096       0.24625949      -0.92899846
H        3.55551505       6.98550940       4.33396673       0.23935606       0.30298645       0.19426001
H        3.21984744       7.60702801       2.91562343      -0.03020624      -0.17639601       0.17416975
O        9.79247665       6.62439871      10.68758011      -0.27752205       0.73345619       0.19407663
H       10.24772835       5.76496220      10.59576797       0.15668401       0.05421351       0.11795573
H       10.27466297       7.05207968      11.41392899       0.00056469       0.28520842       0.02428775
O        2.79566431       1.76213360       6.22825670       0.24082278       1.15880104      -0.80765703
H        3.66111231       1.34987283       6.39642906      -0.20643089       0.15327365      -0.18578622
H        2.17346835       1.14756310       6.62302303       0.31293957      -0.07020916      -0.11700203
O       10.90623665       2.98604631       5.35940075       1.21997197       0.89959466       1.26227987
H       10.75991821       3.95485854       5.60382748       0.14527660      -0.14253835       0.31242910
H       11.68888950       3.06188798       4.79975843      -0.04443893       0.12629761       0.15684724
O       11.56712532       3.86799431      11.20956039      -0.11775878       0.34180640       0.65368701
H       11.97332191       3.73524475      10.33911610       0.05969494      -0.18102529       0.05197249
H       11.69746113       3.02282405      11.65009975       0.21319994      -0.11560795      -0.02039969
O       11.90341759      10.80156517       7.35355234      -0.29810774       1.13698550       0.49280032
H       11.70730400      10.30763054       6.54184723       0.06471013      -0.12778354       0.09091769
H       12.01036453      11.71587658       7.06430387      -0.11009807       0.00177145      -0.09896707
O        3.79549170       7.68894434       0.34464306       0.41750254       0.31767226      -0.07410255
H        3.96422505       7.52225399      -0.58945572       0.06285908      -0.18000092      -0.23719382
H        4.61023378       7.50225115       0.84805936       0.06986971       0.02356085       0.10639523
O       11.55564213      12.51795101      12.87609863       1.51623836       0.55450928      -0.52765617
H       10.75801373      12.20589542      12.40624237       0.17936770      -0.21601080      -0.07080799
H       11.48557854      12.07921028      13.72098255      -0.01215924       0.27348859      -0.11656573
O        3.21403694       9.95493412       1.59322560      -0.55000669      -0.11690284      -0.36713513
H        3.03173018       9.38823795       2.33315802       0.18092215      -0.17787923      -0.18164064
H        3.41400242       9.28880596       0.88797522      -0.07187977      -0.08384961       0.31557481
O        0.14825691       9.88386536      10.59248638       0.59324470       0.00284148      -0.72890836
H        0.64904112       9.69124603       9.79088879       0.13530940      -0.16499782      -0.24584112
H       -0.56270581      10.47231102      10.33911610       0.19084284       0.04784298       0.15258235
O        1.54255676       2.05482149       3.63252616       0.18722109       0.49808324      -0.35911841
H        1.83003759       1.13863051       3.67243147      -0.16825629       0.10676742      -0.12604383
H        1.81178093       2.43378115       4.46466255      -0.11255702      -0.07698201       0.00660438
O        1.04737926       7.39064741      13.11359215      -0.24585931      -0.93867906      -0.35434986
H        0.92784345       6.50718594      12.70686722      -0.36041383       0.09765966      -0.25509811
H        1.98111761       7.45023298      13.36145973      -0.17959036       0.00505733      -0.11572678
O        0.60383350      12.44185543       5.97134113       0.97538472      -0.88582886       0.23191499
H        0.82042575      12.54816723       5.04161930      -0.00747976      -0.19212541       0.08833667
H        0.28497514      13.29039097       6.29530382      -0.02885235       0.12134229       0.13685072
O        1.60033762      11.61226463       8.26146126       1.37466686       0.80689973      -0.17767484
H        1.42005765      11.83647728       7.32481766      -0.03981352       0.17432296       0.10966459
H        1.45690942      12.43243599       8.76301575       0.10230744      -0.26465753      -0.00015098
O        0.88010633      13.27774334       0.43299502      -0.49309219       0.12668637      -0.00319194
H        1.41115677      12.67675781      -0.12125090       0.14594465       0.04788751       0.13084338
H       -0.01317175      13.07141781       0.13449039      -0.07650112      -0.15598604      -0.06248042
O        6.70086479       0.92595422       5.85026550      -0.02892466       0.19056619       1.51447818
H        7.20241928       0.10530679       5.84486818      -0.00796039      -0.15784413      -0.05212762
H        7.29433727       1.56641734       5.42523050      -0.07604493       0.07443097      -0.24519894
O        0.81552559       7.69778156       4.67057610       0.02275903       0.04723308       0.20946672
H        3.07063532       8.53806210       4.26338482      -0.09765288      -0.04181807      -0.22633545
H        1.04549003       6.86501551       5.10001945      -0.08084804      -0.09109358       0.07100982
O        5.71939993       2.88007331      12.92975712      -0.76228711       0.44939303       1.02210441
H        5.92704868       2.14136839      13.51402092      -0.33562285       0.06550747       0.11316211
H        5.62896395       3.59481716      13.56953239      -0.10413607      -0.06756761      -0.01769240
O        5.71474314      12.41571331       8.62415981      -0.20967728      -0.25245609      -1.01897234
H        5.75231504      12.57335567       7.67799091       0.18507433       0.17108451      -0.12765240
H        5.37591124      13.25467205       8.96648407      -0.23809291       0.08082729      -0.08926222
O       11.37164688       8.94076538       5.04666805       0.07341833      -0.25909691       0.50518909
H       10.81024361       8.14710617       5.11068249       0.11113316      -0.12062204      -0.21975919
H       12.24976444       8.52800846       4.92252302      -0.25692053       0.09525970      -0.18832899
O        9.92979908       6.64043283       2.97315025      -0.34424236      -0.43741294       0.02615325
H        9.67293549       7.34122229       2.29390883      -0.31401730       0.02713283       0.08843595
H       10.87051582       6.34875059       2.88767767       0.01315619      -0.05360847       0.01951889
O        3.74166393      10.54703045       9.42480469       0.23892814      -1.83844376       1.31915943
H        4.24726105      11.32867813       9.18312931       0.06190353      -0.10879540      -0.05939462
H        2.91215730      10.71769047       8.93642712       0.07865219      -0.02213342      -0.32436032
O        7.12918091       7.57257843      11.43144512       1.31109867      -0.12468486       0.71675497
H        7.06546783       8.52208138      11.59675884      -0.11296100       0.24489254       0.05005045
H        7.95385027       7.46356821      10.93158340       0.09725164      -0.17227556       0.19949001
O        4.91632605      10.93634605      12.70051670       0.42611937       0.78457256      -0.34435151
H        4.20245552      10.87654877      13.33706379      -0.07886164       0.36892000      -0.16750906
H        4.52835464      11.41001225      11.96623039      -0.02310026       0.18033927       0.01957137
O        8.09339428       4.54735184      12.63616943       0.35732283      -0.31067644       0.29822691
H        7.16225481       4.44533682      12.83064270      -0.21225492       0.26456683      -0.01531434
H        8.20595074       5.41819239      12.24441910      -0.11104265       0.10430939      -0.07066824
O       11.40445614       8.43010998      11.75217915      -0.87692777      -0.92050290       0.50662754
H       12.30723190       8.54134369      12.06391716      -0.02691764      -0.02497704       0.17793354
H       11.31645393       8.94902134      10.92766762      -0.18321686      -0.12144299      -0.05841319
O        5.19249821       4.12589931       2.17321444       0.04277370      -0.08067057      -0.12469572
H        5.68971300       3.66565800       2.87086558      -0.01109028      -0.02071164      -0.11250165
H        4.35613871       4.42495298       2.57400250      -0.13250432       0.04098728      -0.14018391
O        1.84788680       1.09277725       8.89435673      -0.76304215      -0.25456721      -0.04150717
H        2.75393844       1.15582883       8.59135056       0.36353407      -0.11724526       0.15620229
H        1.79819167       1.77784479       9.57969475       0.11960685      -0.19549482       0.12873058
O        4.62733698       6.28969431      10.28027248      -0.78011849      -1.76542662       0.45032720
H        4.02729750       7.05430222      10.38086891      -0.28486803       0.06949485      -0.10675007
H        5.37072515       6.50999069      10.84919071       0.26703637       0.16928937      -0.06948314
O        9.02289486      12.58420467       5.58324289      -0.46077907      -0.83511270      -0.22385967
H        8.56542110      11.73841953       5.68934250      -0.04643492      -0.06230325       0.02910183
H        9.94752502      12.32173252       5.44824982       0.09235182       0.05312892      -0.11969884
O        6.31710577       5.23209143       8.01004887      -0.94357958       0.82492790      -0.38385450
H        5.45211267       5.49635172       8.35316753      -0.10653675      -0.08759155      -0.29404345
H        6.17645025       5.07788372       7.07023048      -0.07836829      -0.08088011       0.10402419
O        9.80226612      10.56274700       3.16834259       0.43168092      -0.05109410       0.65989409
H       10.35975552      10.07029438       3.78869152       0.05380325      -0.00590616       0.02978444
H       10.59396839      12.29569721       2.71019697      -0.03193989      -0.06717618      -0.03948341
O        7.42118120      12.80878639      10.64492798      -0.74415130       0.12701927      -0.57935209
H        6.95989704      13.39532661      11.26761150       0.13486798      -0.04368233       0.01177784
H        6.88634157      12.66072369       9.83184814       0.07866754       0.10058171      -0.25001862
O        0.95700109       5.46132040      11.04710293      -0.15116650       0.51311426      -1.03320103
H        0.30155426       6.06082535      10.62878895       0.06144900      -0.36785083      -0.16144795
H        1.79609621       5.69532251      10.65122509       0.00511033      -0.27108224      -0.15546971
O       10.84829044       5.82624102       5.60276937      -0.96549591       1.00750409       0.16572019
H        9.88238335       6.89766598       3.94720674       0.09053696      -0.03935436      -0.05333147
H       10.19068336       6.07558918       6.25741434      -0.26233961      -0.05053035      -0.11927034
O        1.25361013       4.94652605       5.57181215       0.53434142       0.68108958       1.00413937
H        1.07203889       4.08753920       5.18089867       0.13663266      -0.10010913      -0.17653895
H        0.69679934       4.94885969       6.38552856       0.12275381       0.05420162      -0.28199990
O        5.89344645       6.91565800       1.74250638       0.21088243       0.47084467       0.09792943
H        6.52073288       7.47076464       1.25547290      -0.03103501      -0.13388076      -0.22996701
H        6.21957827       6.00452042       1.71081400       0.12818889      -0.05332217      -0.03394620
O        9.18826199       4.15207767       1.76346707       1.09751282       0.38714205       0.29872204
H        8.58108425       4.27811718       1.01877725       0.02182389       0.24224533       0.28164996
H        9.23266029       4.96313715       2.26542354       0.14906759       0.09071014      -0.33468899
O        0.95810175       2.61484432       1.17270422       0.06168154      -0.13728112       0.12047930
H        0.72124732       1.76200664       0.75716788       0.15125569      -0.44607910      -0.08821577
H        1.41651213       2.34277320       1.98809743       0.04248208      -0.07881009      -0.22517930
O       12.87884998       4.76344681       7.69042587       0.54144840       0.12472113      -0.56517681
H       12.91562748       5.38824081       8.42518902       0.04973959       0.12938873       0.00463515
H       12.17059898       5.08619213       7.09610748       0.12823201       0.00927406      -0.06008552
O        7.60766315      10.05034447      12.77486706      -0.76437171      -0.10884166       0.18507536
H        6.65900707      10.19999599      12.70623207       0.14039463      -0.02197240       0.07769412
H        8.09058952      10.69075489      12.23600483      -0.15700458      -0.12983786      -0.01405801
O       10.93269444      -0.03891040       2.77426958      -0.69690935       0.47453222       0.35814578
H       11.13219452       0.47775808       1.95597649       0.04396733       0.05139176       0.33036224
H       10.10014057       0.48459083       3.10077190      -0.07689622      -0.35910506       0.03598501
O        1.61387396       2.39296556      11.26798153      -0.05054459      -0.38668680      -0.57015015
H        1.91880703       2.27980638      12.18361759      -0.07210106       0.02593057      -0.07747072
H        1.35337591       3.31576085      11.21596432       0.38869865      -0.15858089      -0.12438068
O        4.79250908       1.83565211       8.25860405      -1.49132057       0.10837733      -1.23811470
H        4.55152178       2.45190024       8.97288799      -0.08830300      -0.04791794      -0.11090571
H        5.66410112       2.09938884       7.95310974       0.27985406       0.15731305       0.21694048
O        9.51106071      11.49145317      11.43250275      -0.58604532       0.67303738       0.37930701
H        8.76619053      11.99665928      11.03530312       0.12352020       0.16297592      -0.14306801
H        9.91265297      11.00148869      10.70345592      -0.06969790       0.13601563      -0.42534410
O        1.64945579      10.80606270      12.65691280       0.95627332       0.30257013       0.03057169
H        1.68046045      10.20301151      13.40014172       0.03450003      -0.16980029      -0.05276778
H        1.08626318      10.35705662      11.98051834       0.17666397       0.20637652       0.43946529
O        8.55557823       0.40971330       3.17734385      -0.06555812      -0.47748072      -0.27105557
H        8.00417519       1.19475508       3.06553912      -0.16563836      -0.01595270       0.06562600
H        8.58341312       0.16596055       4.13349295      -0.00666526       0.17378764      -0.03406725
O        8.23976517       3.11995482       4.14541531      -0.24164693      -0.42772701      -0.99105234
H        8.66559410       3.70364237       3.49601984      -0.25446908      -0.19391332       0.21407889
H        9.03728771       2.78911829       4.57913971       0.14353394       0.21880966      -0.21149344
O        2.50025105       4.96294641       1.89877248      -1.28531600      -0.47844854       0.17318229
H        2.07640123       4.16017389       1.56793618       0.07945182       0.16597073       0.04971692
H        2.59995341       5.52979565       1.13639212       0.28046748      -0.03934314      -0.14376543
O        0.73018515       8.74634647       8.04936695      -1.10029130      -0.62581800       0.21586385
H        1.31494176       8.32967186       7.39996099      -0.14474116       0.14799702       0.23199927
H        0.38222522       9.51381207       7.56215334      -0.38403580       0.13625095      -0.35811983
O       11.87214375       0.69587857       6.79241276       0.24050713       0.73501765       0.10174734
H       11.34651089       1.19476044       7.42477942      -0.20791820      -0.09797246      -0.03849963
H       11.90347099       1.24743474       6.01245832      -0.03058112      -0.03615837      -0.01397616
O       12.52371979       7.17114496       2.33621693       0.11946546      -0.83156953      -0.09581129
H       13.14502621       7.14278078       3.11786962       0.24420524      -0.06552730      -0.06793999
H       13.00421143       6.97794247       1.51823056       0.17309491      -0.41691315       0.19467999
O       10.56766796       9.37104034       9.33923626      -0.42477033       0.05201119       0.12200384
H       10.46342087       8.43259716       9.10110760       0.15116230      -0.04661297      -0.10578292
H       10.97021294       9.81247997       8.56737900       0.20858811      -0.38540116       0.00706572
O        4.05195761       4.48488808       5.46454811      -0.88572619      -0.54380255       1.35478868
H        3.65916514       3.61515856       5.66685295      -0.00833823       0.02814942      -0.28410452
H        3.28525901       5.02976561       5.68034649      -0.11893903       0.02838982       0.06110553
O        4.57168865       3.48108625      10.39759064       0.37916792      -0.04796728       0.39926609
H        4.63266087       4.38489962      10.72245312       0.07219503      -0.29904156       0.00975969
H        5.46126747       3.14840841      10.48903275       0.12295406       0.09194716      -0.05501639
192
Lattice="13.28847690757595 0.0 0.0 -5.291764530505391e-07 13.28847690757595 0.0 -5.291764530505391e-07 -5.291764530505391e-07 13.28847690757595" Properties=species:S:1:pos:R:3:momenta:R:3 step=10 time_fs=1.0 phase=equilibration pbc="T T T"
O       10.17689408       0.36069579       9.47427051       1.09364841       0.14234356       0.83766617
H       10.83661250       0.03912104      10.08738755       0.28349230       0.36754834      -0.22924499
H        9.32635705       0.37770567       9.94273701       0.27916855       0.00643459      -0.11318612
O       11.30924876       2.57722344       2.47747662       0.27351062       0.05840200       0.96838966
H       10.66335322       3.17937877       2.09116091       0.14281358      -0.00061235       0.07092352
H       12.17873563       2.96321485       2.25707132       0.05807319       0.22807997      -0.00877547
O        3.03610361       8.25798020      10.89703704       0.17309726      -0.50683138      -1.54207313
H        2.09780039       8.19278600      10.78474965       0.09054631       0.11598075      -0.13646646
H        3.29189512       9.17230714      10.75785304       0.39989715      -0.25206343      -0.02316700
O        8.90047153       6.20095330       7.56844634      -0.23122498       0.92914633       1.00059317
H        9.21952217       5.87942021       8.39205484       0.08652286       0.04331090      -0.08827352
H        7.93443000       5.97638562       7.57304835      -0.27509811      -0.03320361      -0.02151452
O        6.65262074      13.47375522       0.00946498       0.75387837       0.61234765      -0.29121255
H        6.67922232      12.50191818      -0.13793569      -0.09402114      -0.09284426      -0.18359485
H        7.30128644      13.67017508       0.66272374      -0.22161196       0.34916462       0.00078606
O       12.52770693       6.86758231       9.58828475      -0.27054636      -0.76025738       0.54822829
H       11.91982020       7.31841786      10.18441286      -0.22393965      -0.09782601      -0.17924722
H       12.97190925       7.55504086       9.05686427       0.03534522      -0.18493596      -0.16386585
O        7.73985693       9.76666350       5.20762741       0.10250134       0.47715486      -0.09012555
H        7.52963137       8.84811575       5.35976611      -0.00860729      -0.28049983       0.00223891
H        8.18152444       9.87287682       4.34164496      -0.21879505      -0.09853233       0.01277957
O        0.67556098      12.79452936       3.26980018      -1.23736273       0.09221465      -0.22544446
H       -0.28516949      12.72310493       3.39390289      -0.19756685       0.06790306      -0.14699875
H        0.80329350      12.92069140       2.31692085       0.05189462       0.05844597       0.06242177
O        8.93652832       8.56033651       1.40594241       0.73554115      -0.64246538       0.63208887
H        8.93986865       8.76190660       0.47927629      -0.08527846      -0.09367754      -0.22277439
H        9.21413420       9.33662180       2.02130976      -0.14251981      -0.22445574      -0.42692917
O        3.57093587       7.78732515       3.78573590       0.87943341      -0.10951542      -1.35870248
H        3.57769756       7.01475079       4.35350496       0.21710979       0.29081008       0.21203089
H        3.21724098       7.58801422       2.94048801      -0.02893714      -0.21589525       0.31879094
O        9.79148363       6.62841646      10.68941481      -0.04259236       0.58634038       0.41069569
H       10.25496896       5.77585877      10.60687475      -0.00522493       0.16575444       0.11038336
H       10.26972422       7.08081779      11.40851745      -0.10381141       0.29992295      -0.13718578
O        2.79739260       1.76905054       6.22336948       0.30013150       1.12111646      -0.79379714
H        3.64270730       1.36809499       6.37630538      -0.13447325       0.20556502      -0.22154177
H        2.19922972       1.14175408       6.61154603       0.20248988      -0.06011356      -0.11112386
O       10.91393445       2.99274155       5.36701528       1.27445530       1.24970097       1.23054684
H       10.77362306       3.92809509       5.63401206       0.13044072      -0.37567088       0.31432059
H       11.68214910       3.06903373       4.81557510      -0.06981474       0.02283024       0.15056385
O       11.56676277       3.86975346      11.21298956       0.00454001       0.22147557       0.48119585
H       11.97435057       3.72108599      10.35232519      -0.03473716      -0.10789421       0.21025840
H       11.71619764       3.01408263      11.64817771       0.16876256      -0.05335082      -0.02188942
O       11.90151413      10.80841643       7.35619533      -0.31685383       1.09570903       0.37231292
H       11.71443783      10.29488833       6.55346074       0.08228490      -0.13211640       0.14819638
H       11.99952752      11.71695444       7.05615927      -0.11183959       0.02349625      -0.06905789
O        3.79828372       7.69072457       0.34408998       0.50090587       0.26109543      -0.12631509
H        3.97030516       7.50594564      -0.60926612       0.05803648      -0.14935194      -0.14422176
H        4.61336947       7.50597066       0.85486194      -0.00941712       0.05355069       0.02976911
O       11.56482973      12.52122256      12.87279068       1.48387027       0.52591999      -0.56073054
H       10.77876911      12.18688326      12.39925332       0.24582293      -0.17422329      -0.07339699
H       11.48498277      12.10617727      13.71287920      -0.00083926       0.27120056      -0.03158547
O        3.21082044       9.95397425       1.59000431      -0.50503173      -0.16784099      -0.65560480
H        3.04711681       9.37046723       2.32207191       0.13461088      -0.18621410      -0.04226223
H        3.40649027       9.28670235       0.92590826      -0.07218876       0.01757717       0.43146697
O        0.15220481       9.88378511      10.58753998       0.71701924      -0.03886239      -0.88872307
H        0.65992005       9.67789825       9.77268383       0.07459991      -0.10209532      -0.10883843
H       -0.54648220      10.47863041      10.35522237       0.13277699       0.09062597       0.17397838
O        1.54370451       2.05775493       3.63034550       0.18160512       0.47418368      -0.35316507
H        1.81266187       1.14743049       3.65823282      -0.18295976       0.05701265      -0.16499443
H        1.80153034       2.42895704       4.46841258      -0.09688618      -0.02136673       0.07240741
O        1.04590549       7.38443284      13.11129156      -0.25296756      -1.07185271      -0.38970710
H        0.89384136       6.52284879      12.68392899      -0.33721795       0.21299372      -0.21896462
H        1.96067932       7.44937944      13.34956375      -0.22001943      -0.02079843      -0.12356645
O        0.60959024      12.43733153       5.97302596       0.89096206      -0.56843412       0.33971639
H        0.82094250      12.52753982       5.05295223       0.02089769      -0.22852331       0.13167643
H        0.27989778      13.28937387       6.30112020      -0.06979932      -0.15775955      -0.02498380
O        1.60853834      11.61754362       8.26010380       1.30633278       0.88414237      -0.26367451
H        1.41813347      11.84948782       7.33992159      -0.00237136       0.09597165       0.18144363
H        1.46849737      12.40488457       8.76357895       0.12964739      -0.26903111       0.03364062
O        0.87694257      13.27814575       0.43269860      -0.54441539       0.00948174      -0.09419052
H        1.42494613      12.68318644      -0.10592120       0.13739653       0.08279129       0.18204148
H       -0.01869763      13.05768922       0.12961870      -0.02923275      -0.12350834      -0.03550824
O        6.70084711       0.92717092       5.85940693       0.04274759       0.20048381       1.45987932
H        7.20021651       0.08994428       5.84066827      -0.04557984      -0.14082224      -0.03408770
H        7.28431094       1.57401581       5.40398709      -0.13755201       0.07051822      -0.18394887
O        0.81564795       7.69773224       4.67202683       0.01999966      -0.06930904       0.27035785
H        3.04651507       8.55322494       4.25543768      -0.38602139       0.33487887       0.05049135
H        1.03703990       6.85822622       5.10533500      -0.09476763      -0.03911110       0.03374814
O        5.71482708       2.88299003      12.93615097      -0.72486232       0.49555364       1.05252368
H        5.89450881       2.14457839      13.52313849      -0.33046309      -0.00534416       0.07852219
H        5.61660730       3.58898385      13.56783315      -0.15008098      -0.03942144      -0.00696505
O        5.71320727      12.41478761       8.61777226      -0.29237094      -0.02859539      -1.06744047
H        5.77155503      12.58560099       7.66588747       0.20942866       0.07841045      -0.10635353
H        5.35444197      13.25862463       8.95693060      -0.19741944      -0.01121345      -0.11175422
O       11.37196659       8.93870566       5.04972261       0.01294927      -0.38283359       0.49463165
H       10.82450580       8.14257613       5.08969562       0.17177739       0.01675864      -0.20818697
H       12.22356352       8.54130502       4.90453960      -0.24766443       0.16433950      -0.18546965
O        9.92835405       6.63721987       2.97040331      -0.13010694      -0.59961208      -0.88567794
H        9.64573198       7.33466372       2.30973910      -0.24272095      -0.15929955       0.23411041
H       10.86108685       6.34851616       2.88847373      -0.20250934       0.04826775      -0.00376583
O        3.74268761      10.53582423       9.43264926       0.09365213      -1.79821486       1.23245004
H        4.25672301      11.31785514       9.17920470       0.12815831      -0.11999313      -0.01841092
H        2.92473092      10.71159932       8.90857358       0.18658678      -0.10466551      -0.24112545
O        7.13731267       7.57207318      11.43582181       1.33543805      -0.01415514       0.71999876
H        7.05460278       8.54283438      11.60214563      -0.10526786       0.15693419       0.05555985
H        7.96195604       7.44565017      10.95148123       0.07095412      -0.19327584       0.20869135
O        4.91886331      10.94126140      12.69827956       0.39781117       0.82630474      -0.38413631
H        4.19434529      10.91156879      13.32460967      -0.08704487       0.34805714      -0.08646581
H        4.52758594      11.42717786      11.96549313       0.01178403       0.16850479      -0.02969400
O        8.09538433       4.54562105      12.63801731       0.27589648      -0.23879505       0.30796151
H        7.14318252       4.46839012      12.82767481      -0.15894047       0.20934113      -0.04857057
H        8.19620273       5.42701644      12.23756958      -0.08967767       0.06366129      -0.06351848
O       11.39922362       8.42482381      11.75451099      -0.82118722      -0.80544699       0.27361635
H       12.29861267       8.53846281      12.08138503      -0.14983982      -0.03370370       0.18003911
H       11.29972439       8.93242330      10.93771404      -0.15988407      -0.21038362       0.25075631
O        5.19255786       4.12541501       2.17267031      -0.02760846      -0.06993591      -0.06042429
H        5.68734872       3.66577165       2.85896071      -0.03308074       0.01869067      -0.12343408
H        4.34692015       4.42700275       2.55810702      -0.05459095       0.00015117      -0.18515454
O        1.84355658       1.09116530       8.89389543      -0.61859270      -0.26972384      -0.11369634
H        2.78563186       1.14417220       8.60820550       0.25977745      -0.12262682       0.19809127
H        1.80703534       1.75904932       9.59334776       0.06210215      -0.18969411       0.15230072
O        4.62262954       6.27908197      10.28336412      -0.74502456      -1.66879554       0.57486258
H        4.00288242       7.05569080      10.36734115      -0.20120909      -0.05708707      -0.17099657
H        5.39484890       6.52507414      10.83940167       0.20810564       0.13591607      -0.14444432
O        9.02039326      12.57863297       5.58184620      -0.34642727      -0.97394668      -0.23025413
H        8.56092304      11.73473836       5.69127586      -0.04417526      -0.01235190       0.01047585
H        9.95152045      12.32971239       5.44095929      -0.01553520       0.11103344      -0.02829842
O        6.31111042       5.23715699       8.00749324      -0.99305913       0.82641852      -0.43232874
H        5.44346045       5.48803650       8.32545162      -0.08383375      -0.07851520      -0.26801959
H        6.16896117       5.06992370       7.08083640      -0.07616442      -0.08582380       0.09478789
O        9.80517551      10.56230515       3.17270351       0.51804868      -0.08428875       0.75750984
H       10.36347781      10.07091758       3.78834394       0.02551431       0.01581036      -0.03355612
H       10.57921512      12.25501509       2.70327290      -0.25879764      -0.73433116      -0.10012580
O        7.41608157      12.80985418      10.64114439      -0.90585976       0.21848230      -0.65691222
H        6.97465038      13.38833305      11.26721791       0.16118441      -0.09185990      -0.01183935
H        6.89881304      12.67046773       9.81490696       0.17660836       0.10006110      -0.09624853
O        0.95601442       5.46470285      11.04078099      -0.15712014       0.57526429      -1.00815698
H        0.30882141       6.02199750      10.61348584       0.07053126      -0.41298644      -0.16351145
H        1.79810753       5.66723799      10.63548416       0.04002735      -0.30381769      -0.16910680
O       10.84231742       5.83232275       5.60387934      -0.97912892       0.97793037       0.20158535
H        9.88904602       6.90297776       3.97897745       0.05029048       0.13945988       0.67376903
H       10.16422788       6.06953505       6.24608729      -0.27584594      -0.07431512      -0.11648120
O        1.25674445       4.95061069       5.57804784       0.50583988       0.64260374       0.99450608
H        1.08600884       4.08002908       5.16322882       0.15133960      -0.04340315      -0.18038967
H        0.71139834       4.95559119       6.35598073       0.15575133       0.08366419      -0.29355161
O        5.89510518       6.91840429       1.74295899       0.33323175       0.41835103       0.05086983
H        6.51578199       7.45718481       1.23558384      -0.06880147      -0.14183066      -0.17935900
H        6.22941718       6.00218827       1.70882212       0.07113642       0.01182621      -0.00593415
O        9.19492077       4.15448863       1.76530356       1.08432955       0.38846263       0.30608940
H        8.58358690       4.30039144       1.04588598       0.01886223       0.21505218       0.25995872
H        9.24906026       4.97515433       2.23320655       0.18980339       0.16601010      -0.31576709
O        0.95840347       2.61353808       1.17358352       0.02296555      -0.30385913       0.13926896
H        0.73766192       1.72566183       0.74974707       0.19008904      -0.27726874      -0.05401902
H        1.41935996       2.33750668       1.96181143       0.02586377      -0.03381841      -0.29581676
O       12.88181144       4.76443323       7.68674056       0.43813398       0.20107810      -0.62042431
H       12.92132630       5.39896320       8.42488922       0.06721581       0.08513444      -0.01662874
H       12.18672464       5.08401003       7.09458711       0.19565499      -0.05087710       0.02288252
O        7.60298150      10.04956244      12.77598042      -0.74668112      -0.15411909       0.19309299
H        6.67036333      10.19754390      12.71466844       0.07312140      -0.02553709       0.09541146
H        8.07630612      10.67662739      12.23476966      -0.12614480      -0.14855125      -0.02063992
O       10.92880811      -0.03334299       2.77640356      -0.57678486       1.28525603       0.35910763
H       11.13450113       0.47871366       1.99365220       0.00966182      -0.01569888       0.41684775
H       10.10432454       0.44529447       3.10036339       0.15770049      -0.44332170      -0.04165639
O        1.61364995       2.39074658      11.26484321      -0.02027741      -0.35818990      -0.45911907
H        1.91195557       2.27923598      12.17254386      -0.06311717      -0.04051333      -0.13401842
H        1.39063531       3.30128703      11.20051240       0.36929085      -0.11266617      -0.19529319
O        4.78357591       1.83642000       8.25101151      -1.38469966       0.15044467      -1.24198616
H        4.54342737       2.44513125       8.96018594      -0.07898401      -0.08888936      -0.14631160
H        5.68715057       2.11391732       7.97447943       0.16262059       0.13099203       0.22986839
O        9.50731763      11.49548590      11.43439627      -0.62045137       0.63610276       0.22695545
H        8.78334706      12.00954063      11.02348278       0.22638099       0.10305880      -0.09827840
H        9.90486582      11.01518507      10.66453629      -0.09584262       0.15307337      -0.35773187
O        1.65514831      10.80772038      12.65714376       0.92787421       0.26434111       0.08459908
H        1.68537310      10.18864060      13.39540001       0.06738639      -0.12535571      -0.04059810
H        1.10491748      10.38013510      12.02445202       0.17462804       0.24457647       0.42309993
O        8.55480809       0.40684818       3.17616828      -0.18511946      -0.44798599      -0.12322872
H        7.99051711       1.18989671       3.07218070      -0.11181110      -0.08533101       0.06920646
H        8.58108108       0.18528335       4.12055277      -0.03950841       0.21695992      -0.21581013
O        8.23856361       3.11690894       4.13942053      -0.17112220      -0.58330145      -0.93761528
H        8.63874593       3.68680017       3.51552232      -0.27813995      -0.12613679       0.15649267
H        9.04858850       2.81388835       4.56058180       0.09662318       0.28540572      -0.16406547
O        2.49249902       4.96024902       1.89987378      -1.22842417      -0.37590894       0.18631533
H        2.08210342       4.17266007       1.57224847       0.02873902       0.07351898       0.03179210
H        2.62665599       5.52516954       1.12293315       0.26600173      -0.06104706      -0.12502682
O        0.72334806       8.74296172       8.05029742      -1.15339017      -0.43683090       0.08813014
H        1.30174565       8.34332911       7.42280912      -0.11256559       0.12323165       0.22270516
H        0.34630259       9.52219363       7.53137636      -0.33980893       0.00946548      -0.25580347
O       11.87360009       0.70045682       6.79302930       0.23850789       0.75585249       0.10549310
H       11.32750189       1.18411202       7.42225388      -0.18033776      -0.12114491      -0.01449955
H       11.90042660       1.24497797       6.01071789      -0.03157545      -0.01255309      -0.02320780
O       12.52495086       7.16599089       2.33605974       0.28683036      -0.84384033       0.04577326
H       13.16168621       7.13597315       3.10263856       0.09773697      -0.07353730      -0.23908169
H       13.01952895       6.93712493       1.53867862       0.14145711      -0.42127148       0.21978793
O       10.56512626       9.37111115       9.33974510      -0.40049359      -0.02767561       0.05326288
H       10.47587511       8.43516398       9.09101721       0.10288731       0.09496770      -0.09928160
H       10.98799357       9.77442571       8.57060107       0.16080998      -0.38728208       0.05201835
O        4.04601468       4.48147622       5.47296655      -1.04076161      -0.54599907       1.38557742
H        3.66259875       3.61957486       5.63839927       0.07061264       0.04464742      -0.29544850
H        3.27700464       5.03261134       5.68457207      -0.04924719       0.02885456       0.02613977
O        4.57420303       3.48068665      10.40003544       0.44432460      -0.10761735       0.39327944
H        4.63839837       4.36059332      10.72232581       0.04618792      -0.17272052      -0.00252949
H        5.47175480       3.15480954      10.48648081       0.08927099       0.03909379       0.00150393
192
Lattice="13.288439991838453 0.0 0.0 -5.291749829844687e-07 13.288439991838453 0.0 -5.291749829844687e-07 -5.291749829844687e-07 13.288439991838453" Properties=species:S:1:pos:R:3:momenta:R:3 step=20 time_fs=2.0 phase=equilibration pbc="T T T"
O       10.18368355       0.36148320       9.47936274       1.14008558       0.12173905       0.79282988
H       10.86420086       0.07639104      10.06529995       0.30323947       0.38884806      -0.20456092
H        9.35323516       0.38021125       9.93054817       0.24060273       0.04594760      -0.11798504
O       11.31122709       2.57764905       2.48333304       0.39428137       0.08198568       0.94263488
H       10.67665841       3.17954726       2.09715047       0.12423359       0.00885009       0.04921838
H       12.18213423       2.98355105       2.25795819       0.00524500       0.18484693       0.02952340
O        3.03720176       8.25493868      10.88771402       0.19030121      -0.48591772      -1.48321137
H        2.10371201       8.20313699      10.77015962       0.02562208       0.09795371      -0.16319622
H        3.33315585       9.15041261      10.75336722       0.44836480      -0.18819117      -0.06964632
O        8.89828758       6.20659454       7.57439908      -0.48660844       0.91241208       0.94120645
H        9.23163065       5.88212616       8.38808984       0.16218320       0.01178968       0.00934218
H        7.91641086       5.97585987       7.56879034      -0.07951161       0.02573289      -0.06352170
O        6.65701514      13.47692324       0.00717840       0.68172829       0.42656782      -0.45672063
H        6.66827324      12.50024039      -0.15275501      -0.12836742       0.06671166      -0.11714321
H        7.28443376      13.70606906       0.66861558      -0.12385054       0.38614163       0.11989943
O       12.52614641       6.86322083       9.59152908      -0.22410707      -0.65935663       0.51484872
H       11.89994742       7.30626991      10.16507597      -0.18563772      -0.14783783      -0.21423119
H       12.97330457       7.53164708       9.04289246      -0.00570409      -0.29185546      -0.12261729
O        7.74071162       9.76976366       5.20665120       0.16596171       0.49961845      -0.19981834
H        7.52793573       8.82105836       5.36140620      -0.01758076      -0.23574478       0.02601466
H        8.15580203       9.86190732       4.34818863      -0.29977660      -0.12294751       0.10437727
O        0.66748931      12.79514249       3.26839736      -1.39485952       0.11842995      -0.22291641
H       -0.29905002      12.72971876       3.37912053      -0.08510958       0.06858682      -0.15609368
H        0.81060641      12.92375560       2.32403716       0.09924055       0.00618609       0.07828039
O        8.94105494       8.55698840       1.41027110       0.73830938      -0.46378971       0.73301444
H        8.93261883       8.75374624       0.45746434      -0.06381866      -0.07869698      -0.20185604
H        9.19667494       9.30534884       1.96989286      -0.20454530      -0.38811163      -0.60363839
O        3.57722821       7.78599362       3.77654834       1.17644845      -0.29175942      -1.59337347
H        3.59794896       7.04122836       4.37613626       0.19927389       0.24991441       0.25595225
H        3.21242694       7.56427433       2.97299860      -0.08215451      -0.27580145       0.31747538
O        9.79175315       6.63174809      10.69250460       0.11583095       0.52441573       0.59219623
H       10.24840503       5.79432825      10.61703447      -0.11446425       0.18915984       0.09705941
H       10.25496163       7.11043354      11.38848141      -0.19086254       0.31229730      -0.25849125
O        2.79907243       1.77611907       6.21838295       0.23398176       1.19010877      -0.82724518
H        3.64048448       1.38757375       6.35405991       0.10460975       0.18775142      -0.23249980
H        2.21148499       1.13449629       6.60216263       0.04878180      -0.08982257      -0.08066939
O       10.92165453       3.00079710       5.37453320       1.24114393       1.32263186       1.21941241
H       10.78379734       3.89038363       5.66743831       0.07037648      -0.34593614       0.38822630
H       11.67955668       3.06685226       4.82585002       0.03437928      -0.06507456       0.04737617
O       11.56703168       3.87066640      11.21570857       0.07878623       0.08511999       0.44647159
H       11.96850762       3.71394165      10.37551012      -0.06864314      -0.04241622       0.23170167
H       11.72992999       3.01319606      11.64585096       0.11290685       0.03358777      -0.02201712
O       11.89947722      10.81494692       7.35812750      -0.33547660       1.04121513       0.26853487
H       11.72321270      10.28185773       6.57042049       0.09753479      -0.13580120       0.19697688
H       11.98855351      11.72083186       7.05062855      -0.11253694       0.05809480      -0.04482254
O        3.80164684       7.69209687       0.34293541       0.59387754       0.19410145      -0.25521565
H        3.97503715       7.49374550      -0.61473387       0.03828307      -0.09922480       0.03644885
H        4.60831664       7.51259228       0.85379828      -0.09011456       0.08153008      -0.04842520
O       11.57385998      12.52443321      12.86905023       1.47337559       0.53449349      -0.64512272
H       10.80524508      12.17158278      12.39144699       0.29293661      -0.14180781      -0.08933695
H       11.48518492      12.13093541      13.71689586       0.00509460       0.23628860       0.11709013
O        3.20767989       9.95314080       1.58560073      -0.52879976      -0.07049357      -0.73547987
H        3.05825790       9.35264784       2.32421103       0.09768980      -0.17146348       0.07498604
H        3.40208552       9.28633298       0.96560913      -0.00649951      -0.05855253       0.35187854
O        0.15720953       9.88325090      10.58149037       0.91225193      -0.12590798      -1.06753158
H        0.66231022       9.67194926       9.77118094      -0.02495700      -0.01961837       0.07547728
H       -0.53770026      10.49082491      10.37251900       0.04900157       0.15997341       0.18126865
O        1.54474936       2.06078377       3.62818563       0.16112466       0.52106458      -0.34188716
H        1.79499316       1.14770507       3.64037176      -0.17873897      -0.05361545      -0.20035112
H        1.79282729       2.42916421       4.47821366      -0.08313110       0.02078582       0.12162847
O        1.04403563       7.37763718      13.10877084      -0.37239098      -1.11751491      -0.41574568
H        0.86181572       6.54553429      12.66285805      -0.32290955       0.23386893      -0.22140640
H        1.94237653       7.44654286      13.33829191      -0.13482522      -0.03491320      -0.10219648
O        0.61478696      12.43460535       5.97559610       0.81399422      -0.35212253       0.50028320
H        0.82524172      12.50375828       5.06389964       0.07152863      -0.25920146       0.07479866
H        0.27058625      13.26279094       6.29197535      -0.13462094      -0.34360199      -0.14174339
O        1.61648240      11.62268916       8.25822360       1.29097652       0.77936469      -0.33187341
H        1.41881956      11.85599938       7.35586934       0.01200444       0.04364781       0.12417241
H        1.48118014      12.38528450       8.77329615       0.12741415      -0.11400196       0.17979655
O        0.87335961      13.27782175       0.43186063      -0.62386369      -0.09901945      -0.17366878
H        1.43834904      12.69218634      -0.08639234       0.14160382       0.09787200       0.21442653
H       -0.01827183      13.04749101       0.12768544       0.03639801      -0.08503253      -0.00502541
O        6.70148597       0.92835299       5.86811562       0.17498383       0.18194631       1.38058877
H        7.19240586       0.08021735       5.83816667      -0.11677198      -0.05199709      -0.01713944
H        7.26662236       1.57872952       5.39021454      -0.22600628       0.02296143      -0.09660582
O        0.81576880       7.69687067       4.67389428       0.01783633      -0.19916685       0.33981567
H        2.99778748       8.59921194       4.27036064      -0.60538779       0.59412124       0.24422207
H        1.02697636       6.85762399       5.10646061      -0.10986934       0.02097538      -0.00700851
O        5.71047843       2.88607209      12.94251084      -0.68605696       0.50625326       1.02782370
H        5.86275973       2.13976987      13.52965497      -0.32092748      -0.09252421       0.05542641
H        5.59960611       3.58889953      13.56948227      -0.19840363       0.04229866       0.04463198
O        5.71110821      12.41538336       8.61093243      -0.38506540       0.23075939      -1.15591111
H        5.79305465      12.58832723       7.65889753       0.23226439      -0.02194452      -0.03467283
H        5.33778926      13.25155934       8.94430386      -0.14533190      -0.12996838      -0.14524487
O       11.37153798       8.93638310       5.05276024      -0.15227475      -0.33629798       0.50277871
H       10.84115461       8.14719707       5.07062444       0.15641668       0.05954338      -0.17986698
H       12.20735426       8.55751149       4.88529636      -0.06041916       0.15860814      -0.21440727
O        9.92795764       6.63309713       2.96284347      -0.01668962      -0.73771630      -1.51397673
H        9.62531851       7.31205251       2.33772514      -0.18185031      -0.28334793       0.32158386
H       10.83374606       6.35747119       2.88666640      -0.32857595       0.12830501      -0.03538515
O        3.74283554      10.52499192       9.43984421      -0.03379684      -1.71607643       1.11943318
H        4.27145721      11.30402742       9.17994583       0.17113466      -0.16822381       0.03610061
H        2.94867775      10.69713673       8.88981606       0.29985652      -0.19050606      -0.14511336
O        7.14546604       7.57254188      11.44029926       1.31955276       0.17977071       0.75330619
H        7.04564330       8.54964348      11.60684083      -0.07558144      -0.02364219       0.03937491
H        7.96829895       7.42615592      10.97188644       0.06466771      -0.20556155       0.20794154
O        4.92109776      10.94650332      12.69570593       0.32496266       0.89567684      -0.44332783
H        4.18611323      10.94405553      13.31980623      -0.07586059       0.31826392      -0.01581313
H        4.53142075      11.44199631      11.96141302       0.07065125       0.13225409      -0.04826664
O        8.09658250       4.54451125      12.63988245       0.11433889      -0.11353276       0.31043161
H        7.13396904       4.48606789      12.82075083      -0.02274202       0.15263920      -0.09306402
H        8.18839030       5.42878735      12.23279674      -0.06963665      -0.03146737      -0.03189726
O       11.39431378       8.41993267      11.75590033      -0.76954873      -0.81191319       0.23869445
H       12.27918895       8.53483160      12.09940183      -0.23732711      -0.03981481       0.19487484
H       11.28447574       8.91204917      10.96943035      -0.15979798      -0.17532283       0.34616276
O        5.19209817       4.12507708       2.17232065      -0.11690907      -0.03325815      -0.06485991
H        5.68428128       3.66824165       2.84860991      -0.02381111       0.02657396      -0.07934689
H        4.34494221       4.42510849       2.53841389       0.00729643      -0.03657243      -0.21467483
O        1.84050407       1.08946519       8.89287014      -0.36553897      -0.28254334      -0.21229740
H        2.80118024       1.13192088       8.63073950       0.05135155      -0.12845584       0.26563244
H        1.81032547       1.74075195       9.60923624       0.00567905      -0.18720077       0.17283349
O        4.61822800       6.26931010      10.28736907      -0.68119546      -1.50635782       0.73972790
H        3.98971516       7.04149423      10.34761598      -0.06675717      -0.23487757      -0.23195078
H        5.40875338       6.53587625      10.81956340       0.07188036       0.08470864      -0.26385390
O        9.01857355      12.57225077       5.58037964      -0.24650405      -1.08440027      -0.24271733
H        8.55670049      11.73550075       5.69137211      -0.04414511       0.02348200      -0.00770196
H        9.94490689      12.34299982       5.44272333      -0.10938795       0.15920501       0.06339390
O        6.30503182       5.24220571       8.00482816      -0.97291389       0.82226796      -0.42337005
H        5.43353507       5.48174301       8.30191121      -0.12773321      -0.04777099      -0.21115500
H        6.16139535       5.06056151       7.08573020      -0.07915796      -0.10790744      -0.00265965
O        9.80852833      10.56176785       3.17753162       0.57709722      -0.06934619       0.80786860
H       10.36575807      10.07220563       3.78337464       0.02947854       0.00376660      -0.05978736
H       10.54550647      12.15909892       2.69142611      -0.42229564      -1.19775547      -0.13757607
O        7.41017936      12.81130838      10.63676610      -0.99358158       0.25871453      -0.75798698
H        6.98977713      13.37917600      11.26717091       0.14185667      -0.08542357       0.02227786
H        6.91978616      12.67997153       9.81187499       0.24524082       0.09352595       0.02118247
O        0.95525177       5.46818891      11.03481844      -0.07323572       0.55386254      -0.91497503
H        0.31204712       5.98315054      10.59470202      -0.01942450      -0.37143670      -0.23192025
H        1.80410879       5.63620296      10.61814682       0.08069229      -0.33285268      -0.18467194
O       10.83616802       5.83824732       5.60525615      -1.01877144       0.95961608       0.25372983
H        9.89301842       6.92244937       4.07101858       0.03639883       0.24613697       1.17424977
H       10.13773724       6.06099603       6.23409728      -0.26349982      -0.10052933      -0.13124375
O        1.26005622       4.95431438       5.58358204       0.59242024       0.56349605       0.78317658
H        1.10167266       4.08059489       5.14658051       0.17056849       0.06122060      -0.15727062
H        0.72295568       4.96510464       6.33424454       0.06185042       0.11178607      -0.12506441
O        5.89747904       6.92070060       1.74315466       0.43912804       0.33414272       0.01878001
H        6.50799665       7.44395559       1.21994936      -0.08534616      -0.12340758      -0.14593885
H        6.23319161       6.00702270       1.70978897       0.00715085       0.08392540       0.02634376
O        9.20162438       4.15676009       1.76730700       1.11252160       0.35683537       0.35573110
H        8.58300601       4.32008653       1.06721206      -0.03599947       0.18968281       0.17072764
H        9.26987484       4.99616022       2.20502914       0.23820300       0.26127061      -0.26149642
O        0.95821175       2.61104090       1.17409133      -0.09718016      -0.50407910       0.00389211
H        0.75854860       1.71032001       0.74755730       0.23770688      -0.03314282       0.00986426
H        1.42398175       2.33494604       1.93484389       0.08274204      -0.02559247      -0.23354524
O       12.88433245       4.76587119       7.68292409       0.41106213       0.26565349      -0.60291160
H       12.92866457       5.40419901       8.42133496       0.08436319       0.02191425      -0.05591170
H       12.20641431       5.07720760       7.09856398       0.19369737      -0.08184788       0.04556304
O        7.59854613      10.04828472      12.77727623      -0.68879234      -0.25904880       0.24512656
H        6.67049869      10.19534661      12.72474383      -0.07651963      -0.01783912       0.11217184
H        8.06749463      10.66353566      12.23035057      -0.04942555      -0.11366460      -0.07479546
O       10.92551092      -0.02393521       2.77897547      -0.47863256       1.70162481       0.50360878
H       11.13572897       0.47900554       2.03041343       0.02699142       0.04701250       0.29880720
H       10.12759093       0.39969409       3.09391486       0.28746693      -0.47898228      -0.07779157
O        1.61360576       2.38834946      11.26213972       0.00421116      -0.42887288      -0.42303376
H        1.90749076       2.27142468      12.16044592      -0.02415623      -0.12139827      -0.10011899
H        1.42452476       3.29753199      11.17741974       0.32506966       0.04583688      -0.27932540
O        4.77572752       1.83751111       8.24321296      -1.15897332       0.20234787      -1.29842545
H        4.53560368       2.43545615       8.94554859      -0.08543816      -0.10243601      -0.14417845
H        5.69240173       2.12371729       7.99845984      -0.05910338       0.06771185       0.26158748
O        9.50351807      11.49910223      11.43513606      -0.59750132       0.54288749       0.02265520
H        8.80896965      12.01757967      11.01584415       0.28890146       0.07073553      -0.06171101
H        9.89335396      11.03204661      10.63572677      -0.14027282       0.19453475      -0.22692629
O        1.66118193      10.80950806      12.65828472       1.06144717       0.34142775       0.32438926
H        1.69382291      10.17851017      13.39272705       0.10732531      -0.08053195      -0.01296033
H        1.11446053      10.40051318      12.05595305      -0.00266764       0.15784475       0.19677838
O        8.55326407       0.40427427       3.17554826      -0.30757194      -0.38699910      -0.10659596
H        7.98220458       1.17874332       3.07851211      -0.06210649      -0.13631377       0.05751119
H        8.57614935       0.20663381       4.09645710      -0.05794434       0.21092078      -0.24290311
O        8.23734673       3.11256501       4.13411256      -0.23431365      -0.84020154      -0.77601699
H        8.61442166       3.68326584       3.52164925      -0.21018238       0.06827729      -0.04699785
H        9.05767166       2.84408218       4.54795396       0.09733965       0.33193382      -0.09192335
O        2.48524313       4.95849350       1.90102185      -1.12977468      -0.18445308       0.18426820
H        2.08096992       4.17250841       1.57327083      -0.05307072      -0.07877103      -0.01202654
H        2.65143192       5.51687735       1.11338589       0.24070640      -0.11337160      -0.06437467
O        0.71575598       8.74122807       8.05047189      -1.33452480      -0.10790486      -0.01587142
H        1.29568296       8.35182570       7.44049719       0.00022317       0.04361697       0.12824870
H        0.31752114       9.51293836       7.51421922      -0.24737296      -0.20322376      -0.09149659
O       11.87501193       0.70514869       6.79369578       0.23150324       0.77280122       0.11712662
H       11.31146138       1.17106271       7.42173849      -0.14821310      -0.14677384       0.00377609
H       11.89721024       1.24509600       6.00777549      -0.03434756       0.01463120      -0.03634427
O       12.52710401       7.16076273       2.33670614       0.41199325      -0.85138943       0.15506184
H       13.16500988       7.12848896       3.07374114      -0.01714136      -0.07939448      -0.33303331
H       13.03181625       6.89557262       1.55969563       0.11237022      -0.43281133       0.20357362
O       10.56267400       9.37068351       9.33994618      -0.39125109      -0.09643143       0.03048817
H       10.48299257       8.44906131       9.08177921       0.04124436       0.17557159      -0.09090772
H       11.00251413       9.73859121       8.57579291       0.14353726      -0.33937534       0.04583686
O        4.03930401       4.47838956       5.48147523      -1.12792777      -0.44025900       1.38608728
H        3.67119082       3.62009433       5.60997442       0.09778478      -0.05171115      -0.28487181
H        3.27514408       5.03559307       5.68570800       0.00587962       0.03559726      -0.00014353
O        4.57715142       3.47952575      10.40230312       0.52244994      -0.27423677       0.35274280
H        4.64172446       4.35469529      10.72316049       0.02248526       0.05790255       0.02251436
H        5.47807011       3.15601854      10.48906358       0.03801244      -0.01368642       0.05129308
192
Lattice="13.288431343102415 0.0 0.0 -5.291746385727282e-07 13.288431343102415 0.0 -5.291746385727282e-07 -5.291746385727282e-07 13.288431343102415" Properties=species:S:1:pos:R:3:momenta:R:3 step=30 time_fs=3.0 phase=equilibration pbc="T T T"
O       10.19098595       0.36224339       9.48362913       1.24886401       0.12640477       0.58493897
H       10.89852728       0.11386441      10.05019389       0.40621727       0.37941492      -0.09946855
H        9.36836990       0.38677796       9.92253735       0.05738666       0.08899702      -0.03779563
O       11.31414607       2.57820659       2.48905579       0.56087350       0.09858776       0.92292898
H       10.68656900       3.18168978       2.10036349       0.07648011       0.03615987       0.01619322
H       12.17901414       2.99862437       2.26310795      -0.06934782       0.12295059       0.07675936
O        3.03844517       8.25194763      10.87879044       0.21561476      -0.48345242      -1.42276455
H        2.10274494       8.21218317      10.75285963      -0.04055669       0.09029902      -0.19127183
H        3.37897937       9.13578173      10.74419246       0.48736223      -0.11870812      -0.11765694
O        8.89444871       6.21210637       7.58001630      -0.75185198       0.88143973       0.89988241
H        9.25036001       5.88210319       8.39273552       0.21529249      -0.00765396       0.07402470
H        7.91986623       5.98149973       7.56105583       0.14669860       0.08855600      -0.09271556
O        6.66102927      13.47900012       0.00392112       0.63758912       0.26659254      -0.59224289
H        6.65456037      12.51493521      -0.16035220      -0.15118470       0.22806440      -0.03800786
H        7.27581282      13.74446581       0.68465139      -0.06482402       0.39499363       0.19616290
O       12.52492930       6.85934851       9.59456128      -0.16958716      -0.61368321       0.47549596
H       11.88276777       7.29037419      10.14348156      -0.17276580      -0.17331922      -0.22309923
H       12.97132271       7.49939577       9.03226160      -0.02936716      -0.36012647      -0.10197087
O        7.74163811       9.77235298       5.20552892       0.11862972       0.32368253      -0.12960157
H        7.52740387       8.80785565       5.36403731       0.01059716      -0.01757924       0.02619474
H        8.12546893       9.84959160       4.35687651      -0.30819993      -0.12569197       0.04093425
O        0.65844759      12.79593914       3.26711625      -1.54454860       0.14460501      -0.18922822
H       -0.30229618      12.73624687       3.36364619       0.01150500       0.06408460      -0.15991540
H        0.82287021      12.92203411       2.33102764       0.15349493      -0.04064326       0.05960208
O        8.94537295       8.55404741       1.41426106       0.64965805      -0.55723294       0.50182301
H        8.92722724       8.74554338       0.44299241      -0.04791446      -0.09584744      -0.08266902
H        9.17758275       9.27075207       1.91151087      -0.16471584      -0.25233305      -0.54140028
O        3.58529649       7.78407552       3.76673904       1.43197105      -0.29551711      -1.54728840
H        3.61670647       7.06386201       4.40299182       0.18725141       0.22140323       0.28823803
H        3.19884439       7.53309727       2.99637294      -0.20581282      -0.37001282       0.13710467
O        9.79254181       6.63505427      10.69644245       0.11645838       0.56791610       0.67443717
H       10.23563961       5.80761312      10.62549258      -0.13312995       0.06003210       0.07618303
H       10.23449257       7.14301700      11.36169885      -0.21783649       0.36502827      -0.27160585
O        2.80020542       1.78356427       6.21324524       0.14360881       1.21489086      -0.83513278
H        3.66246885       1.40492360       6.33087378       0.32525909       0.17672541      -0.24584067
H        2.21009063       1.12539907       6.59506633      -0.06397206      -0.08491865      -0.07217295
O       10.92913226       3.00848007       5.38185690       1.20539561       1.16160959       1.15527132
H       10.78617335       3.86793006       5.71220712      -0.02239467      -0.10024122       0.53627559
H       11.68989732       3.05669456       4.82383666       0.16996998      -0.14082763      -0.08345420
O       11.56749985       3.87091350      11.21878757       0.06336041       0.00903622       0.57837031
H       11.96395361       3.71192540      10.39103072      -0.01289962      -0.00267352       0.06249643
H       11.73821023       3.01948095      11.64472492       0.05838500       0.08644478       0.00447476
O       11.89736155      10.82118603       7.35953672      -0.35044853       0.99712693       0.19819178
H       11.73319482      10.26803934       6.59100220       0.10645043      -0.14979221       0.22069842
H       11.97755001      11.72824067       7.04732724      -0.11337407       0.09270593      -0.02282534
O        3.80544538       7.69311951       0.34095050       0.62968309       0.14506992      -0.38685121
H        3.97779644       7.48652038      -0.60300936       0.01981256      -0.05093202       0.19126125
H        4.59741718       7.52142946       0.84670884      -0.12066935       0.09705484      -0.08687411
O       11.58294185      12.52774362      12.86495830       1.49168169       0.54429581      -0.66607657
H       10.83466984      12.15857305      12.38116266       0.30521570      -0.12854752      -0.12444572
H       11.48594379      12.15270024      13.73431061       0.01123851       0.21598995       0.22547990
O        3.20417715       9.95324004       1.58140500      -0.61720610       0.10054472      -0.61045687
H        3.06694587       9.33902864       2.33361101       0.08456617      -0.09540539       0.10056549
H        3.40685703       9.27030000       0.99050953       0.10724149      -0.27824012       0.15541029
O        0.16322902       9.88231298      10.57455358       1.02240866      -0.16124698      -1.16857853
H        0.65656086       9.67332587       9.78464725      -0.07837076       0.04104623       0.17662910
H       -0.53549442      10.50874008      10.39078010       0.00823719       0.19825799       0.19627519
O        1.54572406       2.06414045       3.62622877       0.16247868       0.56572952      -0.28601974
H        1.77754818       1.13824097       3.61947589      -0.18245064      -0.12644457      -0.22621461
H        1.78490185       2.43176351       4.49016484      -0.08198264       0.02542387       0.11235503
O        1.04120233       7.37087169      13.10620254      -0.55247562      -1.07419337      -0.41286254
H        0.83036858       6.56531546      12.63923961      -0.32411023       0.16198818      -0.26840254
H        1.93701671       7.44278803      13.33014159       0.02885130      -0.04202370      -0.06481429
O        0.61979677      12.43236470       5.97899911       0.83705858      -0.41661996       0.59092853
H        0.83534769      12.47680169       5.06539514       0.13552589      -0.29467426      -0.04433603
H        0.25017803      13.23197595       6.27779015      -0.30165240      -0.24658405      -0.13153186
O        1.62444003      11.62698481       8.25616367       1.30197974       0.63200946      -0.32206364
H        1.41985362      11.85873686       7.36126966       0.00819104       0.01478183      -0.01741053
H        1.49322825      12.38323448       8.79907174       0.12213724       0.05956537       0.33968748
O        0.86929757      13.27695323       0.43064178      -0.69415616      -0.17429643      -0.21593526
H        1.45340043      12.70125822      -0.06497273       0.17176974       0.08392902       0.22129511
H       -0.01272195      13.04085123       0.12824985       0.06798997      -0.05334625       0.01373753
O        6.70293046       0.92938266       5.87635581       0.28654227       0.15395203       1.30975831
H        7.17764981       0.07986106       5.83724295      -0.18132668       0.03832105      -0.00227361
H        7.24075614       1.57871761       5.38488160      -0.29854177      -0.01732417      -0.01744209
O        0.81581798       7.69538908       4.67611824      -0.00598250      -0.26810595       0.37844808
H        2.93171609       8.66424031       4.29967156      -0.72327832       0.70307537       0.33346560
H        1.01626003       6.86010221       5.10517772      -0.10600733       0.01588636      -0.01093402
O        5.70638604       2.88916919      12.94877949      -0.64625330       0.50374911       1.02787665
H        5.83180074       2.12736960      13.53330967      -0.31550671      -0.15447371       0.01475760
H        5.57810734       3.59686764      13.57608532      -0.24080649       0.11352228       0.08414255
O        5.70850886      12.41743446       8.60356311      -0.45371432       0.42047965      -1.23833922
H        5.81690512      12.58146923       7.65821520       0.25827384      -0.11667359       0.01077191
H        5.32522702      13.23521637       8.92952286      -0.12001631      -0.18868368      -0.15051805
O       11.37007900       8.93479427       5.05589557      -0.30644754      -0.17104454       0.51786145
H       10.85279809       8.15114851       5.05533657       0.07493852       0.01079881      -0.13037233
H       12.21372141       8.57141221       4.86219442       0.18624850       0.12975962      -0.25903221
O        9.92772742       6.62820880       2.95281017      -0.08999609      -0.83514977      -1.62361748
H        9.60851560       7.28378181       2.36879254      -0.17437938      -0.27457002       0.30220045
H       10.80439448       6.37143119       2.88095610      -0.22965568       0.14477389      -0.08713076
O        3.74241402      10.51473667       9.44641402      -0.08569831      -1.62390660       1.03190574
H        4.28964172      11.28447428       9.18644906       0.20116923      -0.23362357       0.09797989
H        2.98100934      10.67495792       8.87906453       0.34669924      -0.26024510      -0.08633288
O        7.15341311       7.57423504      11.44506980       1.26620858       0.36361054       0.80456138
H        7.04006830       8.53846064      11.60966158      -0.03909931      -0.19585950       0.01959980
H        7.97555028       7.40559385      10.99137799       0.08918823      -0.21661051       0.18941947
O        4.92272509      10.95226324      12.69281977       0.19849062       0.98498149      -0.48937334
H        4.18085379      10.97339531      13.32035703      -0.02511436       0.28324820       0.02083817
H        4.54174530      11.45237252      11.95671364       0.14185684       0.07958030      -0.04664986
O        8.09675853       4.54421174      12.64178935      -0.04833000       0.01197502       0.31472778
H        7.13851497       4.49781900      12.80977390       0.10719264       0.08675529      -0.12903998
H        8.18287202       5.42108762      12.23114429      -0.04138210      -0.11988819      -0.00531261
O       11.38970799       8.41443557      11.75797433      -0.73313457      -1.00066683       0.47045557
H       12.25459658       8.53075781      12.12025371      -0.25507285      -0.04304309       0.23797438
H       11.26701929       8.90440716      10.99485193      -0.20426267       0.04151438       0.13850729
O        5.19115595       4.12500494       2.17172377      -0.18129782       0.00931911      -0.13797082
H        5.68350468       3.67012228       2.84488794       0.00986478       0.00992801       0.00718694
H        4.34655794       4.42044349       2.51721336       0.01558483      -0.05556717      -0.21510498
O        1.83905864       1.08770365       8.89129909      -0.11403846      -0.28986154      -0.29125617
H        2.79572136       1.11917702       8.65956713      -0.15416991      -0.13297578       0.32176110
H        1.80813414       1.72219906       9.62656752      -0.05079244      -0.19560332       0.18020913
O        4.61427648       6.26048642      10.29235853      -0.60377346      -1.38240066       0.87877215
H        3.98892594       7.01117575      10.32240116       0.03857313      -0.37261724      -0.28370723
H        5.40918159       6.54161538      10.78857767      -0.05367202       0.03548950      -0.36384293
O        9.01718001      12.56542192       5.57885293      -0.22175218      -1.12348882      -0.25216964
H        8.55166885      11.73797945       5.68990826      -0.06279746       0.02011001      -0.02134065
H        9.93328872      12.35989582       5.45281519      -0.10847631       0.18280709       0.14080476
O        6.29916387       5.24722788       8.00224451      -0.94256851       0.81407857      -0.42545201
H        5.41811417       5.47886347       8.28448297      -0.18470534      -0.01217001      -0.14757829
H        6.15364985       5.04887388       7.08044069      -0.07783592      -0.12995959      -0.09577580
O        9.81217058      10.56156401       3.18249205       0.61143865       0.02050683       0.79833363
H       10.37057320      10.07034848       3.77818404       0.07495615      -0.04691529      -0.04085299
H       10.50130938      12.03468854       2.67779023      -0.43829327      -1.22182579      -0.12939778
O        7.40406523      12.81292496      10.63190632      -0.98013725       0.26921226      -0.80732642
H        7.00113565      13.37309030      11.27313473       0.08799863      -0.03528454       0.10484392
H        6.94432078      12.68810988       9.81543884       0.24485639       0.07059794       0.03030393
O        0.95528776       5.47141340      11.02955666       0.09343593       0.49836519      -0.79917319
H        0.30339338       5.95091523      10.56697711      -0.15741535      -0.29034979      -0.33776524
H        1.81264091       5.60230322      10.60004159       0.08556559      -0.36286218      -0.18267867
O       10.82972331       5.84412101       5.60696689      -1.08110471       0.95827847       0.30162194
H        9.89680818       6.94696238       4.19577685       0.04337108       0.22606735       1.27524302
H       10.11321798       6.05005110       6.22043440      -0.23990174      -0.12269321      -0.14793180
O        1.26414589       4.95749372       5.58744506       0.74103638       0.47602044       0.47727810
H        1.11920207       4.09245333       5.13302536       0.18821483       0.18075545      -0.12010074
H        0.72133896       4.97729788       6.33435186      -0.09466900       0.13765635       0.12551285
O        5.90037848       6.92250967       1.74324408       0.49765191       0.26276278       0.01551601
H        6.50018055       7.43423347       1.20618435      -0.07016921      -0.07092716      -0.14124111
H        6.23117228       6.01703826       1.71400114      -0.04519509       0.11094650       0.06026602
O        9.20856387       4.15896764       1.76972679       1.14761961       0.37869161       0.43445100
H        8.57637797       4.33729294       1.07892782      -0.09593044       0.16262601       0.07413693
H        9.29527404       5.02399136       2.18158789       0.28142916       0.29468445      -0.22563710
O        0.95711580       2.60743000       1.17346263      -0.25981509      -0.65982226      -0.20848448
H        0.78351286       1.71872876       0.75120043       0.27062026       0.19524935       0.05884360
H        1.43740633       2.33156337       1.91956359       0.19694366      -0.04545678      -0.07339547
O       12.88701201       4.76757765       7.67944899       0.47874985       0.28169150      -0.51915156
H       12.93779579       5.40348816       8.41441557       0.10366238      -0.03317724      -0.08161873
H       12.22141368       5.06933275       7.10079725       0.10057283      -0.07390297      -0.01160276
O        7.59446710      10.04634767      12.77894937      -0.64558831      -0.36385478       0.29852106
H        6.65602045      10.19404979      12.73651579      -0.20815140      -0.00958374       0.12970197
H        8.06667852      10.65460224      12.21994245       0.02821782      -0.07374886      -0.13529027
O       10.92295009      -0.01371770       2.78267538      -0.36434623       1.45921691       0.69413955
H       11.14150992       0.49132463       2.04620309       0.09837225       0.21606044       0.00497074
H       10.15266797       0.35501218       3.08828960       0.18247008      -0.42016651      -0.01951952
O        1.61364852       2.38551006      11.25952541       0.00630243      -0.48154986      -0.42766161
H        1.90762724       2.25551558      12.15435243       0.02627840      -0.20346532      -0.02549286
H        1.45433766       3.30965874      11.14612666       0.29125007       0.18742202      -0.35996687
O        4.76930198       1.83880099       8.23497719      -0.94722569       0.20750571      -1.38433822
H        4.52584353       2.42661555       8.93401087      -0.11952911      -0.07231189      -0.08327993
H        5.67699674       2.12728553       8.02464758      -0.23769413       0.01022728       0.26938843
O        9.50009250      11.50199732      11.43467946      -0.50461135       0.39338384      -0.16138588
H        8.83699601      12.02531131      11.01030260       0.27155095       0.10007197      -0.05893979
H        9.87772974      11.05285452      10.62071893      -0.17796678       0.23024316      -0.08143378
O        1.66829603      10.81191450      12.66122793       1.25204769       0.43786280       0.63248650
H        1.70637650      10.17334504      13.39251249       0.14990629      -0.02339330       0.00597592
H        1.10241679      10.40965632      12.06069317      -0.23930037       0.03451457      -0.09225821
O        8.55105604       0.40210695       3.17447225      -0.40452408      -0.32004943      -0.26782842
H        7.97733979       1.16501003       3.08272527      -0.04393702      -0.13639726       0.02592940
H        8.57033387       0.22455948       4.08008780      -0.05970241       0.15012244      -0.06358031
O        8.23562306       3.10659496       4.12986620      -0.31384409      -1.08969528      -0.62019694
H        8.59784472       3.70029703       3.50604856      -0.13914715       0.26853300      -0.25959253
H        9.06819693       2.87820130       4.54288631       0.11776497       0.36693528      -0.01272655
O        2.47859980       4.95793429       1.90204838      -1.03960130      -0.00850703       0.14300433
H        2.07238359       4.15852302       1.57032779      -0.11588477      -0.19389988      -0.04291762
H        2.67324683       5.50248944       1.11126666       0.20591345      -0.18286023       0.02322668
O        0.70690177       8.74160730       8.05013712      -1.54143367       0.21954907      -0.08986435
H        1.30271393       8.35124292       7.44683653       0.14017841      -0.05222830       0.00600706
H        0.29808785       9.48304675       7.51346586      -0.15556724      -0.39987235       0.07034385
O       11.87639864       0.70994589       6.79441661       0.22279347       0.79079849       0.11552749
H       11.29850705       1.15554929       7.42289598      -0.11812947      -0.17090875       0.01980281
H       11.89352933       1.24759741       6.00395159      -0.04215744       0.03482072      -0.03936232
O       12.52974244       7.15553036       2.33773271       0.42967153      -0.85048769       0.15606551
H       13.16152869       7.12045890       3.04261128      -0.03426813      -0.08585288      -0.27863339
H       13.04147632       6.85246062       1.57710899       0.08535593      -0.45274287       0.15062022
O       10.56026756       9.37002203       9.34020130      -0.39069128      -0.10378495       0.06225272
H       10.48341547       8.46610783       9.07281771      -0.03449492       0.15725229      -0.09626656
H       11.01683974       9.70947399       8.57809961       0.15378515      -0.25419829      -0.00288312
O        4.03228777       4.47614648       5.48992314      -1.14953002      -0.29069922       1.36489035
H        3.68067468       3.60744340       5.58308785       0.09554266      -0.20904176      -0.26708467
H        3.27696458       5.04018730       5.68498986       0.02579190       0.06171122      -0.01246256
O        4.58062377       3.47739238      10.40436171       0.61054549      -0.40047898       0.32664069
H        4.64271828       4.37030132      10.72615639      -0.00254174       0.24174362       0.03204993
H        5.47882110       3.15224965      10.49636435      -0.02294258      -0.06292287       0.09870453
192
Lattice="13.28846692419112 0.0 0.0 -5.291760554901407e-07 13.28846692419112 0.0 -5.291760554901407e-07 -5.291760554901407e-07 13.28846692419112" Properties=species:S:1:pos:R:3:momenta:R:3 step=40 time_fs=4.0 phase=equilibration pbc="T T T"
O       10.19911324       0.36299023       9.48662710       1.39478335       0.10988532       0.40543967
H       10.94142529       0.15113039      10.04496718       0.44913519       0.39314689      -0.02276603
H        9.36522191       0.39747408       9.92324219      -0.10318592       0.12945266       0.04454070
O       11.31808535       2.57884628       2.49467502       0.70242290       0.10623715       0.90533414
H       10.69151449       3.18638221       2.10050799       0.02631692       0.05699058      -0.01111748
H       12.16930991       3.00759287       2.27282664      -0.12305241       0.06348099       0.12090655
O        3.03985736       8.24910921      10.87023431       0.24229107      -0.43873903      -1.37731791
H        2.09743210       8.22129929      10.73310600      -0.05807391       0.09929419      -0.21327557
H        3.42670355       9.12501484      10.73077777       0.48251536      -0.11736312      -0.15608312
O        8.88933321       6.21741445       7.58560498      -0.88891456       0.84427604       0.92472201
H        9.27202463       5.88162459       8.39996428       0.22066642       0.00211428       0.06191524
H        7.94230780       5.99235329       7.55118121       0.28763018       0.12699287      -0.10864744
O        6.66500479      13.48047357       0.00008840       0.66440107       0.22840963      -0.63967551
H        6.63904893      12.54216836      -0.16028697      -0.16713087       0.31082381       0.03733154
H        7.26931859      13.78156523       0.70402216      -0.08154905       0.35762293       0.18650605
O       12.52407128       6.85552883       9.59741339      -0.12385736      -0.65016244       0.44877599
H       11.86507095       7.27349846      10.12272906      -0.19709608      -0.16861139      -0.19825199
H       12.96890199       7.46365925       9.02145110      -0.01380608      -0.36198559      -0.12946892
O        7.74203804       9.77368289       5.20539204       0.00341710       0.11129300       0.08987352
H        7.53019664       8.81807390       5.36661688       0.04449243       0.21392172       0.02921489
H        8.09792147       9.83806541       4.35090702      -0.25279299      -0.10948218      -0.17669869
O        0.64864549      12.79695941       3.26611133      -1.63515334       0.17795692      -0.14105464
H       -0.29875806      12.74199898       3.34830098       0.04727249       0.05223095      -0.15369737
H        0.84060521      12.91594907       2.33491375       0.21015564      -0.08476125       0.01852506
O        8.94884994       8.54947777       1.41582877       0.46854834      -0.96698544      -0.01020443
H        8.92310003       8.73404307       0.44289533      -0.03798814      -0.14382320       0.08088630
H        9.16822509       9.26790119       1.87261199      -0.01892843       0.22429839      -0.23853046
O        3.59413020       7.78315235       3.75818689       1.35986150       0.05947200      -1.20987842
H        3.63434715       7.08651466       4.43082721       0.16993674       0.26095824       0.27493249
H        3.17222789       7.49284939       2.99998427      -0.32949682      -0.43739700      -0.02697727
O        9.79298650       6.63880120      10.70063090       0.01338401       0.64295055       0.67140176
H       10.22410530       5.80373520      10.63211571      -0.10283473      -0.13713623       0.06218234
H       10.21413877       7.18267031      11.33826092      -0.19621396       0.44874575      -0.20348520
O        2.80105059       1.79072650       6.20827531       0.15212220       1.09078331      -0.77944149
H        3.69754621       1.42432253       6.30559842       0.35582150       0.23412212      -0.27549249
H        2.20203835       1.12056587       6.58653396      -0.08571115      -0.00156189      -0.11099141
O       10.93665055       3.01512363       5.38860645       1.25114849       1.02346768       1.03298078
H       10.78050777       3.86863052       5.77077128      -0.08331410       0.08210726       0.64817881
H       11.70881607       3.04028999       4.81244616       0.18932900      -0.18938494      -0.12887503
O       11.56777947       3.87091382      11.22284178       0.02259440      -0.00583002       0.71396688
H       11.96655849       3.71325954      10.38662440       0.05897868       0.03224772      -0.13923436
H       11.74166555       3.02818171      11.64778131       0.01384160       0.08304228       0.06245780
O       11.89520726      10.82727059       7.36064056      -0.36096097       0.98095569       0.15918457
H       11.74383107      10.25234298       6.61258261       0.11061211      -0.17411682       0.21789282
H       11.96641363      11.73839234       7.04622751      -0.11623177       0.11093068       0.00004833
O        3.80918119       7.69395359       0.33830420       0.56621295       0.12534391      -0.46004172
H        3.97940405       7.48314123      -0.58139941       0.01669442      -0.02402945       0.22506259
H        4.58763074       7.53092823       0.83916508      -0.06567033       0.09451437      -0.05551707
O       11.59222712      12.53109730      12.86115283       1.52302452       0.53251377      -0.56453270
H       10.86395308      12.14600978      12.36687493       0.29325666      -0.13175642      -0.16997086
H       11.48758916      12.17429535      13.75726267       0.02296731       0.23363484       0.22533066
O        3.20014349       9.95409198       1.57808145      -0.69005974       0.13018677      -0.49269764
H        3.07526180       9.33616608       2.34123870       0.08758160       0.04329491       0.04776324
H        3.42203154       9.23527069       0.99874123       0.19330855      -0.40737208       0.04014592
O        0.16938308       9.88152512      10.56747886       0.94953526      -0.08428880      -1.11720994
H        0.65054916       9.67833064       9.79990236      -0.02556787       0.05222156       0.10424208
H       -0.53359454      10.52732758      10.41135560       0.04320367       0.17128948       0.22805836
O        1.54681597       2.06760382       3.62476709       0.19641402       0.54852131      -0.18893708
H        1.75873200       1.12637809       3.59682361      -0.20717274      -0.09967986      -0.23575574
H        1.77646486       2.43290477       4.49826812      -0.09257440      -0.00703795       0.04702741
O        1.03732734       7.36449614      13.10376828      -0.69848238      -1.01409689      -0.39103088
H        0.79884425       6.57688608      12.61048506      -0.31895425       0.08276498      -0.31776730
H        1.94673049       7.43811472      13.32518147       0.15482264      -0.05674507      -0.04244150
O        0.62519700      12.42932240       5.98266388       0.92032405      -0.57305036       0.58685697
H        0.85097149      12.44642406       5.05711990       0.17901560      -0.32781445      -0.10935998
H        0.21056135      13.21779027       6.26753356      -0.50319837      -0.05869626      -0.08507260
O        1.63242834      11.63074790       8.25445477       1.29222857       0.61423810      -0.23010165
H        1.42066418      11.85892654       7.35392862       0.01138393      -0.01269230      -0.11688891
H        1.50577464      12.39235387       8.83567219       0.14028469       0.09696436       0.38377084
O        0.86493122      13.27578437       0.42928997      -0.71933725      -0.21309016      -0.21974063
H        1.47240048      12.70799160      -0.04373093       0.21892169       0.05242938       0.21397136
H       -0.00708342      13.03657714       0.12974209       0.03734058      -0.03807986       0.01356138
O        6.70482510       0.93027067       5.88430729       0.30476592       0.13826982       1.28607824
H        7.15852064       0.08536182       5.83758446      -0.20202524       0.05792862       0.00789526
H        7.21015766       1.57723352       5.38537551      -0.31910392      -0.00042004       0.01741358
O        0.81565859       7.69373350       4.67847521      -0.04855115      -0.27190853       0.38185340
H        2.86770880       8.72047333       4.32621304      -0.51540196       0.33718424       0.14829635
H        1.00693584       6.85866142       5.10571927      -0.08372450      -0.05027215       0.02611535
O        5.70253894       2.89229704      12.95532824      -0.61409250       0.51690456       1.10881595
H        5.80107896       2.11136328      13.53150475      -0.31612929      -0.16502311      -0.05768140
H        5.55321812       3.60882898      13.58404230      -0.26692394       0.11844456       0.06759756
O        5.70564340      12.42030091       8.59581592      -0.47701505       0.48057537      -1.28659404
H        5.84363706      12.56606650       7.65874343       0.29135153      -0.19770509      -0.01163182
H        5.31268102      13.21845255       8.91652867      -0.14684272      -0.13772355      -0.10954480
O       11.36808577       8.93423459       5.05906528      -0.32270271      -0.03574507       0.50233807
H       10.85492875       8.14819385       5.04550182      -0.03289721      -0.07281009      -0.07242926
H       12.23995619       8.58453390       4.83572809       0.32061159       0.15196622      -0.27613567
O        9.92667330       6.62295806       2.94458542      -0.25896134      -0.89741420      -0.98474367
H        9.58788685       7.26429863       2.39287342      -0.27107386      -0.09213985       0.16175053
H       10.79444525       6.38418748       2.87039493       0.02777803       0.11990052      -0.11025805
O        3.74201153      10.50502626       9.45268360      -0.03155132      -1.55378735       1.01586617
H        4.31070862      11.25875234       9.19901377       0.23212145      -0.29216861       0.15855326
H        3.01251151      10.64736717       8.87039110       0.28050367      -0.30196129      -0.10662608
O        7.16100989       7.57679953      11.45019076       1.20386068       0.43855152       0.85020550
H        7.03768927       8.51504320      11.61118672      -0.01328621      -0.25877024       0.01524031
H        7.98635421       7.38391001      11.00847577       0.13362468      -0.22880754       0.16023478
O        4.92349361      10.95862126      12.68979858       0.04735964       1.07461156      -0.49860346
H        4.18223647      10.99914524      13.32285094       0.05617634       0.24414945       0.02586211
H        4.55885293      11.45764806      11.95211124       0.20617403       0.03059528      -0.05233349
O        8.09616149       4.54456086      12.64379931      -0.13552055       0.08614510       0.33199219
H        7.15196622       4.50266179      12.79637608       0.14852535       0.01098297      -0.14226673
H        8.18079222       5.40745999      12.23076084       0.00055014      -0.14680237      -0.00987120
O       11.38521940       8.40762617      11.76167147      -0.75277569      -1.20602775       0.68811131
H       12.23157251       8.52669537      12.14652507      -0.21015639      -0.03903503       0.30254406
H       11.24466214       8.92040951      10.99599266      -0.24850220       0.26521204      -0.08280924
O        5.18999818       4.12515727       2.17058237      -0.18969999       0.03131582      -0.23473815
H        5.68598460       3.67031009       2.85002933       0.03644032      -0.00286741       0.09415215
H        4.34623580       4.41489743       2.49738534      -0.02942280      -0.05611385      -0.18834783
O        1.83888194       1.08591891       8.88941166       0.02672297      -0.29207833      -0.32174669
H        2.77471662       1.10602593       8.69226409      -0.24901830      -0.13681403       0.34108927
H        1.80039137       1.70228456       9.64385098      -0.10838325      -0.21475680       0.17148931
O        4.61082169       6.25206326      10.29803476      -0.52741610      -1.39631472       0.94756414
H        3.99384210       6.97285968      10.29262358       0.04041303      -0.38950500      -0.32708815
H        5.40138980       6.54369238      10.75092091      -0.08503463       0.01356158      -0.39544796
O        9.01567561      12.55862610       5.57731272      -0.28962753      -1.09321106      -0.25306108
H        8.54391335      11.73827699       5.68734865      -0.09811697      -0.01836580      -0.03131076
H        9.92751597      12.37781045       5.46970366       0.00462619       0.18107506       0.20398613
O        6.29334303       5.25220116       7.99946167      -0.97283626       0.80035768      -0.50290346
H        5.39922648       5.47897758       8.27265174      -0.19142931       0.01140949      -0.09928492
H        6.14673474       5.03588386       7.07011273      -0.06161216      -0.13278372      -0.09808925
O        9.81607186      10.56209634       3.18728149       0.64388541       0.11614349       0.76907942
H       10.38069449      10.06281692       3.77568351       0.12949363      -0.10287431      -0.01525058
H       10.46405325      11.93499031       2.66846537      -0.32347033      -0.79590809      -0.06057810
O        7.39830781      12.81467038      10.62710577      -0.89461217       0.29392922      -0.74557565
H        7.00688647      13.37220439      11.28744861       0.03211126       0.01128552       0.18167141
H        6.96514478      12.69329094       9.81401779       0.17228555       0.03376694      -0.07479624
O        0.95638932       5.47439810      11.02492357       0.25569286       0.47932323      -0.73277773
H        0.28344523       5.92519873      10.53003541      -0.23341952      -0.24968621      -0.40962494
H        1.81901147       5.56558711      10.58332956       0.03638068      -0.38996238      -0.15746009
O       10.82290234       5.85006604       5.60891841      -1.14993286       0.97663904       0.32425199
H        9.90294211       6.96015476       4.29664672       0.09990081       0.02196672       0.74038311
H       10.09048237       6.03757807       6.20548282      -0.23202406      -0.12901044      -0.16049728
O        1.26905129       4.96025351       5.58966574       0.83990664       0.42861256       0.27072358
H        1.13803130       4.11484941       5.12303252       0.19596454       0.27109640      -0.08705151
H        0.70669584       4.99161054       6.35539054      -0.18638249       0.15316886       0.27729185
O        5.90350995       6.92405094       1.74338458       0.51201167       0.24442791       0.02931580
H        6.49487203       7.43073397       1.19184321      -0.03862475      -0.00073306      -0.15393727
H        6.22513182       6.02645215       1.72153582      -0.07525011       0.07094376       0.09414495
O        9.21567539       4.16162899       1.77261974       1.15412607       0.50159846       0.50114351
H        8.56573189       4.35149655       1.08321583      -0.11360977       0.12661173       0.02408351
H        9.32432996       5.05049434       2.15985569       0.31206170       0.23368569      -0.22632572
O        0.95512473       2.60315997       1.17172603      -0.37397597      -0.70860357      -0.32838801
H        0.81024393       1.74440432       0.75699947       0.27140544       0.30058197       0.04495347
H        1.46175454       2.32649009       1.91954407       0.29306170      -0.05377471       0.05810683
O       12.89033241       4.76924072       7.67659099       0.59166202       0.25015233      -0.42363242
H       12.94896435       5.39859496       8.40648898       0.12502705      -0.06233220      -0.07554648
H       12.22458238       5.06340798       7.09507283      -0.03627282      -0.04810541      -0.10592950
O        7.59051134      10.04395668      12.78087918      -0.66144037      -0.41159561       0.30955430
H        6.63349485      10.19318344      12.75003117      -0.23251344      -0.01080385       0.14667413
H        8.07149133      10.64768688      12.20531773       0.06014471      -0.07869992      -0.15633923
O       10.92119438      -0.00696883       2.78719711      -0.18249970       0.76443657       0.72419292
H       11.15519398       0.52151541       2.03196496       0.17323619       0.38633979      -0.25724101
H       10.15688266       0.31845322       3.09220179      -0.11363096      -0.34462913       0.10145329
O        1.61365911       2.38269019      11.25695259      -0.00478589      -0.41531291      -0.41371099
H        1.91197504       2.23250716      12.15391741       0.05746951      -0.26299323       0.00189883
H        1.48235066       3.32937653      11.10833443       0.28931770       0.18732133      -0.40829799
O        4.76379013       1.83992237       8.22626972      -0.88807984       0.14491055      -1.45161472
H        4.51167728       2.42209162       8.93041481      -0.17301564      -0.02027372       0.01029202
H        5.65186607       2.12732654       8.04943115      -0.24055134       0.00175629       0.23023941
O        9.49744017      11.50387991      11.43329241      -0.36516507       0.20857633      -0.28937368
H        8.85956379      12.03907878      11.00319298       0.18350314       0.18868858      -0.09164682
H        9.85926701      11.07628927      10.61927212      -0.19750767       0.24543894       0.04448668
O        1.67634338      10.81471995      12.66584345       1.33923452       0.44445468       0.83020892
H        1.72282080      10.17425165      13.39325992       0.18597168       0.04305345       0.00423485
H        1.07161033      10.40992039      12.04236230      -0.36176487      -0.00907261      -0.24991149
O        8.54837684       0.40029633       3.17217174      -0.47082932      -0.27706088      -0.47367551
H        7.97255645       1.15368352       3.08313573      -0.05918940      -0.09000346      -0.01914062
H        8.56448296       0.23550382       4.08642257      -0.06187062       0.07708220       0.18581797
O        8.23376893       3.09946477       4.12624597      -0.27100320      -1.20819471      -0.58807064
H        8.58453207       3.73136686       3.47552738      -0.15125966       0.34107504      -0.33822975
H        9.07957148       2.91543871       4.54496440       0.10636701       0.39669577       0.05089036
O        2.47238131       4.95818456       1.90270782      -0.99823248       0.06405417       0.06703757
H        2.06013635       4.13822862       1.56626959      -0.12590323      -0.20316343      -0.03274022
H        2.69149746       5.48151983       1.11779229       0.16915141      -0.24362801       0.10642338
O        0.69708508       8.74359716       8.04941812      -1.62515254       0.37951154      -0.14413652
H        1.32092198       8.34317456       7.44373400       0.21838997      -0.10326183      -0.05584733
H        0.28524580       9.43897174       7.52536123      -0.12493799      -0.47406283       0.15176101
O       11.87777414       0.71487108       6.79507908       0.21516743       0.81375230       0.09041913
H       11.28828426       1.13795544       7.42557090      -0.09356728      -0.18896245       0.03454303
H       11.88878277       1.25145376       6.00064423      -0.05706729       0.04205667      -0.02623863
O       12.53220981       7.15033155       2.33833918       0.35425291      -0.85099771       0.01891797
H       13.16177031       7.11164865       3.02377425       0.05152553      -0.09576628      -0.09297882
H       13.04796885       6.80748036       1.58932340       0.04269086      -0.46842348       0.10533300
O       10.55791364       9.36957992       9.34076991      -0.38236927      -0.03885357       0.11289874
H       10.47602790       8.47709991       9.06238694      -0.11836441       0.05951357      -0.12086350
H       11.03266178       9.68924726       8.57513835       0.16867955      -0.16302030      -0.05496957
O        4.02521680       4.47471294       5.49823831      -1.16095559      -0.19680016       1.33944368
H        3.69022412       3.58115658       5.55775006       0.10498067      -0.31165132      -0.25436163
H        3.27947815       5.04781420       5.68350696       0.02442917       0.09276260      -0.01807988
O        4.58464719       3.47493187      10.40643706       0.69287308      -0.37491482       0.34918310
H        4.64114610       4.39662346      10.72767423      -0.03024688       0.26872215      -0.01124055
H        5.47386811       3.14386388      10.50840754      -0.07554327      -0.10916763       0.14877154
192
Lattice="13.288514440556211 0.0 0.0 -5.291779476965777e-07 13.288514440556211 0.0 -5.291779476965777e-07 -5.291779476965777e-07 13.288514440556211" Properties=species:S:1:pos:R:3:momenta:R:3 step=50 time_fs=5.0 phase=equilibration pbc="T T T"
O       10.20820426       0.36352011       9.48901433       1.55225330       0.05828901       0.38970896
H       10.98050202       0.19194154      10.04256622       0.32531667       0.44993741      -0.04214066
H        9.35345935       0.41172806       9.92913187      -0.10994869       0.16136156       0.06261402
O       11.32266832       2.57950461       2.50018808       0.75981096       0.10272333       0.88788115
H       10.69243700       3.19198699       2.09872911      -0.00352652       0.05265480      -0.02258818
H       12.15716304       3.01187043       2.28616382      -0.11396664       0.03017363       0.14913627
O        3.04145056       8.24671391      10.86190686       0.27427003      -0.34526724      -1.35075576
H        2.09331755       8.23206107      10.71163844      -0.01849958       0.12286036      -0.22683369
H        3.47129008       9.11049386      10.71424733       0.42445231      -0.19080155      -0.18210901
O        8.88406258       6.22257566       7.59150753      -0.79859169       0.83682985       0.99383317
H        9.29220168       5.88315004       8.40331860       0.18824216       0.03054043       0.00182385
H        7.96965953       6.00466936       7.54002397       0.23806430       0.11657521      -0.12153999
O        6.66936545      13.48227703      -0.00373949       0.75733567       0.38133479      -0.59270884
H        6.62192096      12.57069586      -0.15372484      -0.18650374       0.24125069       0.09272243
H        7.25799363      13.81289348       0.71858153      -0.15861600       0.27863187       0.10271644
O       12.52344353       6.85128920       9.60017822      -0.09865877      -0.74363013       0.44395374
H       11.84370199       7.25819237      10.10549381      -0.24311146      -0.14459353      -0.15569838
H       12.96980329       7.43067791       9.00567218       0.03436914      -0.30982976      -0.19921765
O        7.74185328       9.77408458       5.20649742      -0.05393192       0.04404711       0.23154124
H        7.53514842       8.84474128       5.37071435       0.04884130       0.29870234       0.06113433
H        8.07554140       9.82840385       4.32402379      -0.21717763      -0.09012611      -0.34993541
O        0.63856667      12.79822087       3.26536814      -1.63196130       0.21938017      -0.11059674
H       -0.29607831      12.74632802       3.33390519      -0.00772877       0.03493804      -0.14147459
H        0.86362159      12.90555619       2.33496262       0.26021924      -0.13004807      -0.01288160
O        8.95123526       8.54233541       1.41437404       0.31271507      -1.32434707      -0.41307774
H        8.91979323       8.71755222       0.45678661      -0.03082679      -0.19230464       0.18393275
H        9.17338866       9.31284396       1.86351684       0.11036371       0.64955726       0.02040646
O        3.60132001       7.78516061       3.75181968       0.94922686       0.57584085      -0.89599898
H        3.64876224       7.11775715       4.45528307       0.12262166       0.38560869       0.22169115
H        3.13831414       7.45206265       2.99975796      -0.34548349      -0.38524444       0.05653565
O        9.79282480       6.64284810      10.70471536      -0.06477758       0.65114624       0.64850524
H       10.21465127       5.78421549      10.63856618      -0.10150666      -0.23651772       0.07514470
H       10.19630632       7.22931871      11.32189567      -0.17380058       0.49613211      -0.14024320
O        2.80233839       1.79675654       6.20377880       0.27946378       0.86473337      -0.69225660
H        3.72563054       1.45228751       6.27710860       0.19854273       0.34359366      -0.30868724
H        2.19564932       1.12667989       6.57251570      -0.03933125       0.12931532      -0.17873824
O       10.94473047       3.02142662       5.39457916       1.37647060       1.05515299       0.91236951
H       10.77248566       3.87653453       5.83435592      -0.07017234       0.04313158       0.63417605
H       11.72175907       3.02110940       4.80277956       0.05547455      -0.19877951      -0.05381909
O       11.56799377       3.87087383      11.22725862       0.04947670      -0.01619913       0.67672418
H       11.97299732       3.71911102      10.36935170       0.05597559       0.09294706      -0.18047238
H       11.74128239       3.03467240      11.65750462      -0.02155499       0.04901778       0.13631469
O       11.89301060      10.83335745       7.36156841      -0.36815885       0.99282806       0.13547783
H       11.75474563      10.23414755       6.63296851       0.11229877      -0.19883245       0.19856813
H       11.95490298      11.74901942       7.04738476      -0.12121315       0.10126644       0.02301740
O        3.81225032       7.69476675       0.33552598       0.42098080       0.13424094      -0.42676545
H        3.98185951       7.48079330      -0.56453948       0.03718511      -0.02993202       0.09643026
H        4.58674451       7.53948107       0.83775240       0.05234160       0.07932846       0.03158036
O       11.60169472      12.53430783      12.85828990       1.54449093       0.49514462      -0.37400378
H       10.89197586      12.13287747      12.34827090       0.28358280      -0.13797832      -0.21071945
H       11.49059199      12.19939000      13.77523928       0.03782352       0.28393298       0.13063037
O        3.19585966       9.95447734       1.57507514      -0.69782304      -0.04297106      -0.51367535
H        3.08416358       9.34787457       2.34247544       0.09414039       0.19280766      -0.01861188
H        3.44230310       9.19779370       1.00340148       0.21126040      -0.33068061       0.07817420
O        0.17460257       9.88151021      10.56115838       0.74109235       0.07334010      -0.94476716
H        0.65431150       9.68233070       9.80046797       0.10796976       0.02679138      -0.10343617
H       -0.52541670      10.54062123      10.43549301       0.12820335       0.09741229       0.26552286
O        1.54817202       2.07077310       3.62393549       0.24312042       0.47590627      -0.09013295
H        1.73682955       1.12123849       3.57411601      -0.24253778       0.00024053      -0.22802146
H        1.76680617       2.42991950       4.49894174      -0.10516256      -0.05446778      -0.03092093
O        1.03280146       7.35834319      13.10145322      -0.76309088      -1.01144441      -0.38293780
H        0.76935793       6.58399151      12.57897732      -0.27937659       0.07794729      -0.31961425
H        1.96345943       7.43123869      13.32092109       0.16766537      -0.08761207      -0.05140293
O        0.63095042      12.42578649       5.98618645       0.93395444      -0.55379037       0.55194296
H        0.86894196      12.41342679       5.04756379       0.18322717      -0.34801326      -0.06954435
H        0.15601580      13.21418458       6.25873052      -0.58938012      -0.05829419      -0.11166407
O        1.64023712      11.63493100       8.25347927       1.24442868       0.75463002      -0.09451658
H        1.42275913      11.85604678       7.34224136       0.03497233      -0.04885873      -0.10551477
H        1.52135694      12.39723445       8.86897080       0.18179791      -0.01574342       0.27876264
O        0.86058240      13.27444945       0.42797479      -0.69037493      -0.23748229      -0.20974658
H        1.49570395      12.71171075      -0.02307138       0.25451659       0.02544984       0.21255338
H       -0.00681887      13.03305119       0.13036667      -0.03470172      -0.03675703      -0.00261759
O        6.70648440       0.93113924       5.89231613       0.21295331       0.14769260       1.32527758
H        7.14012156       0.08797448       5.83857486      -0.16852842      -0.01762073       0.01063484
H        7.18052325       1.58100580       5.38645139      -0.28199178       0.08714331      -0.00356053
O        0.81522113       7.69206919       4.68085023      -0.09350061      -0.28873749       0.39168240
H        2.83968968       8.71742799       4.32227951      -0.04925292      -0.41159255      -0.23316000
H        0.99985777       6.85100740       5.11029065      -0.06379241      -0.09709557       0.06296992
O        5.69885105       2.89558318      12.96260864      -0.59631531       0.55313391       1.25322573
H        5.77016642       2.09663364      13.52149675      -0.31854607      -0.13266226      -0.14991235
H        5.52674581       3.61778810      13.58767823      -0.27413121       0.05740768       0.00086679
O        5.70274828      12.42323233       8.58788024      -0.47139264       0.45422280      -1.30478742
H        5.87387049      12.54342373       7.65468180       0.32846245      -0.26603596      -0.07329729
H        5.29546755      13.21072880       8.90890807      -0.20847751      -0.01900756      -0.04871373
O       11.36651791       8.93414939       5.06199200      -0.18156931      -0.02627929       0.43690807
H       10.84695080       8.13774435       5.04071801      -0.12414424      -0.13258783      -0.02982874
H       12.26994222       8.60340227       4.81017863       0.26358182       0.24376415      -0.23996755
O        9.92468177       6.61714082       2.94095083      -0.39560499      -0.99271145      -0.22367925
H        9.55409793       7.26788606       2.39710630      -0.41297349       0.14560600      -0.06588562
H       10.80809521       6.39621014       2.86259364       0.23313866       0.13444572      -0.04543074
O        3.74218565      10.49566224       9.45907679       0.08733880      -1.51292259       1.06138140
H        4.33522419      11.22827461       9.21718276       0.27250778      -0.33030595       0.21227060
H        3.03311939      10.61681128       8.85623232       0.13671067      -0.32417480      -0.19007282
O        7.16829617       7.57931287      11.45551495       1.16897588       0.34296738       0.86371805
H        7.03680095       8.49352290      11.61359420      -0.00912335      -0.15722979       0.03771029
H        8.00138729       7.36117839      11.02284129       0.16947132      -0.23654585       0.13648557
O        4.92338644      10.96548041      12.68685985      -0.08007375       1.14173697      -0.46773188
H        4.19179760      11.02103983      13.32523561       0.13648283       0.20489751       0.02330864
H        4.58118328      11.45915486      11.94546805       0.24694735       0.00420838      -0.09197921
O        8.09536874       4.54515781      12.64598299      -0.11527516       0.09313791       0.36750672
H        7.16359205       4.49978753      12.78288243       0.07121147      -0.07106679      -0.13246426
H        8.18338470       5.39498464      12.22805607       0.05339204      -0.09879974      -0.05203533
O       11.38038163       8.40006444      11.76588165      -0.84483367      -1.23067120       0.61777475
H       12.21407729       8.52349547      12.17905278      -0.15463233      -0.02655007       0.35949179
H       11.22090635       8.94961684      10.98871167      -0.22580773       0.29559741      -0.01125643
O        5.18897547       4.12534251       2.16891980      -0.14194436       0.01829025      -0.30050520
H        5.68941605       3.67060178       2.86189744       0.02579533       0.01507892       0.13995036
H        4.34019046       4.40973809       2.48093028      -0.09460646      -0.05039355      -0.14896056
O        1.83899743       1.08412550       8.88751749      -0.02654214      -0.29326590      -0.29705228
H        2.75353452       1.09256793       8.72463057      -0.15091203      -0.13923768       0.31578967
H        1.78701496       1.68009561       9.65963574      -0.16614474      -0.24202422       0.14978780
O        4.60779612       6.24303839      10.30391348      -0.46700444      -1.57368442       0.94685346
H        3.99287519       6.93968982      10.25872205      -0.07692265      -0.27403277      -0.37027108
H        5.39681210       6.54573394      10.71410368       0.00937253       0.03492808      -0.35053001
O        9.01360428      12.55210569       5.57578862      -0.39310935      -1.04840340      -0.25007280
H        8.53286823      11.73440219       5.68373951      -0.12506617      -0.05926753      -0.04425170
H        9.93526916      12.39499661       5.49258203       0.14751024       0.17090659       0.26632796
O        6.28710417       5.25707799       7.99597609      -1.07655361       0.78171390      -0.64869356
H        5.38301111       5.48062286       8.26453167      -0.13263767       0.01995249      -0.07073182
H        6.14208934       5.02372748       7.06430846      -0.03306442      -0.11454271      -0.01190878
O        9.81998801      10.56247874       3.19222468       0.61287287      -0.04421580       0.85935811
H       10.39474159      10.05239412       3.77349921       0.15052950      -0.10064080      -0.03969541
H       10.44276341      11.89401960       2.66473231      -0.09025546       0.02175514      -0.02499937
O        7.39314192      12.81669723      10.62300552      -0.80095185       0.35802425      -0.59412863
H        7.00822549      13.37386997      11.30653241      -0.00024455       0.01273823       0.19575410
H        6.97693145      12.69485083       9.79980899       0.06877242      -0.00057097      -0.21364069
O        0.95827979       5.47745297      11.02046509       0.34409028       0.51772443      -0.74453712
H        0.26178707       5.89995208      10.48970426      -0.19192023      -0.27966255      -0.40596137
H        1.81851776       5.52661690      10.56985009      -0.04986626      -0.40848311      -0.11918093
O       10.81569293       5.85617611       5.61093364      -1.20859993       1.00787938       0.32250913
H        9.91936877       6.94935800       4.33889780       0.24314519      -0.24250533       0.14179949
H       10.06703621       6.02592221       6.18885247      -0.25457934      -0.10742542      -0.18023382
O        1.27425801       4.96291995       5.59119199       0.83836717       0.44659005       0.25175805
H        1.15696344       4.14370485       5.11564520       0.19018184       0.31096450      -0.06846218
H        0.68911042       5.00659827       6.38252327      -0.15398401       0.15102069       0.24976674
O        5.90668090       6.92568350       1.74359056       0.51594841       0.28816221       0.03137817
H        6.49233184       7.43371878       1.17654178      -0.01803004       0.05669348      -0.15592816
H        6.21711913       6.02936176       1.73231042      -0.08787172      -0.01568505       0.12638665
O        9.22270559       4.16530746       1.77580529       1.11834884       0.69938915       0.52623467
H        8.55603807       4.36157243       1.08549020      -0.07808170       0.07766633       0.03069747
H        9.35574960       5.06745850       2.13673656       0.33062428       0.10858341      -0.24979837
O        0.95275227       2.59906791       1.16986661      -0.38046328      -0.60334053      -0.24145629
H        0.83525652       1.77074228       0.75674632       0.23711282       0.20736064      -0.06646670
H        1.49200450       2.32229776       1.92727082       0.31191455      -0.02540799       0.07911275
O       12.89426612       4.77065153       7.67416185       0.66137498       0.20485493      -0.39145080
H       12.96220570       5.39229064       8.40073081       0.14509492      -0.06379180      -0.03971765
H       12.21582978       5.05939384       7.08158595      -0.13104701      -0.03988867      -0.15858866
O        7.58626467      10.04149333      12.78272209      -0.73899699      -0.39353632       0.26859932
H        6.61457314      10.19165423      12.76508193      -0.14067987      -0.02268715       0.16059113
H        8.07664158      10.63756574      12.19127457       0.03719697      -0.13701243      -0.12513820
O       10.92097322      -0.00413472       2.79087108       0.08994752       0.17782030       0.42529604
H       11.17211520       0.56014924       2.00676364       0.15358698       0.36836479      -0.20657936
H       10.13023507       0.28383558       3.10712655      -0.41406172      -0.38638786       0.19208392
O        1.61361102       2.38067122      11.25459181      -0.01094217      -0.23116595      -0.36418516
H        1.91776672       2.20552912      12.15198341       0.05655383      -0.28465995      -0.05478439
H        1.51156813       3.34100044      11.06830487       0.31274822       0.03058562      -0.40577158
O        4.75802439       1.84051158       8.21732984      -1.01908369       0.04569850      -1.45788690
H        4.49228825       2.42202686       8.93535781      -0.22208594       0.01138592       0.08144007
H        5.63651221       2.12960723       8.06832060      -0.05426761       0.05160680       0.15363862
O        9.49560744      11.50470135      11.43134233      -0.25508421       0.05856511      -0.34634803
H        8.87260663      12.06244643      10.99239343       0.08864032       0.28617390      -0.12791317
H        9.84030527      11.09956232      10.62731310      -0.18571358       0.22348900       0.10393530
O        1.68437728      10.81717801      12.67111939       1.24874820       0.32809087       0.84457986
H        1.74236450      10.18201225      13.39268149       0.21383986       0.11458349      -0.01864007
H        1.03836252      10.41191849      12.01907062      -0.29086414       0.06596899      -0.19697992
O        8.54535835       0.39862393       3.16897841      -0.52321972      -0.27322646      -0.53587309
H        7.96549694       1.14800650       3.07891521      -0.08501409      -0.02759934      -0.06723723
H        8.55811313       0.24064770       4.11178617      -0.07060589       0.03555430       0.29975190
O        8.23262322       3.09209339       4.12239118      -0.09537417      -1.17506292      -0.69058850
H        8.56571150       3.76167070       3.44535501      -0.24527591       0.25849001      -0.25926646
H        9.08730873       2.95541185       4.55197214       0.04459717       0.42246105       0.08842860
O        2.46623929       4.95848774       1.90291019      -1.01465979       0.00796547       0.00486338
H        2.04942685       4.12219117       1.56521995      -0.08797771      -0.11344563       0.01599146
H        2.70662492       5.45641268       1.13036642       0.14481912      -0.26200506       0.13827100
O        0.68739176       8.74576691       8.04854545      -1.49441528       0.27055063      -0.13757411
H        1.34219289       8.33327498       7.43878284       0.20092277      -0.08939837      -0.03147957
H        0.26980181       9.39748990       7.53815753      -0.21414814      -0.34232117       0.08296014
O       11.87911774       0.71994652       6.79553397       0.20895530       0.83853014       0.04816888
H       11.28008252       1.11898011       7.42964776      -0.07687764      -0.19930403       0.04838174
H       11.88229289       1.25549859       5.99924569      -0.07785215       0.04015684      -0.00181817
O       12.53418840       7.14509039       2.33784986       0.28752252      -0.86853955      -0.18005760
H       13.17231162       7.10186437       3.02523930       0.15644474      -0.10484650       0.11475302
H       13.04891855       6.76188732       1.59893859      -0.02896023      -0.46369264       0.09849878
O       10.55568949       9.36964317       9.34156020      -0.34936875       0.04499541       0.12225673
H       10.46040589       8.47763872       9.04923360      -0.20250353      -0.04190572      -0.14775492
H       11.04907401       9.67724536       8.56867533       0.16210708      -0.08704599      -0.06967923
O        4.01798260       4.47352036       5.50641104      -1.20667817      -0.21728307       1.31645235
H        3.70219567       3.55137825       5.53345567       0.14535431      -0.27365068      -0.24423832
H        3.28185884       5.05747658       5.68144505       0.02530857       0.09953897      -0.02503159
O        4.58909044       3.47311472      10.40879670       0.74132203      -0.20234629       0.41136976
H        4.63688725       4.41790422      10.72253056      -0.05679089       0.14942707      -0.10021622
H        5.46518654       3.13093298      10.52565692      -0.09603679      -0.15717877       0.20590016
192
Lattice="13.288527919769944 0.0 0.0 -5.291784844685917e-07 13.288527919769944 0.0 -5.291784844685917e-07 -5.291784844685917e-07 13.288527919769944" Properties=species:S:1:pos:R:3:momenta:R:3 step=60 time_fs=6.0 phase=equilibration pbc="T T T"
O       10.21810569       0.36369880       9.49168518       1.65308500       0.00188294       0.48364216
H       11.00212322       0.23920411      10.03540927       0.11871479       0.51895115      -0.10313456
H        9.34836703       0.42862778       9.93334256       0.02140421       0.18429654       0.01560950
O       11.32725969       2.58009204       2.50558999       0.71699248       0.08654652       0.87062327
H       10.69179595       3.19574699       2.09667808      -0.00521234       0.02035954      -0.01668791
H       12.14959736       3.01470565       2.30123620      -0.03087649       0.03374879       0.15718327
O        3.04324879       8.24492884      10.85367878       0.31072268      -0.24172983      -1.33352928
H        2.09480116       8.24552303      10.68911984       0.05085982       0.15406046      -0.23505457
H        3.50844940       9.08707148      10.69557439       0.33600544      -0.28871766      -0.20084206
O        8.87995235       6.22779789       7.59787026      -0.52300865       0.86759887       1.07601662
H        9.30819327       5.88772131       8.40004200       0.13811745       0.06261513      -0.06836072
H        7.98320555       6.01371602       7.52730639       0.02080063       0.06399460      -0.14062410
O        6.67439197      13.48562342      -0.00708321       0.87721854       0.72194555      -0.49649404
H        6.60230260      12.58344075      -0.14299064      -0.21825471       0.00302884       0.12603534
H        7.23792250      13.83529286       0.72320535      -0.25124646       0.18020616      -0.00620325
O       12.52288850       6.84644755       9.60292473      -0.08746884      -0.82848787       0.44646859
H       11.81827686       7.24527227      10.09200678      -0.27297417      -0.12267445      -0.12600075
H       12.97546530       7.40345820       8.98283354       0.07638607      -0.25279278      -0.26352810
O        7.74163765       9.77468304       5.20780228      -0.00286805       0.17562869       0.15350184
H        7.53834613       8.87014046       5.37976400       0.01074978       0.19623880       0.12974955
H        8.05344374       9.82023480       4.28876916      -0.24744956      -0.08010973      -0.34018002
O        0.62877553      12.79972272       3.26467940      -1.54935313       0.26599397      -0.12287329
H       -0.30235930      12.74877979       3.32070536      -0.12539829       0.01502417      -0.13048791
H        0.89077283      12.89051402       2.33377380       0.29328022      -0.17979395      -0.00296875
O        8.95296065       8.53401732       1.41151117       0.26523289      -1.32309854      -0.46325090
H        8.91712161       8.69744705       0.47476559      -0.02415060      -0.21588608       0.16787658
H        9.18619766       9.38173230       1.86872916       0.13348507       0.69525675       0.04656639
O        3.60580644       7.78986446       3.74677523       0.54387025       0.89537545      -0.79714407
H        3.65868449       7.16022948       4.47397529       0.08537024       0.47177377       0.16743025
H        3.10836231       7.41884061       3.01407479      -0.25477310      -0.30036922       0.23612140
O        9.79240537       6.64665348      10.70869866      -0.06297862       0.57664649       0.65121824
H       10.20259672       5.76295025      10.64782325      -0.15306881      -0.17695427       0.11876032
H       10.17943215       7.27666796      11.30921467      -0.17762240       0.46118782      -0.12960798
O        2.80459697       1.80141876       6.19974573       0.45666775       0.67018323      -0.63275254
H        3.73472787       1.49099715       6.24585186      -0.00630867       0.44439252      -0.33027898
H        2.19425684       1.14490077       6.55221549       0.00343713       0.23350519      -0.23165745
O       10.95360111       3.02833082       5.39995600       1.50028566       1.20170905       0.85093013
H       10.76844732       3.87224693       5.89115859      -0.00819402      -0.14366086       0.52065917
H       11.71814030       3.00232938       4.80326791      -0.12577892      -0.18370558       0.06110434
O       11.56860445       3.87065387      11.23086286       0.15445314      -0.06309061       0.47700061
H       11.97488917       3.73210703      10.35748762      -0.02617716       0.17478496      -0.04157930
H       11.73761070       3.03827284      11.67389350      -0.05389841       0.02995214       0.19512037
O       11.89074022      10.83952750       7.36233447      -0.37584059       1.01235512       0.11048766
H       11.76579947      10.21418237       6.65137232       0.11481133      -0.20681271       0.18084360
H       11.94281170      11.75736824       7.05068506      -0.12716597       0.06692508       0.04401300
O        3.81438028       7.69564605       0.33321999       0.28208285       0.14686414      -0.31998213
H        3.98708495       7.47679107      -0.56506606       0.07006991      -0.05214062      -0.10548987
H        4.59736529       7.54643598       0.84505350       0.15533636       0.06444599       0.11033549
O       11.61120094      12.53720527      12.85664974       1.54458869       0.44343615      -0.16839860
H       10.91997773      12.11944081      12.32650043       0.29516256      -0.13627728      -0.23212009
H       11.49496116      12.22984970      13.78142493       0.05095059       0.33941541      -0.00569520
O        3.19170026       9.95344511       1.57151521      -0.65198926      -0.29737940      -0.66376338
H        3.09320623       9.37225657       2.33945421       0.08846696       0.29628002      -0.03079420
H        3.46153607       9.17507564       1.01697315       0.17747270      -0.12446809       0.20832918
O        0.17858906       9.88240425      10.55584756       0.58230560       0.19912909      -0.80897443
H        0.67035190       9.68412586       9.78127613       0.20435788       0.01712399      -0.26730245
H       -0.50911257      10.54687226      10.46259859       0.19821072       0.03884934       0.28654717
O        1.54977445       2.07345287       3.62358302       0.27357127       0.40123345      -0.03686798
H        1.71177833       1.12613146       3.55273316      -0.26874448       0.09126151      -0.21007296
H        1.75625938       2.42272647       4.49361546      -0.10913807      -0.08909829      -0.06752907
O        1.02810489       7.35198185      13.09907213      -0.75774206      -1.07002471      -0.40020109
H        0.74553079       6.59452705      12.54997451      -0.20540551       0.14614528      -0.26943220
H        1.97600368       7.42069408      13.31434511       0.07600539      -0.13013701      -0.08736181
O        0.63646051      12.42294522       5.98943899       0.84870133      -0.35940645       0.50208607
H        0.88576706      12.37896456       5.04617667       0.15923601      -0.35862122       0.04904257
H        0.10020133      13.20025198       6.24370333      -0.53911313      -0.24611189      -0.20146944
O        1.64768950      11.64017352       8.25332219       1.18361783       0.94757115       0.03744491
H        1.42796385      11.84927323       7.33572737       0.07296383      -0.09019084      -0.02262368
H        1.54127752      12.38784993       8.88789832       0.22552550      -0.17559056       0.10685897
O        0.85651891      13.27289750       0.42667985      -0.63162529      -0.27679180      -0.21704397
H        1.52071356      12.71367068      -0.00168626       0.25056928       0.01843868       0.22981454
H       -0.01344534      13.02937761       0.12917683      -0.09471287      -0.03850240      -0.02053113
O        6.70739105       0.93211753       5.90066512       0.08272467       0.17103545       1.39185233
H        7.12638002       0.08092940       5.83946785      -0.11464386      -0.12273419       0.00679301
H        7.15584793       1.59480681       5.38404735      -0.22608280       0.19173349      -0.04420482
O        0.81454760       7.69007557       4.68339152      -0.12300148      -0.37535584       0.44154567
H        2.85427957       8.64749304       4.28430236       0.29797943      -0.94319059      -0.50274685
H        0.99400840       6.84220001       5.11673235      -0.05885156      -0.07180680       0.06201796
O        5.69522397       2.89911436      12.97075564      -0.58746627       0.59531498       1.38743802
H        5.73913185       2.08573530      13.50263854      -0.31775323      -0.09370658      -0.23318162
H        5.50007895       3.61963291      13.58422778      -0.27347072      -0.01580740      -0.06721084
O        5.69984805      12.42598515       8.57986162      -0.48125677       0.44994039      -1.30896107
H        5.90733689      12.51464806       7.64548358       0.35490064      -0.32249199      -0.10536928
H        5.27278503      13.21346022       8.90587713      -0.24889227       0.06004465      -0.02416440
O       11.36600823       8.93369064       5.06437512       0.01075374      -0.14411102       0.33306306
H       10.83329046       8.12540530       5.03926797      -0.13965186      -0.10132161      -0.00060540
H       12.28711751       8.63290609       4.79018551       0.07438729       0.36176283      -0.16659943
O        9.92196079       6.61106758       2.94143666      -0.48190485      -0.96510464       0.34410094
H        9.51155831       7.28608683       2.38486107      -0.43611758       0.19123895      -0.15571367
H       10.83445454       6.41229260       2.86175050       0.27476026       0.20462727       0.02786979
O        3.74303688      10.48646829       9.46573939       0.17580495      -1.48624014       1.09684120
H        4.36405469      11.19507340       9.24014664       0.31900626      -0.34894155       0.25732048
H        3.03994012      10.58431372       8.83380059       0.01609318      -0.34336224      -0.26077938
O        7.17551088       7.58079737      11.46076300       1.18861550       0.12850982       0.83622251
H        7.03551961       8.48775101      11.61913939      -0.01747363       0.04393235       0.07656640
H        8.01787484       7.33842382      11.03596648       0.15863383      -0.22641867       0.13809111
O        4.92265481      10.97262585      12.68415081      -0.14870660       1.17754592      -0.41918922
H        4.20777536      11.03933740      13.32804676       0.18407889       0.17212113       0.03842365
H        4.60612119      11.45932515      11.93303311       0.26093933       0.00197631      -0.16773850
O        8.09491096       4.54566076      12.64839190      -0.03411672       0.06926800       0.41342429
H        7.16368830       4.48874542      12.77096560      -0.07184840      -0.15564570      -0.11202177
H        8.19136546       5.38936456      12.22009376       0.11013358      -0.01665762      -0.11167089
O       11.37487469       8.39289730      11.76888708      -0.94852420      -1.09101854       0.34455182
H       12.19981032       8.52148548      12.21545314      -0.14846624      -0.01608806       0.38104183
H       11.20287567       8.97248462      11.00168437      -0.13822032       0.15831383       0.29595318
O        5.18832568       4.12534610       2.16702545      -0.07156807      -0.02115190      -0.30707439
H        5.68960161       3.67445498       2.87551370      -0.02853222       0.06914477       0.13091592
H        4.32857275       4.40481414       2.46820063      -0.13697548      -0.05320384      -0.11443682
O        1.83823604       1.08232357       8.88587080      -0.23342904      -0.29447252      -0.24149285
H        2.75047138       1.07889322       8.75306543       0.09911040      -0.14179801       0.26706089
H        1.76807509       1.65498357       9.67282003      -0.22225685      -0.27317496       0.12026995
O        4.60506080       6.23264876      10.30966565      -0.42980367      -1.80759004       0.92467089
H        3.97761788       6.92085226      10.22035245      -0.23104873      -0.11763476      -0.41728702
H        5.40511992       6.55138513      10.68362952       0.15971706       0.08187751      -0.27592221
O        9.01101203      12.54573498       5.57425898      -0.43932438      -1.03886977      -0.25105620
H        8.52067675      11.72766915       5.67860711      -0.11870588      -0.07355707      -0.06146679
H        9.95330288      12.41138162       5.52197053       0.20083612       0.16644061       0.33822060
O        6.28010104       5.26182716       7.99153450      -1.20514263       0.76477072      -0.79363220
H        5.37430156       5.48271499       8.25862431      -0.04643980       0.02312084      -0.05069392
H        6.14030458       5.01370354       7.06808160      -0.00485430      -0.09280693       0.08199074
O        9.82372724      10.56154778       3.19791053       0.62150488      -0.23158158       0.98022373
H       10.40888382      10.04416042       3.76696450       0.13538569      -0.07041731      -0.09459485
H       10.44643246      11.93767716       2.66321178       0.14063377       0.78545190      -0.00203290
O        7.38841477      12.81918024      10.61985093      -0.75089270       0.44865654      -0.44556801
H        7.00769075      13.37319561      11.32326092      -0.00771108      -0.03310498       0.13724847
H        6.97933000      12.69385883       9.77472667      -0.01277402      -0.01617870      -0.28368646
O        0.96043354       5.48084658      11.01573127       0.34171779       0.58865080      -0.80497197
H        0.24886815       5.86927896      10.45299796      -0.06362117      -0.35409464      -0.33991592
H        1.80952919       5.48633489      10.55994316      -0.12872101      -0.41690652      -0.08745979
O       10.80811928       5.86248001       5.61287972      -1.26438258       1.04495803       0.30902006
H        9.95046939       6.91369583       4.32667492       0.39076178      -0.48533519      -0.38481746
H       10.04052492       6.01681357       6.17083145      -0.28830622      -0.08086814      -0.18792567
O        1.27920665       4.96593343       5.59311429       0.76643906       0.54960638       0.39465524
H        1.17464734       4.17311164       5.10862753       0.17029762       0.27775938      -0.08349634
H        0.67976470       5.02057126       6.39977048      -0.02732035       0.13356326       0.08941513
O        5.90993249       6.92767998       1.74371090       0.54841044       0.36037666       0.00142490
H        6.49041761       7.44059013       1.16255251      -0.02677362       0.07673819      -0.12491141
H        6.20811304       6.02366185       1.74604290      -0.09794475      -0.09494023       0.15452247
O        9.22938464       4.17025292       1.77899621       1.05058420       0.90542542       0.50587944
H        8.55160866       4.36635557       1.09028277      -0.01010681       0.01967975       0.07057930
H        9.38868789       5.07171009       2.11132336       0.34546091      -0.01587276      -0.26899181
O        0.95066780       2.59593796       1.16914555      -0.28571024      -0.41515519       0.02687334
H        0.85595653       1.78059368       0.74182022       0.18744671      -0.01288813      -0.24459197
H        1.51952778       2.32281453       1.93115057       0.23927172       0.04107070      -0.01559036
O       12.89832943       4.77181855       7.67164388       0.64292053       0.17861020      -0.44419410
H       12.97707868       5.38652060       8.39897905       0.15835968      -0.05480958       0.00216789
H       12.20206164       5.05455888       7.06706323      -0.13590793      -0.06490770      -0.12428814
O        7.58141798      10.03922804      12.78418931      -0.84297435      -0.34758608       0.20521579
H        6.60779240      10.18870952      12.78122977       0.00316463      -0.03752540       0.16958262
H        8.07789436      10.62032905      12.18187950      -0.01286703      -0.21684582      -0.06677099
O       10.92207103      -0.00432124       2.79225482       0.23603452      -0.18282167       0.03445565
H       11.18236157       0.58867720       1.99834796       0.04816808       0.20911589       0.04913803
H       10.08357401       0.24173960       3.12634411      -0.49794957      -0.46677032       0.18542252
O        1.61355089       2.37992173      11.25253589      -0.00854772      -0.01791371      -0.31330931
H        1.92253376       2.17791520      12.14210761       0.04125824      -0.27925342      -0.14762549
H        1.54344144       3.33349870      11.03046493       0.34075522      -0.18346743      -0.36750920
O        4.75124008       1.84061166       8.20855296      -1.17785109       0.00414930      -1.39295589
H        4.46941886       2.42238708       8.94385235      -0.24059895      -0.01541522       0.07769903
H        5.64131439       2.13747116       8.07957313       0.13156570       0.10361632       0.08147395
O        9.49415494      11.50485948      11.42923247      -0.23982883       0.00882834      -0.33592337
H        8.87865783      12.09339548      10.97941487       0.04758123       0.33764055      -0.13042228
H        9.82448821      11.11828540      10.63622718      -0.13220235       0.15245480       0.06195744
O        1.69148580      10.81875100      12.67601087       1.05869594       0.18671703       0.72859712
H        1.76433479      10.19575680      13.39020395       0.23644190       0.15913252      -0.02555912
H        1.01851316      10.42446723      12.00786021      -0.10743742       0.19343987      -0.02379800
O        8.54194155       0.39692325       3.16601192      -0.59914317      -0.27937844      -0.40349869
H        7.95674540       1.14754118       3.07029285      -0.08930991       0.01183271      -0.10786687
H        8.55057113       0.24366644       4.13807358      -0.08516632       0.03127217       0.20872858
O        8.23273449       3.08522077       4.11765885       0.13030356      -1.05663650      -0.85689960
H        8.53598964       3.77913859       3.42755328      -0.36479608       0.09336755      -0.10017284
H        9.08748042       2.99755464       4.56161728      -0.04268140       0.44105343       0.10749178
O        2.45984236       4.95809784       1.90292825      -1.07529555      -0.14834672       0.01533585
H        2.04360348       4.11750523       1.56989255      -0.03142109       0.01842250       0.08015518
H        2.72067006       5.43264827       1.14169287       0.14881100      -0.21472724       0.07778399
O        0.67911329       8.74655188       8.04785460      -1.18695368      -0.02944949      -0.09258146
H        1.35712623       8.32762880       7.44003357       0.09369759      -0.01939151       0.06515866
H        0.24042829       9.37691501       7.53775630      -0.39270958      -0.07596796      -0.09669146
O       11.88039916       0.72515933       6.79569893       0.20502702       0.85764953       0.00444619
H       11.27314550       1.09931803       7.43498613      -0.06665274      -0.20348066       0.06075617
H       11.87354525       1.25935931       6.00033632      -0.10231694       0.04043830       0.02313674
O       12.53602350       7.13964896       2.33627176       0.32840260      -0.91050075      -0.31666351
H       13.18934469       7.09146293       3.04288481       0.17248702      -0.10737615       0.22453436
H       13.04167985       6.71786147       1.60949719      -0.12210084      -0.43693348       0.12159893
O       10.55372993       9.37006860       9.34215657      -0.28856647       0.07811686       0.05566641
H       10.43681194       8.47136671       9.03437699      -0.28031880      -0.07144841      -0.15230278
H       11.06324846       9.67181798       8.56330425       0.12344013      -0.02691215      -0.03240632
O        4.01038202       4.47186722       5.51441626      -1.26906878      -0.33334315       1.28752483
H        3.71909671       3.53188018       5.51041944       0.20159367      -0.11324623      -0.22681901
H        3.28440353       5.06633897       5.67866708       0.02490438       0.07939564      -0.03144835
O        4.59367881       3.47258209      10.41154804       0.74598433       0.02859113       0.47987331
H        4.63031933       4.42389477      10.70782437      -0.07659934      -0.02829844      -0.20087348
H        5.45638571       3.11313968      10.54881371      -0.08053308      -0.20787933       0.26983840
192
Lattice="13.288480746754406 0.0 0.0 -5.291766059350911e-07 13.288480746754406 0.0 -5.291766059350911e-07 -5.291766059350911e-07 13.288480746754406" Properties=species:S:1:pos:R:3:momenta:R:3 step=70 time_fs=7.0 phase=equilibration pbc="T T T"
O       10.22821520       0.36358068       9.49483771       1.62773893      -0.03714988       0.53442121
H       11.00654299       0.29254154      10.02451745       0.00040048       0.57247835      -0.10135198
H        9.35883896       0.44755199       9.93153302       0.19090029       0.20445248      -0.05045013
O       11.33132337       2.58056906       2.51086010       0.61617034       0.07460757       0.84747485
H       10.69212839       3.19533516       2.09593481       0.01558184      -0.03086344       0.00339382
H       12.15226361       3.01914436       2.31645454       0.08699527       0.05849194       0.15498899
O        3.04524950       8.24363511      10.84551713       0.34275506      -0.18210600      -1.31024487
H        2.10301949       8.26216447      10.66581501       0.11411303       0.18841363      -0.24279188
H        3.53703640       9.05549270      10.67499751       0.25593954      -0.34707393      -0.22213403
O        8.87765471       6.23324962       7.60465515      -0.22966293       0.91617918       1.13542655
H        9.31901920       5.89500591       8.39059100       0.08547624       0.08446613      -0.11968670
H        7.97305272       6.01684548       7.51264229      -0.21574886       0.00284073      -0.15789272
O        6.68003217      13.49098575      -0.00996735       0.95425495       1.00624017      -0.46342988
H        6.57936787      12.57269246      -0.12871946      -0.24954293      -0.19406945       0.17206686
H        7.21036549      13.84843906       0.71893300      -0.30246886       0.09576311      -0.06718004
O       12.52233836       6.84122891       9.60559527      -0.07608751      -0.85125183       0.42951363
H       11.79191835       7.23373905      10.07978194      -0.25912817      -0.11664663      -0.13029955
H       12.98313534       7.38010669       8.95618470       0.07266263      -0.23409234      -0.27077078
O        7.74192754       9.77641908       5.20798118       0.11046935       0.40432501      -0.11094147
H        7.53650431       8.88005777       5.39665985      -0.04912850       0.00603139       0.21856777
H        8.02577514       9.81239238       4.26332840      -0.32380873      -0.08126197      -0.16032737
O        0.61954866      12.80145359       3.26376941      -1.46228141       0.31216732      -0.17467321
H       -0.31974202      12.74927737       3.30814574      -0.22026405      -0.00333688      -0.12938782
H        0.91999887      12.87036406       2.33598274       0.30236056      -0.23311402       0.05588315
O        8.95462522       8.52659733       1.40922648       0.29162740      -1.07135576      -0.24925532
H        8.91500474       8.67647571       0.48585187      -0.01921413      -0.20759408       0.03844287
H        9.19689440       9.43908241       1.86754943       0.08202291       0.46474418      -0.07979181
O        3.60871010       7.79522113       3.74130182       0.45658896       0.80510614      -1.02710085
H        3.66554021       7.20821836       4.49003606       0.05909070       0.50319807       0.17988640
H        3.09027660       7.39255795       3.04401082      -0.11449550      -0.23964266       0.36685417
O        9.79210937       6.64987271      10.71273680      -0.02105827       0.48243201       0.67874076
H       10.18420323       5.75242017      10.66213974      -0.22289716      -0.03372464       0.17670174
H       10.16094617       7.31698997      11.29527147      -0.20311884       0.35880906      -0.15969197
O        2.80784652       1.80527324       6.19585907       0.58806993       0.61605507      -0.63767984
H        3.72793896       1.53695790       6.21324433      -0.10287096       0.48633996      -0.33610165
H        2.19409984       1.16932881       6.52898612      -0.02035832       0.25135752      -0.23524080
O       10.96291509       3.03615686       5.40520163       1.52272868       1.34092879       0.88058500
H       10.77127477       3.84834552       5.93492868       0.06700969      -0.33760585       0.37943879
H       11.70002824       2.98575930       4.81265669      -0.22194819      -0.15458690       0.11480204
O       11.56987933       3.87004680      11.23307352       0.26805732      -0.13003518       0.27084382
H       11.96755654       3.75278068      10.36243688      -0.11760050       0.24500224       0.13374277
H       11.73077120       3.04150563      11.69455813      -0.08531841       0.04080543       0.22559638
O       11.88835680      10.84571766       7.36289197      -0.38761856       1.01095227       0.07895035
H       11.77718711      10.19476252       6.66864840       0.12012715      -0.18597729       0.17652553
H       11.93012841      11.76186439       7.05574509      -0.13193801       0.02745053       0.05871741
O        3.81590935       7.69648006       0.33153888       0.24107429       0.12578191      -0.23984132
H        3.99511790       7.47125488      -0.58212116       0.09132499      -0.05513101      -0.21859960
H        4.61412061       7.55237113       0.85692643       0.17132582       0.05996964       0.11908991
O       11.62059681      12.53973076      12.85606578       1.52809118       0.39668958      -0.02350620
H       10.95019177      12.10660086      12.30373244       0.32851925      -0.12508108      -0.23127946
H       11.50021901      12.26479621      13.77506118       0.05541992       0.37312357      -0.11165400
O        3.18787376       9.95092265       1.56679331      -0.59269903      -0.49205723      -0.87620001
H        3.10090732       9.40331649       2.33882262       0.06779844       0.33044509       0.02903852
H        3.47637848       9.17359635       1.04409170       0.12845416       0.08401289       0.34135783
O        0.18213751       9.88368414      10.55089233       0.60712216       0.20744877      -0.81839384
H        0.69012039       9.68737686       9.75399830       0.18032592       0.05937359      -0.26189540
H       -0.48895003      10.55029855      10.49060224       0.20293953       0.04458011       0.28615403
O        1.55146061       2.07580210       3.62332899       0.27205941       0.37802704      -0.05335773
H        1.68508130       1.13635702       3.53314214      -0.27589599       0.10195549      -0.19265975
H        1.74600889       2.41348327       4.48819709      -0.09859922      -0.09556694      -0.03045565
O        1.02357025       7.34517283      13.09650115      -0.71519556      -1.13464272      -0.41936356
H        0.72968363       6.61276365      12.52688387      -0.12044817       0.22373972      -0.20576367
H        1.97675880       7.40579105      13.30346798      -0.06210199      -0.17477537      -0.13547283
O        0.64130418      12.42137231       5.99230602       0.73043652      -0.14714850       0.43880359
H        0.89977149      12.34362618       5.05739568       0.12866725      -0.36512693       0.17669865
H        0.05268530      13.16548818       6.21962880      -0.43430749      -0.45848170      -0.28737443
O        1.65481543      11.64639076       8.25385574       1.14656053       1.06849956       0.13796452
H        1.43686796      11.83880811       7.33766065       0.10763225      -0.12016949       0.05597885
H        1.56473906      12.36495863       8.89086333       0.25184520      -0.27397098      -0.03098867
O        0.85281693      13.27096296       0.42524740      -0.57583326      -0.34180576      -0.25354197
H        1.54301821      12.71592493       0.02225172       0.20047487       0.03121405       0.26322789
H       -0.02348759      13.02570735       0.12677366      -0.10074936      -0.03461703      -0.02631423
O        6.70760194       0.93322026       5.90932372       0.00822095       0.18682603       1.42626443
H        7.11688694       0.06641939       5.83980821      -0.08650326      -0.15722240       0.00056544
H        7.13546157       1.61631213       5.37902300      -0.19919326       0.23454672      -0.04898324
O        0.81373511       7.68734498       4.68630891      -0.13958600      -0.50707682       0.51436475
H        2.88487928       8.55132553       4.23542944       0.27671299      -0.96267914      -0.45877872
H        0.98805474       6.83839870       5.12143322      -0.06364717      -0.00405102       0.03315703
O        5.69163668       2.90286004      12.97943849      -0.57200591       0.62551137       1.43821274
H        5.70834849       2.07725613      13.47720663      -0.31323327      -0.08820152      -0.28033419
H        5.47310342       3.61632961      13.57618335      -0.28274071      -0.04010928      -0.08588578
O        5.69674225      12.42888429       8.57179181      -0.53007356       0.52026932      -1.30964491
H        5.94219766      12.48107443       7.63642727       0.35633424      -0.36245652      -0.06839341
H        5.24883959      13.21920132       8.90192719      -0.23259801       0.04346675      -0.06739039
O       11.36654827       8.93222442       5.06603832       0.16807685      -0.32570212       0.21482902
H       10.82255072       8.12118717       5.04075074      -0.06954136       0.02642664       0.03318307
H       12.28321582       8.67340183       4.77797863      -0.15099845       0.46514295      -0.08472381
O        9.91889910       6.60547990       2.94470869      -0.49125043      -0.83445097       0.69418551
H        9.47281540       7.29950313       2.37196713      -0.34405846       0.06290043      -0.08534997
H       10.85724172       6.43654745       2.86656693       0.18332951       0.28948458       0.05587509
O        3.74413779      10.47739106       9.47235389       0.17020794      -1.45769925       1.05253114
H        4.39700850      11.16041282       9.26700308       0.35376568      -0.36213218       0.29275963
H        3.03971014      10.54986711       8.80820700      -0.00013409      -0.36191195      -0.24644980
O        7.18295375       7.58092273      11.46572152       1.24676301      -0.06197684       0.79308363
H        7.03380719       8.50045005      11.62812968      -0.01279279       0.19686957       0.10472470
H        8.03053198       7.31786910      11.05063120       0.09484614      -0.19097134       0.16700681
O        4.92166987      10.97987589      12.68163321      -0.15820831       1.19596593      -0.39351402
H        4.22627739      11.05496697      13.33348670       0.18955241       0.15188911       0.07739572
H        4.63155325      11.45964378      11.91265423       0.26019107       0.00366665      -0.24582257
O        8.09485227       4.54605922      12.65101221       0.01058980       0.07482384       0.45198668
H        7.15098145       4.46959381      12.76082309      -0.17249503      -0.23527590      -0.09737789
H        8.20460974       5.39057314      12.20684729       0.15991626       0.03078673      -0.15354493
O       11.36882406       8.38662125      11.77024204      -0.99423469      -0.96499864       0.14858447
H       12.18354594       8.52005820      12.25236693      -0.19051313      -0.01425482       0.37409100
H       11.19376413       8.98121061      11.04469701      -0.05614097       0.04575680       0.55255634
O        5.18803850       4.12506797       2.16523949      -0.02262294      -0.06281417      -0.26750493
H        5.68306631       3.68467076       2.88628265      -0.10645895       0.14156668       0.08775080
H        4.31504481       4.39882478       2.45810460      -0.13218114      -0.07205792      -0.09551575
O        1.83625154       1.08049109       8.88448041      -0.38288014      -0.30342419      -0.20843726
H        2.77086282       1.06485778       8.77718144       0.29182520      -0.14611916       0.23328937
H        1.74375052       1.62711044       9.68325038      -0.27657935      -0.29670546       0.09651061
O        4.60246328       6.22105320      10.31528621      -0.41348449      -1.93415486       0.92263265
H        3.95089129       6.91387855      10.17781468      -0.29350801      -0.04667700      -0.45019218
H        5.42555484       6.56114883      10.65920830       0.23901396       0.11323552      -0.23355360
O        9.00836568      12.53923578       5.57268239      -0.39948638      -1.06841909      -0.25638381
H        8.51090335      11.72100814       5.67172704      -0.07611731      -0.05842850      -0.07928032
H        9.97037160      12.42754825       5.55856618       0.13230440       0.16639617       0.41262814
O        6.27237737       5.26647963       7.98636255      -1.29191108       0.75951568      -0.86592570
H        5.37301484       5.48536586       8.25489636       0.01169745       0.03386144      -0.02266402
H        6.14076326       5.00495753       7.07759051       0.01236850      -0.09136044       0.09516059
O        9.82780965      10.56008411       3.20406761       0.72748608      -0.20455292       1.01792545
H       10.42080116      10.03791461       3.75549379       0.11103697      -0.06041711      -0.13727997
H       10.46540241      12.02963694       2.66550665       0.24283003       1.07388212       0.05617588
O        7.38379790      12.82216725      10.61735022      -0.75154437       0.53617302      -0.37271437
H        7.00700619      13.36670382      11.33211956      -0.00582779      -0.09998238       0.04383706
H        6.97588349      12.69236399       9.74802972      -0.04994508      -0.01035721      -0.24596150
O        0.96230581       5.48466982      11.01056963       0.25797465       0.66135934      -0.85741171
H        0.25006455       5.83080700      10.42416263       0.08568456      -0.43252957      -0.25132377
H        1.79532585       5.44549792      10.55187108      -0.14970072      -0.42092228      -0.08334916
O       10.80008559       5.86900443       5.61472767      -1.34597351       1.08763011       0.30190598
H        9.99329735       6.85644651       4.26682398       0.47062103      -0.67760449      -0.82541123
H       10.01174725       6.00962518       6.15243477      -0.29434263      -0.06951540      -0.18904015
O        1.28364612       4.96982678       5.59619103       0.68427289       0.73352444       0.61809611
H        1.18975107       4.19526749       5.09788455       0.13831855       0.16834799      -0.14208649
H        0.68460582       5.03232131       6.39875472       0.12494737       0.10689241      -0.10791091
O        5.91348343       6.93004584       1.74354864       0.62066669       0.41109442      -0.05487705
H        6.48626375       7.44732605       1.15320060      -0.06068074       0.05635116      -0.06340951
H        6.19769533       6.01277470       1.76220629      -0.11744367      -0.11586643       0.17593787
O        9.23555807       4.17628547       1.78194979       0.97064007       1.04854170       0.45484096
H        8.55404120       4.36539909       1.09923226       0.05778207      -0.03837122       0.11026239
H        9.42332546       5.06638082       2.08524662       0.36874441      -0.07817509      -0.25944632
O        0.94931617       2.59380887       1.17024223      -0.15364580      -0.30151276       0.31973529
H        0.87215436       1.77019376       0.71001859       0.14856288      -0.17395068      -0.39371760
H        1.53700363       2.33073505       1.92252837       0.11616079       0.12126181      -0.16324568
O       12.90198538       4.77288980       7.66857602       0.55563222       0.17964119      -0.55158588
H       12.99274221       5.38135874       8.40056478       0.16268414      -0.05264482       0.02718777
H       12.19177812       5.04597494       7.05972203      -0.06568723      -0.11295050      -0.01764491
O        7.57593281      10.03714521      12.78525764      -0.92816086      -0.32806655       0.16491596
H        6.61418445      10.18459772      12.79791341       0.11665373      -0.04361588       0.17294727
H        8.07453668      10.59600231      12.17770920      -0.05005794      -0.27464607      -0.02429372
O       10.92354212      -0.00587090       2.79146594       0.22718467      -0.32033134      -0.27745085
H       11.18074234       0.60059758       2.01729162      -0.08208378       0.03418050       0.33999569
H       10.04010564       0.19554264       3.14110565      -0.36732927      -0.47840586       0.10977457
O        1.61349091       2.38029369      11.25062666      -0.01177477       0.12161255      -0.30517179
H        1.92624677       2.15133453      12.12444483       0.03933013      -0.26639172      -0.20253555
H        1.57775939       3.30740827      10.99679485       0.36250779      -0.33115754      -0.32484928
O        4.74388586       1.84080772       8.20030449      -1.17892269       0.08188108      -1.27882571
H        4.44671467       2.41712691       8.94788934      -0.21857189      -0.09983515      -0.00496122
H        5.65550221       2.14781195       8.08528359       0.12015226       0.09679070       0.04204508
O        9.49242750      11.50500602      11.42723125      -0.32636052       0.06806484      -0.30509100
H        8.88429225      12.12584589      10.96877111       0.08049689       0.31694275      -0.07751228
H        9.81552288      11.12805927      10.63700163      -0.04809144       0.04537309      -0.05157754
O        1.69733611      10.81956664      12.67988340       0.84954257       0.10334937       0.53922002
H        1.78838054      10.21116787      13.38937390       0.25704568       0.14854247       0.01851418
H        1.01806531      10.44937276      12.01500620       0.09716478       0.31502437       0.16951686
O        8.53790244       0.39523601       3.16422341      -0.71187905      -0.26519826      -0.16827435
H        7.94914250       1.14901137       3.05828584      -0.06128438       0.01206063      -0.13643965
H        8.54135737       0.24725532       4.14862991      -0.10386540       0.04329925      -0.00106687
O        8.23416114       3.07916073       4.11184288       0.33631111      -0.91366806      -1.03138798
H        8.49502092       3.77951148       3.42604702      -0.47156376      -0.08293385       0.06619157
H        9.07923767       3.04106949       4.57283104      -0.12177277       0.45052828       0.12417673
O        2.45301567       4.95662599       1.90324362      -1.14144081      -0.31635003       0.09708900
H        2.04274234       4.12481514       1.58043237       0.00790829       0.12058456       0.13174274
H        2.73639795       5.41599726       1.14333116       0.17573730      -0.12417910      -0.04789295
O        0.67275395       8.74555174       8.04721045      -0.90619095      -0.25334990      -0.13111700
H        1.35915014       8.33031375       7.45198335      -0.05436476       0.07689771       0.17897079
H        0.19556451       9.37907679       7.52172187      -0.50325360       0.08590323      -0.20578975
O       11.88160927       0.73045040       6.79559787       0.20301057       0.86452684      -0.02645022
H       11.26692487       1.07940247       7.44141311      -0.06069685      -0.20508912       0.07129388
H       11.86227717       1.26375231       6.00336607      -0.12824328       0.05211782       0.03672526
O       12.53842542       7.13385594       2.33419837       0.48256344      -0.96957405      -0.33619091
H       13.20219928       7.08119764       3.06472826       0.07682608      -0.10135653       0.20517266
H       13.02507196       6.67706201       1.62288688      -0.21543773      -0.39981745       0.15205334
O       10.55214652       9.37042607       9.34208826      -0.21445477       0.03768141      -0.07469396
H       10.40614863       8.46650517       9.02046319      -0.34581517      -0.01525983      -0.12837589
H       11.07237804       9.67156477       8.56354511       0.06248208       0.02057500       0.04186497
O        4.00246407       4.46938591       5.52217918      -1.29507906      -0.46319745       1.24550869
H        3.74097255       3.52984048       5.48957545       0.24222672       0.06334205      -0.19925076
H        3.28600428       5.07282729       5.67551109       0.00315917       0.05559715      -0.03161374
O        4.59820910       3.47334973      10.41461827       0.73593291       0.20605635       0.52659326
H        4.62227130       4.41361587      10.68403674      -0.08640717      -0.16712320      -0.28043004
H        5.44957925       3.09072246      10.57819482      -0.06174919      -0.24874525       0.33297199
192
Lattice="13.288374288533397 0.0 0.0 -5.291723665339781e-07 13.288374288533397 0.0 -5.291723665339781e-07 -5.291723665339781e-07 13.288374288533397" Properties=species:S:1:pos:R:3:momenta:R:3 step=80 time_fs=8.0 phase=equilibration pbc="T T T"
O       10.23775022       0.36324093       9.49783374       1.49810673      -0.07567470       0.44150798
H       11.00794683       0.35043265      10.01930992       0.05669820       0.61617492       0.01221954
H        9.38313461       0.46870101       9.92448656       0.28944746       0.23179758      -0.08345582
O       11.33473509       2.58103601       2.51594510       0.53455297       0.09030647       0.81374152
H       10.69495521       3.18952267       2.09748550       0.04396022      -0.08738689       0.02870915
H       12.16545490       3.02568190       2.33162052       0.17595070       0.07149355       0.15884087
O        3.04739204       8.24242182      10.83750586       0.36044969      -0.20725922      -1.26706663
H        2.11588670       8.28217885      10.64156279       0.14287879       0.22371419      -0.25401360
H        3.55975437       9.02209284      10.65171573       0.22024503      -0.32138576      -0.25686416
O        8.87670627       6.23896111       7.61159806      -0.09152971       0.95826404       1.13298833
H        9.32505964       5.90344141       8.37787637       0.04295401       0.08550902      -0.13193489
H        7.94571744       6.01512327       7.49709167      -0.31212952      -0.03048139      -0.15565007
O        6.68584113      13.49734450      -0.01304887       0.94034131       1.06486247      -0.56125766
H        6.55430962      12.55176007      -0.10847225      -0.25966401      -0.20480417       0.24717310
H        7.18127948      13.85502329       0.71330286      -0.28176406       0.04825215      -0.03179675
O       12.52183247       6.83604339       9.60802599      -0.05370534      -0.81259708       0.38311661
H       11.76892460       7.22191036      10.06557914      -0.20592313      -0.12718045      -0.16261216
H       12.98791503       7.35637468       8.93205776       0.02147262      -0.25697450      -0.21419969
O        7.74287008       9.77938350       5.20630414       0.20786645       0.56132755      -0.41218881
H        7.52912703       8.87362115       5.42188378      -0.09568556      -0.11236801       0.29467408
H        7.99030230       9.80423329       4.25918002      -0.39884264      -0.08398908       0.07189762
O        0.61068494      12.80339552       3.26246813      -1.43567477       0.35235977      -0.24052372
H       -0.34264484      12.74813906       3.29496759      -0.23571492      -0.01663163      -0.14284514
H        0.94898266      12.84495933       2.34560565       0.28986157      -0.28558383       0.14421277
O        8.95643306       8.52075383       1.40858106       0.31875606      -0.81148255       0.03707223
H        8.91322129       8.65780004       0.48001862      -0.01575994      -0.17233997      -0.15444960
H        9.20188112       9.47170979       1.85292611       0.02160523       0.20786611      -0.21906079
O        3.61173870       7.79929454       3.73386547       0.55965166       0.52197027      -1.38361393
H        3.67238549       7.25501734       4.51231281       0.09277541       0.45236153       0.28603591
H        3.08561622       7.37144876       3.08192856       0.01451562      -0.20125403       0.38449169
O        9.79197887       6.65259312      10.71690192      -0.00546579       0.43328060       0.70278674
H       10.15985024       5.75560960      10.68212458      -0.26790623       0.08842067       0.23465972
H       10.13975612       7.34568941      11.27787227      -0.22776742       0.23072660      -0.19273972
O        2.81152022       1.80927704       6.19173183       0.59341338       0.71330082      -0.69693693
H        3.72095261       1.58343798       6.18056702      -0.01030539       0.45776549      -0.33289319
H        2.18792023       1.19111802       6.50780716      -0.11441323       0.18550872      -0.19290679
O       10.97187172       3.04455672       5.41087068       1.40095998       1.38052825       0.98843160
H       10.78098197       3.80967757       5.96645914       0.12993650      -0.43129176       0.28201464
H       11.67983180       2.97224882       4.82171221      -0.16426071      -0.12278175       0.05112787
O       11.57160860       3.86905467      11.23439695       0.30807059      -0.17768307       0.22730499
H       11.95416768       3.77860925      10.37869475      -0.13849126       0.27894916       0.16646306
H       11.72096669       3.04663579      11.71715130      -0.11306632       0.06600701       0.23771746
O       11.88583554      10.85173366       7.36322467      -0.40306496       0.96985849       0.05051739
H       11.78909685      10.17861457       6.68599239       0.12606633      -0.14093094       0.18095513
H       11.91703114      11.76316047       7.06165395      -0.13455765       0.00554414       0.06137139
O        3.81752718       7.69700884       0.33008324       0.31145980       0.06035061      -0.24888291
H        4.00399288       7.46718460      -0.60226587       0.08708587      -0.02129736      -0.16907287
H        4.62765350       7.55835582       0.86580334       0.09444872       0.06519674       0.05322735
O       11.62983188      12.54198247      12.85596187       1.51226973       0.37449028      -0.00020773
H       10.98414574      12.09505836      12.28163771       0.37033573      -0.10965923      -0.21932080
H       11.50501678      12.30126740      13.76289354       0.04117992       0.37159082      -0.11475094
O        3.18430483       9.94765001       1.56079136      -0.57289891      -0.51140275      -1.06291233
H        3.10615724       9.43483742       2.34666822       0.03996771       0.31204114       0.13779211
H        3.48761653       9.18711186       1.08083443       0.11301250       0.16314052       0.39352889
O        0.18636209       9.88462600      10.54544418       0.78604043       0.11450585      -0.94000057
H        0.70241181       9.69687973       9.73455901       0.06252536       0.14097791      -0.12140715
H       -0.47157904      10.55744272      10.51795046       0.14700667       0.11057486       0.27636868
O        1.55304941       2.07820154       3.62277960       0.24754999       0.41720733      -0.12111761
H        1.65840541       1.14320690       3.51493187      -0.27036332       0.02918098      -0.18132280
H        1.73739534       2.40471633       4.48951730      -0.07682456      -0.08282537       0.06349741
O        1.01930411       7.33808304      13.09384070      -0.67638958      -1.14233612      -0.40506481
H        0.72143661       6.63610815      12.50847040      -0.05416997       0.24230558      -0.18041163
H        1.96476640       7.38675044      13.28795494      -0.17272601      -0.21312420      -0.17854011
O        0.64549620      12.42080540       5.99479958       0.64829528      -0.02588455       0.39578017
H        0.91119840      12.30770599       5.07859929       0.10946637      -0.37069958       0.24462165
H        0.01451939      13.11376315       6.18892664      -0.36157860      -0.57916161      -0.33357167
O        1.66185113      11.65280258       8.25480044       1.15848243       1.01814557       0.18083519
H        1.44826428      11.82653217       7.34435679       0.12235254      -0.12552032       0.06804193
H        1.58944727      12.33917575       8.88576046       0.25109969      -0.22500332      -0.04772627
O        0.84940086      13.26852490       0.42353012      -0.53790021      -0.41719125      -0.30512306
H        1.55891165      12.71978269       0.04967085       0.12426927       0.04920087       0.29830531
H       -0.03130446      13.02265896       0.12441272      -0.05289174      -0.02542900      -0.02107180
O        6.70758418       0.93437431       5.91799133       0.01479335       0.19021478       1.40400981
H        7.10815177       0.05364522       5.83955269      -0.09708339      -0.09051834      -0.00451827
H        7.11557656       1.63759569       5.37630565      -0.21353554       0.18959655       0.00248213
O        0.81282643       7.68382094       4.68960735      -0.15532364      -0.60978273       0.56542680
H        2.90075113       8.46930099       4.19944259       0.02400118      -0.68575773      -0.26092941
H        0.98181758       6.84043126       5.12356628      -0.06171524       0.03627986       0.01729028
O        5.68817260       2.90673455      12.98806657      -0.53846718       0.64280474       1.39366135
H        5.67802431       2.06703590      13.44915971      -0.30850082      -0.12703101      -0.28778533
H        5.44429501       3.61386131      13.56931392      -0.31038328      -0.00194270      -0.04481823
O        5.69322677      12.43230222       8.56368940      -0.60144035       0.62540166      -1.30592860
H        5.97594780      12.44448560       7.63360760       0.33426114      -0.38320168       0.01564409
H        5.22869320      13.21987917       8.89111009      -0.17652126      -0.03127667      -0.15758647
O       11.36773955       8.92968672       5.06701137       0.22458543      -0.45831733       0.12567638
H       10.82038850       8.13104062       5.04607331       0.02375119       0.17037850       0.07838624
H       12.26040941       8.72208929       4.77265244      -0.28560766       0.52603477      -0.03359974
O        9.91593298       6.60080971       2.94956691      -0.44840097      -0.67939414       0.81844024
H        9.44597660       7.29589631       2.37105924      -0.20225634      -0.13979098       0.07216371
H       10.86880078       6.46782053       2.87103203       0.05023518       0.35098598       0.03824386
O        3.74492418      10.46845267       9.47838401       0.08749599      -1.42721315       0.92654717
H        4.43200032      11.12412646       9.29671558       0.35980735      -0.38213821       0.31640423
H        3.04326462      10.51405363       8.78862351       0.08660470      -0.36839515      -0.14246226
O        7.19071473       7.58023330      11.47041135       1.29444876      -0.11676493       0.77009686
H        7.03393682       8.52108878      11.63847264       0.02178804       0.20142509       0.10455674
H        8.03562318       7.30161994      11.06864658       0.01133583      -0.14028959       0.20393163
O        4.92072066      10.98719592      12.67906435      -0.13536558       1.21954072      -0.41968318
H        4.24381290      11.06927205      13.34317869       0.16864265       0.14585116       0.12225120
H        4.65672384      11.45919414      11.88645662       0.25728816      -0.01612863      -0.27919038
O        8.09474260       4.54664760      12.65375151      -0.04282413       0.13806652       0.46940452
H        7.13388068       4.44341826      12.75130173      -0.15515596      -0.29693988      -0.09911170
H        8.22174272       5.39274877      12.19141252       0.18826715       0.00078531      -0.15328965
O       11.36275710       8.38051575      11.77121134      -0.93342064      -1.04550494       0.25378189
H       12.16166301       8.51821729      12.28770433      -0.26001413      -0.02450251       0.35079662
H       11.18932149       8.98885238      11.09953652      -0.04800666       0.15914763       0.52021313
O        5.18789219       4.12457131       2.16371993      -0.01991396      -0.08307118      -0.22599190
H        5.66912591       3.70166716       2.89284542      -0.17396456       0.20369332       0.05275210
H        4.30394846       4.39037765       2.44907874      -0.09135312      -0.10132690      -0.09122593
O        1.83391687       1.07855569       8.88312497      -0.33946686      -0.32665468      -0.21523310
H        2.80095915       1.05058578       8.79932353       0.29295596      -0.14480110       0.22656184
H        1.71423579       1.59746441       9.69185572      -0.32814042      -0.31054509       0.08273630
O        4.59991782       6.20918663      10.32091078      -0.40372549      -1.88772128       0.93733035
H        3.92503615       6.90748330      10.13372784      -0.21482570      -0.10277017      -0.44575309
H        5.44722949       6.57203964      10.63623873       0.18543439       0.10411615      -0.24383787
O        9.00611207      12.53245137       5.57104749      -0.30587340      -1.10726216      -0.26144077
H        8.50632046      11.71645587       5.66316289      -0.01581181      -0.03404835      -0.09484842
H        9.97666626      12.44360549       5.60199525      -0.00746606       0.16445396       0.47707630
O        6.26432181       5.27112059       7.98098334      -1.30376254       0.76741698      -0.85560321
H        5.37457160       5.48972754       8.25468136       0.01119120       0.05897978       0.02244171
H        6.14223869       4.99487435       7.08323321       0.01735314      -0.11876301       0.00916480
O        9.83247788      10.55897561       3.21033149       0.80563964      -0.13677178       1.03073289
H       10.43107877      10.03178596       3.74097012       0.10708205      -0.06713586      -0.15419601
H       10.49365661      12.14392982       2.67323163       0.31628271       1.17185978       0.07954836
O        7.37905068      12.82555327      10.61495230      -0.77662449       0.59316721      -0.39695062
H        7.00620051      13.35391426      11.33213417      -0.01230040      -0.15585038      -0.03590752
H        6.97072200      12.69218468       9.72943336      -0.05010547       0.01069122      -0.12350501
O        0.96351809       5.48886688      11.00519397       0.14034834       0.71604002      -0.85291472
H        0.26399779       5.78588110      10.40307671       0.18696290      -0.48149775      -0.18794302
H        1.78281639       5.40405875      10.54251240      -0.09570112      -0.43020008      -0.11117321
O       10.79140718       5.87576387       5.61655455      -1.45550552       1.12868898       0.31015838
H       10.03946004       6.78326794       4.16937617       0.47806689      -0.80898393      -1.10613972
H        9.98440625       6.00274791       6.13366996      -0.25965617      -0.07192502      -0.19675518
O        1.28769135       4.97489068       5.60052987       0.65061624       0.92159138       0.78701197
H        1.20149189       4.20568628       5.08077579       0.10317287       0.05277705      -0.20364415
H        0.70250848       5.04124369       6.38065532       0.22719407       0.07712961      -0.24308931
O        5.91751267       6.93254144       1.74302062       0.70566667       0.41059882      -0.10902891
H        6.47849032       7.45086558       1.15035731      -0.09509538       0.01713118       0.00320658
H        6.18483289       6.00318732       1.78002551      -0.14652896      -0.07071788       0.18852809
O        9.24120748       4.18286016       1.78454810       0.89619133       1.08577114       0.39800295
H        8.56178048       4.35904044       1.11077658       0.09536425      -0.08991691       0.11987398
H        9.46108935       5.05954021       2.06203978       0.41160113      -0.04566736      -0.21027852
O        0.94870834       2.59183870       1.17277854      -0.05247873      -0.36158969       0.47755711
H        0.88559893       1.75303033       0.66880202       0.13059253      -0.14459503      -0.43089523
H        1.54249627       2.34588915       1.90017876       0.00480078       0.18471633      -0.28288959
O       12.90498592       4.77399062       7.66477308       0.46015480       0.19088786      -0.66360233
H       13.00843793       5.37583356       8.40350026       0.16089950      -0.06148718       0.03158049
H       12.18963713       5.03252051       7.06403560       0.02030314      -0.15992407       0.10405519
O        7.57005243      10.03494947      12.78617591      -0.95570805      -0.37323957       0.17721965
H        6.62725005      10.18069067      12.81471672       0.13265185      -0.03145103       0.17417799
H        8.06948405      10.56836369      12.17535432      -0.04358461      -0.28130526      -0.03189372
O       10.92454646      -0.00816940       2.78903410       0.14771043      -0.35265794      -0.46346099
H       11.16643197       0.59573416       2.06284710      -0.20223529      -0.11577541       0.56606797
H       10.01462905       0.14901416       3.14710213      -0.15270058      -0.45853498       0.01878086
O        1.61333852       2.38109859      11.24855075      -0.03866236       0.12128884      -0.34835257
H        1.93114421       2.12569320      12.10500564       0.06655148      -0.26166171      -0.18194018
H        1.61393929       3.27381326      10.96616376       0.38030961      -0.32999691      -0.30832221
O        4.73701839       1.84175758       8.19279032      -1.03254785       0.23663978      -1.14845147
H        4.42765358       2.40218903       8.94163503      -0.17013923      -0.20546531      -0.12180751
H        5.65884220       2.15458117       8.08841554      -0.06601518       0.03811421       0.02522826
O        9.48994188      11.50567676      11.42525510      -0.45935669       0.18275046      -0.32236321
H        8.89583727      12.15321434      10.96563285       0.16220057       0.24097691       0.01959834
H        9.81496927      11.12702928      10.62636104       0.03490859      -0.06067147      -0.15558762
O        1.70198278      10.82004333      12.68249384       0.68635998       0.09446692       0.35821381
H        1.81437471      10.22327044      13.39489548       0.27643034       0.09753298       0.10038666
H        1.03590692      10.48444573      12.03909181       0.25063776       0.39460880       0.30785566
O        8.53306657       0.39370664       3.16389883      -0.84204181      -0.22960123       0.06206780
H        7.94524927       1.14907652       3.04387635      -0.01691745      -0.01191906      -0.15864875
H        8.53027168       0.25198770       4.13774636      -0.12124174       0.05176576      -0.21300772
O        8.23663034       3.07388927       4.10502812       0.47428161      -0.81104018      -1.16352628
H        8.44508996       3.76463930       3.43852601      -0.54373726      -0.20416377       0.17201422
H        9.06479977       3.08503101       4.58626349      -0.16542047       0.45112440       0.15599459
O        2.44591402       4.95438563       1.90411134      -1.15198483      -0.37486080       0.18605300
H        2.04356156       4.13792457       1.59435728      -0.00000185       0.13091196       0.14718377
H        2.75456639       5.40780158       1.13326454       0.19305124      -0.05047291      -0.14684864
O        0.66761457       8.74378421       8.04590261      -0.80088267      -0.26421781      -0.28622584
H        1.34704294       8.34227264       7.47379330      -0.18450896       0.16454053       0.25984709
H        0.14758181       9.38665758       7.50282185      -0.45657610       0.04078129      -0.15709546
O       11.88275308       0.73574401       6.79533503       0.20032548       0.86055789      -0.03843701
H       11.26115135       1.05930107       7.44867649      -0.05577025      -0.20767947       0.07808131
H       11.84839934       1.26993706       6.00691835      -0.15467351       0.07700479       0.03510887
O       12.54187435       7.12767841       2.33232092       0.67201254      -1.02000777      -0.25513041
H       13.20242309       7.07185301       3.08047735      -0.07351960      -0.08841773       0.11238757
H       13.00045073       6.63946122       1.63825019      -0.28103006      -0.37514600       0.15584125
O       10.55096242       9.37032271       9.34109616      -0.14634304      -0.05175196      -0.22222463
H       10.36973660       8.46992415       9.00979517      -0.39782862       0.09121768      -0.08784942
H       11.07519761       9.67552724       8.57155307      -0.00146369       0.06249632       0.12187374
O        3.99459324       4.46631365       5.52962945      -1.24384094      -0.50365752       1.19549214
H        3.76481310       3.54068389       5.47160415       0.23881167       0.13408776      -0.16924308
H        3.28392440       5.07763308       5.67266797      -0.05084655       0.04711946      -0.02475333
O        4.60269776       3.47473591      10.41781002       0.74243782       0.22103813       0.53298764
H        4.61375084       4.39558475      10.65453127      -0.08628660      -0.17467016      -0.31495539
H        5.44332761       3.06545844      10.61329061      -0.07162194      -0.26420905       0.38717045
192
Lattice="13.288246137286286 0.0 0.0 -5.291672632687302e-07 13.288246137286286 0.0 -5.291672632687302e-07 -5.291672632687302e-07 13.288246137286286" Properties=species:S:1:pos:R:3:momenta:R:3 step=90 time_fs=9.0 phase=equilibration pbc="T T T"
O       10.24655235       0.36258180       9.49991047       1.42722223      -0.14318944       0.26367922
H       11.01964670       0.41302092      10.02775650       0.17974127       0.67066907       0.15590296
H        9.41079520       0.49321521       9.91699743       0.25943796       0.27388703      -0.05954160
O       11.33784955       2.58169282       2.52079524       0.53116458       0.13496825       0.77428060
H       10.70016270       3.17861876       2.10131311       0.06159624      -0.13222208       0.04837264
H       12.18399113       3.03184839       2.34784324       0.19366594       0.04902000       0.17680901
O        3.04960302       8.24078909      10.82981308       0.36977122      -0.30683168      -1.20212478
H        2.12939382       8.30559352      10.61596106       0.12811035       0.25828685      -0.27005322
H        3.58149324       8.99510590      10.62424346       0.23223924      -0.22325224      -0.30660553
O        8.87591185       6.24487611       7.61824955      -0.17685637       0.98631265       1.04108591
H        9.32815758       5.91064729       8.36664453       0.02908736       0.05814580      -0.08505267
H        7.91839765       6.01220803       7.48309378      -0.21653126      -0.02102253      -0.12526649
O        6.69132121      13.50349146      -0.01703762       0.85803396       0.95843875      -0.74675004
H        6.52931882      12.53675596      -0.08021189      -0.24879548      -0.08320025       0.33282965
H        7.15692209      13.85866771       0.71518899      -0.21182512       0.03355265       0.07926168
O       12.52148384       6.83116990       9.61010165      -0.01874419      -0.75434370       0.32303721
H       11.75207974       7.20860746      10.04765460      -0.13714357      -0.14424974      -0.20320387
H       12.98646952       7.32948892       8.91527390      -0.04904409      -0.29221207      -0.12700510
O        7.74418872       9.78277921       5.20313155       0.23019714       0.54556063      -0.56441386
H        7.51896290       8.86334145       5.45265708      -0.10478101      -0.06904410       0.33024874
H        7.94920719       9.79607443       4.27383351      -0.43376014      -0.08011009       0.19704389
O        0.60177474      12.80553916       3.26079035      -1.47460454       0.38545380      -0.29089571
H       -0.36337358      12.74610927       3.27990303      -0.18071736      -0.02114176      -0.16710485
H        0.97616244      12.81464292       2.36385936       0.26779372      -0.33309639       0.22689019
O        8.95836112       8.51650134       1.40939873       0.33658580      -0.54278014       0.20104547
H        8.91187583       8.64246868       0.45943184      -0.00929543      -0.14465651      -0.23703517
H        9.20097011       9.47974429       1.82513802      -0.03833754      -0.04065787      -0.34876284
O        3.61575084       7.80134263       3.72449018       0.78010257       0.16363747      -1.62642798
H        3.68447989       7.29750088       4.54465454       0.15632425       0.43391677       0.36157956
H        3.09136144       7.35084487       3.11358812       0.09217235      -0.23346872       0.24279694
O        9.79171423       6.65525312      10.72111073      -0.06506438       0.46978519       0.69423315
H       10.13358675       5.76617267      10.70757575      -0.25869077       0.10761910       0.28943852
H       10.11713098       7.36237308      11.25852516      -0.22941303       0.11957342      -0.19468343
O        2.81488726       1.81412500       6.18716129       0.50464642       0.87163733      -0.77164407
H        3.72891641       1.62491114       6.14832443       0.17352210       0.39074702      -0.32691207
H        2.17161810       1.20466787       6.49160492      -0.21199756       0.09537625      -0.14039697
O       10.97977684       3.05273769       5.41720644       1.21003761       1.26458037       1.07541355
H       10.79540823       3.76944275       5.99310750       0.16238981      -0.36482561       0.28648680
H       11.67109896       2.96166293       4.81989540      -0.00855295      -0.09356187      -0.09062487
O       11.57325675       3.86785072      11.23610434       0.25264814      -0.19944729       0.39121727
H       11.94340481       3.80601119      10.38827685      -0.06851820       0.28018222       0.00865986
H       11.70873440       3.05448225      11.74018282      -0.13435114       0.09660701       0.23406292
O       11.88319661      10.85735797       7.36342012      -0.41905231       0.89131391       0.04054357
H       11.80145400      10.16733968       6.70361962       0.12906687      -0.08876796       0.17996363
H       11.90374540      11.76371001       7.06714803      -0.13555602       0.01332097       0.05077104
O        3.81977817       7.69704517       0.32834300       0.43634319      -0.02473606      -0.32303334
H        4.01138383       7.46771594      -0.61167764       0.06345731       0.03524854      -0.01581023
H        4.63100555       7.56501297       0.86615425      -0.02671495       0.07248569      -0.04752697
O       11.63899206      12.54416636      12.85557960       1.51135885       0.38060785      -0.10020720
H       11.02204467      12.08495135      12.26083135       0.40826449      -0.09622573      -0.20516401
H       11.50733925      12.33603492      13.75617916       0.00546633       0.34065442      -0.00516841
O        3.18061767       9.94488635       1.55392638      -0.63265454      -0.32919636      -1.14605201
H        3.10865159       9.46358514       2.36586829       0.01241539       0.28231138       0.25238579
H        3.50076012       9.19864424       1.11686772       0.17082905       0.04239348       0.32747320
O        0.19181701       9.88490358      10.53914902       0.98015899       0.01532617      -1.06902372
H        0.70194309       9.71470883       9.73066292      -0.06651774       0.22365364       0.03459627
H       -0.46027676      10.57175286      10.54429387       0.09147215       0.17902491       0.26661777
O        1.55447538       2.08092767       3.62177548       0.22395143       0.47540591      -0.19031043
H        1.63232776       1.14165916       3.49777304      -0.26548100      -0.05483499      -0.16875845
H        1.73098040       2.39699445       4.50028061      -0.05578709      -0.07928066       0.15103105
O        1.01514626       7.33117882      13.09139520      -0.68653875      -1.07232675      -0.34357060
H        0.71785503       6.65705614      12.48926901      -0.02593525       0.17589078      -0.22236544
H        1.94610642       7.36452348      13.26905597      -0.19039631      -0.23922567      -0.20264966
O        0.64942672      12.42058527       5.99716157       0.64898331      -0.02428329       0.40171136
H        0.92194501      12.27082323       5.10184743       0.11624107      -0.38655972       0.21739326
H       -0.02105931      13.05676526       6.15604328      -0.38714869      -0.56744398      -0.33313571
O        1.66909528      11.65836135       8.25583361       1.21095746       0.81141122       0.17732482
H        1.45998778      11.81480561       7.34823271       0.11603249      -0.11025752       0.00362747
H        1.61303058      12.32540734       8.88544244       0.23133430      -0.03967801       0.05668034
O        0.84616418      13.26564788       0.42151880      -0.51605292      -0.47182629      -0.34437610
H        1.56747009      12.72475143       0.07989132       0.05598934       0.05053438       0.31813229
H       -0.03324206      13.02044785       0.12269142       0.01203995      -0.01851977      -0.01497476
O        6.70773773       0.93554000       5.92639533       0.05668496       0.19395765       1.35097439
H        7.09727922       0.05035748       5.83883792      -0.12479443       0.02469717      -0.00940686
H        7.09310438       1.65166360       5.38038588      -0.24668365       0.09638834       0.08363877
O        0.81178983       7.67988619       4.69307151      -0.18193467      -0.63474207       0.57019824
H        2.88662064       8.42085104       4.18695207      -0.32354432      -0.30043657       0.01252834
H        0.97655156       6.84277426       5.12610790      -0.04358613      -0.00001810       0.04287871
O        5.68494664       2.91069741      12.99625081      -0.49453086       0.65785867       1.31422589
H        5.64803360       2.05215663      13.42139928      -0.30638651      -0.17471901      -0.27912524
H        5.41227719       3.61636583      13.56793609      -0.34501954       0.05056754       0.01853416
O        5.68927460      12.43627127       8.55563396      -0.66419465       0.69542404      -1.28805517
H        6.00687684      12.40674629       7.63927385       0.30093541      -0.38617785       0.09822281
H        5.21435402      13.21325598       8.87086634      -0.11990143      -0.09475405      -0.25429201
O       11.36875263       8.92676476       5.06766136       0.11270129      -0.43383482       0.11725420
H       10.82492163       8.15083493       5.05574858       0.05493644       0.21178720       0.11856423
H       12.23486217       8.77383423       4.76879370      -0.19290406       0.52850289      -0.05980413
O        9.91308563       6.59681236       2.95346133      -0.46084345      -0.61801642       0.39700179
H        9.43298069       7.27273881       2.38527302      -0.06750813      -0.32366325       0.21062505
H       10.86836126       6.50400620       2.87229802      -0.04056083       0.38880933      -0.02847715
O        3.74511536      10.45966308       9.48351435      -0.01059034      -1.40557425       0.77654944
H        4.46618929      11.08560702       9.32808733       0.33930342      -0.40601399       0.32712699
H        3.05780525      10.47850561       8.78139064       0.21270963      -0.35583023      -0.00458011
O        7.19861516       7.57962593      11.47505286       1.29005026      -0.04006732       0.78508157
H        7.03871849       8.53546809      11.64757894       0.08059207       0.08097096       0.08219216
H        8.03345452       7.29026588      11.08968595      -0.04551774      -0.09366781       0.22555323
O        4.91993141      10.99468661      12.67616260      -0.10649265       1.25707120      -0.49081587
H        4.25898505      11.08359697      13.35635191       0.14471763       0.15219712       0.14510321
H        4.68158115      11.45532902      11.86019182       0.25299447      -0.06512553      -0.24706798
O        8.09401427       4.54775076      12.65651404      -0.17788697       0.23809814       0.46838310
H        7.12422563       4.41257226      12.74074310      -0.02830710      -0.33042540      -0.11713101
H        8.24019270       5.38844459      12.17806968       0.18747879      -0.09549939      -0.11330357
O       11.35729968       8.37327681      11.77355208      -0.80909412      -1.28991426       0.54481182
H       12.13253651       8.51477119      12.32033416      -0.33218833      -0.04544392       0.32279526
H       11.18226807       9.01815433      11.13947459      -0.09688167       0.44844074       0.29997910
O        5.18761294       4.12404348       2.16233216      -0.06065736      -0.07022888      -0.22976213
H        5.65040648       3.72317738       2.89812008      -0.20046710       0.23153322       0.06662946
H        4.29720735       4.37905224       2.44004818      -0.04897170      -0.12906889      -0.09431779
O        1.83237646       1.07643327       8.88164237      -0.13794374      -0.36354663      -0.24125301
H        2.82264832       1.03703583       8.82172488       0.13312131      -0.13092912       0.23664985
H        1.67997191       1.56661261       9.69928306      -0.37344103      -0.32234978       0.07174948
O        4.59743068       6.19800605      10.32659928      -0.39148103      -1.72309679       0.94549954
H        3.91181008       6.89120687      10.09199089      -0.04778318      -0.23659616      -0.40369686
H        5.45868079       6.58019832      10.61057621       0.04193081       0.06068923      -0.28270358
O        9.00446650      12.52547968       5.56937409      -0.20441205      -1.11638807      -0.26655308
H        8.50741100      11.71349686       5.65330757       0.03674904      -0.03008876      -0.10528327
H        9.96873401      12.45916153       5.65100166      -0.14791968       0.15590507       0.52803121
O        6.25635183       5.27580444       7.97574083      -1.27039891       0.77252130      -0.83329741
H        5.37379908       5.49707599       8.25944181      -0.02846747       0.09343987       0.07688414
H        6.14389462       4.98145440       7.07854427       0.01785060      -0.15397507      -0.09786612
O        9.83741292      10.55820869       3.21662740       0.82741734      -0.07701951       1.02649534
H       10.44254736      10.02371490       3.72660428       0.13441069      -0.10084733      -0.13493662
H       10.52112117      12.23869382       2.67787559       0.23178205       0.74239085       0.01407365
O        7.37416012      12.82912540      10.61212236      -0.78775967       0.60202444      -0.50213972
H        7.00377551      13.33731057      11.32645207      -0.04055516      -0.17455054      -0.06873464
H        6.96648554      12.69445121       9.72485953      -0.03513565       0.03879529       0.03201179
O        0.96411684       5.49330899      11.00003914       0.07371879       0.74320319      -0.78293990
H        0.28342227       5.73832779      10.38531237       0.19468278      -0.48591565      -0.18643396
H        1.77778083       5.36129330      10.52979123      -0.00760191      -0.44713347      -0.14537064
O       10.78203161       5.88274913       5.61843929      -1.56086443       1.16428997       0.31921818
H       10.08700027       6.70251451       4.07332834       0.50080978      -0.83343034      -0.77392535
H        9.96136069       5.99539369       6.11400271      -0.21304253      -0.07780612      -0.20339936
O        1.29182348       4.98092158       5.60538098       0.71826662       1.04708809       0.77698723
H        1.20997745       4.20738427       5.05947781       0.07211471      -0.00672475      -0.22470980
H        0.72506228       5.04739524       6.35607027       0.21421116       0.05131807      -0.23293342
O        5.92197727       6.93486583       1.74225582       0.75842225       0.36178522      -0.12599425
H        6.46864991       7.45102185       1.15284729      -0.09779679      -0.00732744       0.04052230
H        6.16902659       5.99989704       1.79863786      -0.17560722       0.00547201       0.19253116
O        9.24645123       4.18937715       1.78686143       0.84751920       1.04335133       0.36832899
H        8.57098955       4.34813028       1.12112427       0.08776170      -0.13109542       0.08537358
H        9.50391275       5.05941366       2.04493380       0.47019345       0.04782518      -0.13970035
O        0.94844801       2.58910693       1.17563721      -0.05269478      -0.52737637       0.41696120
H        0.89796558       1.74691140       0.62947944       0.12429897       0.03623094      -0.36236033
H        1.54087288       2.36513139       1.87140572      -0.01541634       0.20026862      -0.27832667
O       12.90753156       4.77511488       7.66038051       0.42485770       0.18547471      -0.73281048
H       13.02379512       5.36909522       8.40625879       0.15670767      -0.07603653       0.02624699
H       12.19378465       5.01552819       7.07827133       0.05331686      -0.18227405       0.17704744
O        7.56420384      10.03225723      12.78730143      -0.91553129      -0.47979709       0.23431929
H        6.63634159      10.17888761      12.83173551       0.04025738      -0.00096017       0.17829969
H        8.06737658      10.54253109      12.16961387       0.00734300      -0.24138089      -0.08959800
O       10.92541024      -0.00949228       2.78640416       0.17131507      -0.07890312      -0.33578802
H       11.14385456       0.58494147       2.11888944      -0.24270164      -0.06473502       0.53832717
H       10.00984876       0.10792771       3.14541722       0.05566580      -0.39151621      -0.05294000
O        1.61293272       2.38146103      11.24612837      -0.09185629      -0.01436542      -0.40236590
H        1.93984560       2.10004202      12.09025182       0.11364619      -0.26395746      -0.11706550
H        1.65202547       3.24775894      10.93528543       0.40352014      -0.18588915      -0.32826379
O        4.73111952       1.84359946       8.18597572      -0.88662865       0.35180215      -1.05883137
H        4.41299479       2.37831372       8.92555964      -0.13675026      -0.27185406      -0.19008956
H        5.64302579       2.15540879       8.08997724      -0.23830013      -0.01446492       0.00628435
O        9.48668415      11.50699488      11.42288385      -0.56193194       0.27305735      -0.42902418
H        8.91576938      12.17230653      10.97265325       0.24486357       0.15601914       0.12476379
H        9.82105296      11.11732027      10.60926823       0.08478990      -0.12816218      -0.17615756
O        1.70608592      10.82073580      12.68438338       0.69039936       0.18186489       0.33051523
H        1.84213006      10.22969658      13.40885853       0.29283649       0.03634327       0.18798211
H        1.06128982      10.52293471      12.06926846       0.23629523       0.37958745       0.28087424
O        8.52742335       0.39242936       3.16470974      -0.96605585      -0.18407637       0.18341449
H        7.94535500       1.14698564       3.02717143       0.01713594      -0.02638576      -0.18504817
H        8.51781968       0.25664193       4.11076795      -0.13101705       0.03842748      -0.30915863
O        8.23964566       3.06886126       4.09773564       0.51975032      -0.84575484      -1.17432908
H        8.39062681       3.74438600       3.45466964      -0.56398189      -0.18207546       0.13137998
H        9.04833926       3.12881448       4.60388284      -0.16377807       0.44778206       0.20957023
O        2.43899724       4.95223769       1.90539163      -1.08012316      -0.28740341       0.22475935
H        2.04118450       4.14723077       1.60788652      -0.05415974       0.04938534       0.12596567
H        2.77275705       5.40429320       1.11755045       0.17306514      -0.03078987      -0.15837045
O        0.66248236       8.74250519       8.04357644      -0.90446705      -0.10139746      -0.43052269
H        1.32654418       8.36023661       7.49945501      -0.20993758       0.19028815       0.24641120
H        0.10985895       9.38317432       7.49395155      -0.30851293      -0.11912755      -0.01553788
O       11.88385456       0.74099980       6.79502867       0.19526034       0.85447455      -0.03945961
H       11.25595531       1.03881704       7.45626000      -0.04785838      -0.21303389       0.07745227
H       11.83189544       1.27896018       6.00991491      -0.18194421       0.10863592       0.02789831
O       12.54637609       7.12127545       2.33114909       0.82367210      -1.03704279      -0.11412597
H       13.18778536       7.06394748       3.08641202      -0.21964769      -0.07214479       0.01413805
H       12.97139712       6.60276949       1.65154737      -0.30651751      -0.38237749       0.10908664
O       10.55011446       9.36960749       9.33927148      -0.10201931      -0.15029217      -0.33238416
H       10.32869194       8.48415107       9.00310481      -0.44178401       0.19844554      -0.04963518
H       11.07255439       9.68382794       8.58619249      -0.04498445       0.11208334       0.17252781
O        3.98726576       4.46339761       5.53677009      -1.12358874      -0.41189716       1.14980138
H        3.78594072       3.55109477       5.45626239       0.18972672       0.06016808      -0.14601926
H        3.27527970       5.08234237       5.67072961      -0.12673737       0.05030488      -0.01371700
O        4.60729806       3.47561856      10.42090824       0.77517670       0.05095364       0.50539182
H        4.60557105       4.38445297      10.62382446      -0.07985315      -0.03256511      -0.30816296
H        5.43442438       3.04016307      10.65308153      -0.11552213      -0.24898523       0.42948009
