192
Lattice="13.288136332919084 0.0 0.0 -5.291628906166973e-07 13.288136332919084 0.0 -5.291628906166973e-07 -5.291628906166973e-07 13.288136332919084" Properties=species:S:1:pos:R:3:momenta:R:3 step=100 time_fs=10.0 phase=production pbc="T T T"
O       10.25550246       0.36145739       9.50107631       1.55352328      -0.21848604       0.16896972
H       11.03853315       0.48108026      10.04594692       0.17559965       0.72229058       0.19212275
H        9.43107885       0.52229318       9.91359911       0.15391522       0.32251639      -0.00804839
O       11.34123323       2.58265512       2.52542660       0.61475291       0.18330907       0.74419808
H       10.70585191       3.16464167       2.10631933       0.05112890      -0.14803500       0.05096252
H       12.20078688       3.03412010       2.36632255       0.14434887      -0.00573712       0.20358566
O        3.05191371       8.23849462      10.82255741       0.39658894      -0.41218045      -1.13433848
H        2.14000835       8.33232258      10.58869025       0.08882507       0.29133336      -0.28743922
H        3.60508583       8.97843221      10.59177660       0.24800326      -0.12472969      -0.35583022
O        8.87405228       6.25095046       7.62408304      -0.41799944       1.00870805       0.87266531
H        9.33165941       5.91381668       8.36301562       0.04707748       0.00565164       0.01649783
H        7.90737405       6.01189011       7.47327484       0.00189657       0.01813939      -0.07255460
O        6.69621998      13.50870059      -0.02223342       0.75775523       0.76904052      -0.93944261
H        6.50618797      12.53769347      -0.04387487      -0.22316788       0.11117084       0.41033407
H        7.14002161      13.86168727       0.72923520      -0.13721202       0.03000705       0.20502546
O       12.52139277       6.82660427       9.61184629       0.02350700      -0.72230542       0.27566912
H       11.74161592       7.19395181      10.02602879      -0.07977140      -0.15271096      -0.23658785
H       12.97852076       7.30008385       8.90670074      -0.10749426      -0.30344787      -0.05352640
O        7.74536353       9.78560836       5.19988838       0.15923816       0.38540997      -0.42445435
H        7.50968064       8.86441943       5.48476877      -0.08003546       0.10878403       0.32364093
H        7.90759304       9.78861781       4.28921172      -0.40918188      -0.07130240       0.07132692
O        0.59248069      12.80789749       3.25891630      -1.55589046       0.41750406      -0.30295724
H       -0.37672048      12.74391125       3.26219159      -0.09066754      -0.02179698      -0.19611679
H        1.00135669      12.77997460       2.38860077       0.25176361      -0.37569103       0.27350164
O        8.96040923       8.51401506       1.41062879       0.35627233      -0.23548335       0.17668597
H        8.91138116       8.62848868       0.43987785       0.00094348      -0.14598638      -0.13808887
H        9.19415608       9.46318621       1.78532474      -0.10117642      -0.30289823      -0.46605927
O        3.62145443       7.80117520       3.71426757       1.09519864      -0.19033027      -1.65872246
H        3.70217833       7.34206839       4.57805444       0.20235845       0.49351565       0.29727802
H        3.10154573       7.32389719       3.12673457       0.11122391      -0.32248711       0.02684595
O        9.79083103       6.65838588      10.72512322      -0.20818104       0.57323476       0.63138352
H       10.11103444       5.77247200      10.73834868      -0.19572535       0.00660869       0.34440243
H       10.09596431       7.37066623      11.24138706      -0.19717837       0.06370626      -0.14560050
O        2.81768760       1.81985740       6.18217811       0.42437449       0.98914618      -0.83182712
H        3.75161929       1.65946100       6.11707103       0.26670928       0.31950351      -0.31070835
H        2.14919397       1.21106857       6.47945987      -0.23124574       0.04573252      -0.11345116
O       10.98667123       3.05970877       5.42367380       1.08128276       0.99755639       1.02156172
H       10.81157285       3.74311657       6.02567095       0.16986952      -0.16184817       0.39311786
H       11.67652200       2.95436271       4.80533996       0.10686951      -0.05204639      -0.19290264
O       11.57445499       3.86656357      11.23907785       0.17358235      -0.20647532       0.59185050
H       11.94107375       3.83265154      10.37963391       0.01577182       0.26531217      -0.16525396
H       11.69490574       3.06545475      11.76192468      -0.14519625       0.12796367       0.21120538
O       11.88048131      10.86244695       7.36364874      -0.43309493       0.79483253       0.05884500
H       11.81383946      10.16086152       6.72036207       0.12593683      -0.04469098       0.16112872
H       11.89042868      11.76639144       7.07112224      -0.13561237       0.04679977       0.03087071
O        3.82276201       7.69659131       0.32609604       0.53418173      -0.09838168      -0.40503977
H        4.01621584       7.47377252      -0.60557068       0.03751458       0.08737796       0.13040618
H        4.62314867       7.57208441       0.85708064      -0.12323478       0.07158458      -0.13080518
O       11.64821408      12.54646329      12.85442536       1.52602811       0.40221731      -0.23614344
H       11.06312877      12.07584862      12.24145648       0.43422914      -0.09011296      -0.19022147
H       11.50546788      12.36713676      13.76270308      -0.04262134       0.30038865       0.13569716
O        3.17635552       9.94358729       1.54694885      -0.74955109      -0.07501474      -1.10741319
H        3.10867501       9.49086105       2.39404694      -0.01079005       0.28769024       0.31455772
H        3.52265313       9.19122710       1.14242215       0.28098670      -0.19449141       0.19541813
O        0.19813460       9.88481156      10.53233123       1.05014471      -0.00067126      -1.09967019
H        0.69161179       9.73924703       9.73764763      -0.12931438       0.27484337       0.08474105
H       -0.45174067      10.59010977      10.56971975       0.09576620       0.18657331       0.25663626
O        1.55580768       2.08392675       3.62046571       0.21747384       0.49804032      -0.21747518
H        1.60642648       1.13468625       3.48244012      -0.26676300      -0.07340148      -0.14230089
H        1.72610645       2.38819351       4.51671997      -0.04634622      -0.10668189       0.17371882
O        1.01069977       7.32485347      13.08942095      -0.77211512      -0.96992881      -0.26708721
H        0.71543752       6.66885942      12.46360426      -0.02546093       0.06767522      -0.30264172
H        1.93120866       7.34042194      13.24898999      -0.09955162      -0.25230843      -0.20353531
O        0.65357771      12.42016849       5.99971567       0.70847165      -0.07904961       0.45056922
H        0.93458008      12.23164929       5.11863273       0.14496484      -0.41698151       0.12280815
H       -0.06343287      13.00535363       6.12469933      -0.48669365      -0.48258846      -0.30805970
O        1.67670675      11.66249432       8.25683543       1.27158358       0.57346877       0.17627358
H        1.47070993      11.80513418       7.34448811       0.10525965      -0.08552199      -0.07438180
H        1.63437888      12.33192207       8.89708095       0.20743966       0.16745635       0.17434156
O        0.84303043      13.26259980       0.41936211      -0.50316079      -0.47496410      -0.35071346
H        1.57102205      12.72826437       0.11084311       0.02503263       0.01716574       0.31277970
H       -0.02978246      13.01847688       0.12118784       0.05210028      -0.02208203      -0.01814678
O        6.70809866       0.93677246       5.93451367       0.06881086       0.21371620       1.31749082
H        7.08421127       0.05750273       5.83740963      -0.13700910       0.11075848      -0.02069355
H        7.06783140       1.65679437       5.39198226      -0.26586319       0.01677296       0.14857547
O        0.81056537       7.67597428       4.69647702      -0.21420370      -0.62014950       0.55260167
H        2.83689405       8.40984349       4.20173904      -0.69367518       0.06271583       0.28355976
H        0.97354734       6.83895625       5.13255342      -0.01844628      -0.07568369       0.08968846
O        5.68197334       2.91477553      13.00404813      -0.46266154       0.68008957       1.27066509
H        5.61816312       2.03434888      13.39421504      -0.30562405      -0.18018646      -0.27913106
H        5.37744101       3.62205277      13.57184652      -0.36495745       0.05510208       0.05707830
O        5.68503760      12.44044606       8.54776235      -0.69367209       0.68162173      -1.24962187
H        6.03453298      12.36940931       7.65144138       0.26873717      -0.37651729       0.14534190
H        5.20412219      13.20330681       8.84209306      -0.09723195      -0.09309601      -0.32988267
O       11.36869845       8.92454165       5.06850323      -0.10357336      -0.24632952       0.17632487
H       10.82780133       8.16742814       5.06874456      -0.00592556       0.11087852       0.14800629
H       12.22905445       8.82377617       4.75856364       0.09138332       0.49548062      -0.15566180
O        9.91002743       6.59289851       2.95416957      -0.50848599      -0.65816191      -0.15383731
H        9.43091161       7.23597707       2.40949430       0.01308400      -0.40667633       0.26966011
H       10.86257380       6.54337400       2.86397838      -0.07082787       0.42140906      -0.14301255
O        3.74482342      10.45097120       9.48785265      -0.06136782      -1.40083482       0.67730725
H        4.49762714      11.04501405       9.35989390       0.30555217      -0.42333358       0.32507776
H        3.08351266      10.44508353       8.78625813       0.30333095      -0.32583287       0.09245372
O        7.20626699       7.57973105      11.47993055       1.20827981       0.09816191       0.84111371
H        7.04976924       8.53550845      11.65407901       0.14711898      -0.07712558       0.05343332
H        8.02887711       7.28252655      11.11129425      -0.03330882      -0.06864871       0.21326767
O        4.91932302      11.00244152      12.67279406      -0.07792107       1.29761576      -0.57001256
H        4.27229866      11.09901865      13.37002472       0.13121973       0.16726533       0.13160416
H        4.70563629      11.44586541      11.83950940       0.23901499      -0.12723944      -0.17163452
O        8.09238479       4.54946780      12.65927890      -0.32707169       0.32752804       0.46898273
H        7.12924058       4.37966350      12.72806862       0.12947891      -0.34187183      -0.14069415
H        8.25755732       5.37367716      12.16942703       0.16903157      -0.20294653      -0.06381078
O       11.35247103       8.36484476      11.77729283      -0.75305991      -1.38692955       0.65365709
H       12.09789681       8.50926592      12.35110174      -0.36910881      -0.06496331       0.31548892
H       11.17142176       9.07093975      11.16320839      -0.11173698       0.58735634       0.23513505
O        5.18701109       4.12369113       2.16073365      -0.12258780      -0.03033050      -0.29391249
H        5.63156149       3.74547709       2.90773362      -0.17829833       0.22157552       0.13947875
H        4.29340981       4.36547886       2.43058117      -0.03408897      -0.14674140      -0.09981037
O        1.83229676       1.07405144       8.88000228       0.11703829      -0.41055499      -0.26814955
H        2.82493105       1.02535820       8.84540133      -0.08713569      -0.10763231       0.25044837
H        1.64167357       1.53462620       9.70566982      -0.41111874      -0.33363812       0.06083136
O        4.59502476       6.18796004      10.33229663      -0.38133657      -1.53721470       0.93499647
H        3.91603500       6.86110176      10.05549993       0.13158371      -0.37552297      -0.34238436
H        5.45489070       6.58348671      10.58104673      -0.11451904       0.00929915      -0.31893021
O        9.00337057      12.51862834       5.56766203      -0.13704229      -1.07294915      -0.27792286
H        8.51255008      11.70907752       5.64275981       0.06569840      -0.06567664      -0.10904672
H        9.94951228      12.47353734       5.70458263      -0.23189912       0.14038513       0.57217179
O        6.24857586       5.28046520       7.97045975      -1.25276930       0.75525078      -0.88145964
H        5.36938236       5.50768276       8.26913507      -0.05471823       0.12313777       0.11958327
H        6.14567700       4.96564710       7.06673694       0.02011135      -0.16295545      -0.12381987
O        9.84244583      10.55783905       3.22287357       0.84179944      -0.01843048       1.02017963
H       10.45714196      10.01177574       3.71489517       0.16293458      -0.13943056      -0.10699701
H       10.53679319      12.28501856       2.67566266       0.08711520       0.18993461      -0.06292674
O        7.36934160      12.83262142      10.60852997      -0.75218871       0.56524024      -0.63896926
H        6.99730067      13.32112880      11.32044618      -0.09530132      -0.14844366      -0.04331731
H        6.96337931      12.69945074       9.73457436      -0.03164620       0.06473335       0.15886738
O        0.96465164       5.49783314      10.99542840       0.12534325       0.74032427      -0.69146542
H        0.29912995       5.69219076      10.36456626       0.11707280      -0.45623398      -0.24512946
H        1.77999201       5.31697308      10.51516437       0.04085492      -0.45901152      -0.14383525
O       10.77211990       5.88994242       5.62032610      -1.63181555       1.19386619       0.30562451
H       10.13769654       6.62133200       4.02626539       0.54807090      -0.83413737      -0.17608272
H        9.94182273       5.98758504       6.09463114      -0.19266894      -0.08059315      -0.18852831
O        1.29668393       4.98752637       5.60959847       0.88117587       1.10598754       0.58480283
H        1.21572052       4.20618549       5.03834844       0.04718269      -0.00631568      -0.19947396
H        0.74057890       5.05141882       6.33977955       0.08898782       0.03331509      -0.08100952
O        5.92659389       6.93681377       1.74155348       0.75059836       0.29096030      -0.08943379
H        6.46098323       7.45051738       1.15658298      -0.04988510       0.00477876       0.02778281
H        6.15086708       6.00359205       1.81733639      -0.19343552       0.06499861       0.19095998
O        9.25154266       4.19561507       1.78913457       0.84424151       1.00917015       0.38459797
H        8.57763665       4.33381378       1.12633130       0.04698236      -0.16000423       0.01860534
H        9.55219757       5.06798181       2.03433940       0.51730380       0.11733374      -0.08228919
O        0.94776153       2.58532255       1.17745169      -0.18657711      -0.69317754       0.15318152
H        0.90983712       1.76160781       0.59978568       0.11920124       0.26595700      -0.24352200
H        1.54387894       2.38298930       1.85138436       0.09564756       0.15928459      -0.11047195
O       12.91018148       4.77611514       7.65577980       0.49079821       0.14780328      -0.73319310
H       13.03874349       5.36094239       8.40849216       0.15230749      -0.09018813       0.02113738
H       12.19668568       4.99802477       7.09573943      -0.00872870      -0.17054625       0.16877040
O        7.55875822      10.02884640      12.78882949      -0.83515125      -0.60181728       0.29400216
H        6.63353543      10.18063296      12.84928516      -0.09574290       0.03905700       0.18365379
H        8.07102079      10.52141811      12.15738314       0.06559844      -0.19255002      -0.15592652
O       10.92646399      -0.00929414       2.78528730       0.20856185       0.13426975       0.00081537
H       11.12168256       0.58985326       2.16073562      -0.20014333       0.19241526       0.29602766
H       10.02395067       0.07203433       3.13731875       0.21870435      -0.34060940      -0.10437769
O        1.61216443       2.38077712      11.24346764      -0.15329520      -0.19841084      -0.43007707
H        1.95306065       2.07470765      12.08110802       0.15514363      -0.25134022      -0.07730902
H        1.69295948       3.23860975      10.90181748       0.43855368      -0.00977170      -0.35256598
O        4.72578856       1.84576065       8.17944999      -0.86422613       0.33134074      -1.06077053
H        4.39915622       2.35193578       8.90827928      -0.15624913      -0.25490729      -0.14254705
H        5.61815229       2.15363812       8.08888823      -0.23443903      -0.00925999      -0.03095960
O        9.48302725      11.50866224      11.41966402      -0.58865232       0.28435394      -0.59273504
H        8.94200214      12.18476286      10.98879622       0.28432647       0.11333176       0.20035075
H        9.83003247      11.10333582      10.59472717       0.09546190      -0.15034873      -0.10862858
O        1.71076986      10.82219869      12.68668044       0.85995881       0.32256614       0.47872796
H        1.87110410      10.23069445      13.43041625       0.29868284      -0.00580208       0.24448084
H        1.07684049      10.55574027      12.08882971       0.06657590       0.28793258       0.10805987
O        8.52111612       0.39145036       3.16568540      -1.05958195      -0.13269481       0.10861369
H        7.94771991       1.14495792       3.00744543       0.02970956      -0.01013369      -0.22066475
H        8.50492974       0.25826820       4.08433729      -0.13043238      -0.01126671      -0.19643790
O        8.24277807       3.06314582       4.09081566       0.52439730      -1.02454015      -1.05000322
H        8.33605830       3.73385954       3.45938435      -0.55265528      -0.01660058      -0.05022586
H        9.03326535       3.17216652       4.62711646      -0.14684493       0.44171487       0.26479508
O        2.43273637       4.95095402       1.90666901      -0.94597567      -0.10979922       0.18262620
H        2.03244337       4.14644761       1.61834940      -0.12442335      -0.06352009       0.08851247
H        2.78672821       5.39984918       1.10554327       0.10699789      -0.06753308      -0.07379118
O        0.65610719       8.74259461       8.04076038      -1.19410815       0.16305561      -0.43818684
H        1.31183804       8.37580247       7.51703745      -0.06358094       0.11418566       0.09369864
H        0.08786622       9.36316050       7.50005657      -0.14710951      -0.28340264       0.13849361
O       11.88492908       0.74624188       6.79471917       0.18594635       0.85757593      -0.04502035
H       11.25177799       1.01767589       7.46331331      -0.03532337      -0.22108745       0.06695689
H       11.81270666       1.29090698       6.01256234      -0.20967531       0.13468759       0.03021849
O       12.55161125       7.11487813       2.33084261       0.90063117      -1.02474157       0.00841895
H       13.16108696       7.05764222       3.08496256      -0.31276366      -0.05675310      -0.02864962
H       12.94131375       6.56401873       1.65839845      -0.30643089      -0.41353255       0.02962371
O       10.54945492       9.36835697       9.33700265      -0.08937566      -0.22575627      -0.36737130
H       10.28344558       8.50708056       8.99933804      -0.48594973       0.26419574      -0.03055154
H       11.06754510       9.69772556       8.60326915      -0.04868068       0.17769855       0.16984372
O        3.98071650       4.46135879       5.54367833      -1.00708249      -0.23067191       1.11810761
H        3.80114646       3.55033275       5.44284255       0.12249767      -0.07585275      -0.12885036
H        3.25998030       5.08650359       5.66975947      -0.17765087       0.02746141      -0.00674811
O        4.61217759       3.47511818      10.42381889       0.82849358      -0.20628139       0.47229822
H        4.59829478       4.39086808      10.59469972      -0.06729503       0.16074800      -0.28818402
H        5.41983527       3.01789314      10.69640802      -0.18606177      -0.20256736       0.45971880
192
Lattice="13.288058012098064 0.0 0.0 -5.291597717088979e-07 13.288058012098064 0.0 -5.291597717088979e-07 -5.291597717088979e-07 13.288058012098064" Properties=species:S:1:pos:R:3:momenta:R:3 step=110 time_fs=11.0 phase=production pbc="T T T"
O       10.26583298       0.35999412       9.50221243       1.84436428      -0.24593064       0.24637385
H       11.04744879       0.55245731      10.06004965      -0.01447637       0.73445866       0.07848703
H        9.44115816       0.55564291       9.91471345       0.06323080       0.35789863       0.02590972
O       11.34535243       2.58385487       2.52994337       0.75394132       0.20668750       0.73612704
H       10.70887309       3.15088473       2.11049208       0.00731046      -0.12854859       0.03171089
H       12.21101353       3.03038057       2.38748760       0.06615085      -0.06994847       0.23039910
O        3.05450920       8.23575086      10.81567821       0.46141810      -0.45082369      -1.09215542
H        2.14700488       8.36211797      10.56002607       0.05927054       0.31999301      -0.29754821
H        3.62814465       8.96830912      10.55551056       0.21477993      -0.09717404      -0.38168823
O        8.87067871       6.25715777       7.62888148      -0.64732265       1.02368684       0.71538358
H        9.33678521       5.91186186       8.36913503       0.05262942      -0.04108877       0.10025957
H        7.91868354       6.01567979       7.46901720       0.22127133       0.05788616      -0.01468739
O        6.70060735      13.51277842      -0.02842023       0.69405738       0.59606212      -1.05886075
H        6.48580065      12.55823039      -0.00086437      -0.19568334       0.30493739       0.46871660
H        7.12884853      13.86375494       0.75325018      -0.09947252       0.00991924       0.27392551
O       12.52160057       6.82208618       9.61342774       0.06867119      -0.74732845       0.26571155
H       11.73521858       7.17935940      10.00205407      -0.05771945      -0.14228961      -0.24997692
H       12.96648973       7.27173044       8.90298725      -0.13066784      -0.26936589      -0.03279795
O        7.74595280       9.78731464       5.19825446       0.05010207       0.19749804      -0.09789878
H        7.50360371       8.88536273       5.51501776      -0.04509141       0.31443421       0.29823909
H        7.87031947       9.78186198       4.28171253      -0.35612914      -0.06750066      -0.22561078
O        0.58264561      12.81049121       3.25711959      -1.64473288       0.45288840      -0.26887865
H       -0.38133037      12.74165220       3.24161838      -0.00954945      -0.02315675      -0.22577052
H        1.02578271      12.74128171       2.41558617       0.25285651      -0.41700198       0.27318802
O        8.96262738       8.51355197       1.41136493       0.38124916       0.08720856       0.05827412
H        8.91185007       8.61303409       0.43493196       0.00849284      -0.17384475       0.03371652
H        9.18100328       9.42001508       1.73505001      -0.16379290      -0.56669254      -0.55367522
O        3.62904575       7.79905827       3.70438354       1.35484622      -0.46197359      -1.53623983
H        3.72296643       7.39453780       4.59816355       0.22110016       0.58273182       0.09994078
H        3.11294151       7.28872583       3.12119587       0.12858931      -0.38674725      -0.11623365
O        9.78894308       6.66210808      10.72859452      -0.38812476       0.63244650       0.51206887
H       10.09566388       5.76653586      10.77464147      -0.12165587      -0.11882274       0.40186812
H       10.07963822       7.37697593      11.23172493      -0.13207447       0.07733488      -0.04365125
O        2.82020108       1.82611595       6.17688813       0.41147400       1.04468803      -0.87816126
H        3.77562714       1.68734279       6.08831651       0.20211989       0.25339062      -0.27523605
H        2.12937913       1.21520678       6.46843120      -0.16289749       0.04610833      -0.11619541
O       10.99307826       3.06493627       5.42951685       1.04020749       0.72456078       0.89100915
H       10.82887565       3.73719941       6.06899436       0.19199047       0.02405124       0.48154714
H       11.68842431       2.95225032       4.78545659       0.12087510       0.01256040      -0.19742005
O       11.57534233       3.86531803      11.24285251       0.14878382      -0.18508187       0.62430696
H       11.94396340       3.85725982      10.36206376       0.03136654       0.23768994      -0.15817858
H       11.68077204       3.07884474      11.78080254      -0.14071174       0.14276724       0.17703212
O       11.87771410      10.86698254       7.36409406      -0.44533289       0.70740988       0.10411387
H       11.82563352      10.15800916       6.73423740       0.11686128      -0.01512215       0.12119340
H       11.87716311      11.77286190       7.07295957      -0.13518878       0.08616567       0.00779620
O        3.82606663       7.69579397       0.32344507       0.52677913      -0.13995860      -0.44790485
H        4.01910352       7.48375358      -0.58988423       0.02580494       0.11245771       0.16551578
H        4.60999807       7.57827986       0.84294816      -0.12578900       0.05305046      -0.14376326
O       11.65757616      12.54892191      12.85266590       1.54600321       0.42162735      -0.29304247
H       11.10599302      12.06690869      12.22364624       0.44423016      -0.09345891      -0.17328905
H       11.49899054      12.39478738      13.77960852      -0.08733589       0.27117489       0.19254013
O        3.17146622       9.94347857       1.54038335      -0.82070412       0.01602764      -1.02792215
H        3.10650076       9.52127061       2.42499622      -0.03403082       0.34671939       0.31027500
H        3.55399368       9.16446072       1.15637433       0.34750136      -0.31851620       0.10451910
O        0.20436850       9.88496217      10.52582343       0.95650688       0.08241809      -0.97320540
H        0.68012070       9.76692773       9.74165415      -0.08942823       0.28942176      -0.02836057
H       -0.43960495      10.60570392      10.59402444       0.16060915       0.12576423       0.24253578
O        1.55715496       2.08690338       3.61916052       0.22608512       0.46796127      -0.19314717
H        1.58021268       1.12994795       3.47053068      -0.27117342      -0.01307566      -0.09948192
H        1.72149573       2.37526734       4.53170694      -0.04994030      -0.16158661       0.12441036
O        1.00553113       7.31906012      13.08782623      -0.91476020      -0.91758541      -0.24047754
H        0.71321764       6.67170978      12.43147946      -0.01519553       0.00602844      -0.34161979
H        1.92831331       7.31548009      13.22958024       0.04080732      -0.25810742      -0.19280735
O        0.65806321      12.41951155       6.00259010       0.74251155      -0.10057044       0.48956928
H        0.94989844      12.18948269       5.12634311       0.16488591      -0.44398539       0.04732136
H       -0.11459055      12.96133499       6.09560962      -0.54637036      -0.43231148      -0.29145304
O        1.68464527      11.66543698       8.25797961       1.31321535       0.43029418       0.22242461
H        1.48089698      11.79794908       7.33553346       0.10681501      -0.06138824      -0.09580617
H        1.65362162      12.35469659       8.91588611       0.18902260       0.27948613       0.18980961
O        0.83998102      13.25975203       0.41727691      -0.48656599      -0.41807421      -0.32303838
H        1.57377789      12.72677993       0.14017715       0.03793963      -0.05079158       0.28691425
H       -0.02458841      13.01546110       0.11868694       0.04667642      -0.04088111      -0.03544755
O        6.70832874       0.93819300       5.94262618       0.00445555       0.25343871       1.35020727
H        7.07174294       0.06903734       5.83428599      -0.11090424       0.10880503      -0.04529794
H        7.04243124       1.65714675       5.40743958      -0.24735691       0.00520312       0.15797953
O        0.80917532       7.67205416       4.69985211      -0.23338619      -0.65611276       0.56370870
H        2.75380962       8.42871583       4.23880272      -0.98391304       0.29276231       0.45000554
H        0.97251115       6.82976592       5.14261839      -0.00609165      -0.09702061       0.11014150
O        5.67912815       2.91902502      13.01178991      -0.45805731       0.71088079       1.28466398
H        5.58847029       2.01899799      13.36633760      -0.30246863      -0.12549932      -0.29320873
H        5.34195203       3.62482610      13.57747406      -0.35830850      -0.00769465       0.05362493
O        5.68076443      12.44427510       8.54020715      -0.68082514       0.57604324      -1.19198800
H        6.05944201      12.33335571       7.66610096       0.24475138      -0.36153186       0.14993126
H        5.19367076      13.19768666       8.80737428      -0.12468385      -0.00778065      -0.37756624
O       11.36748734       8.92368200       5.06971271      -0.23779878      -0.02370178       0.21462862
H       10.82321335       8.17098816       5.08437344      -0.07918619      -0.03147649       0.17249474
H       12.25030553       8.87027275       4.73901165       0.30787879       0.46057296      -0.23174772
O        9.90675027       6.58842274       2.95174212      -0.53100838      -0.80371049      -0.60130904
H        9.43226119       7.19807632       2.43426638      -0.00352603      -0.34503244       0.21987850
H       10.85562378       6.58620290       2.84437582      -0.06308343       0.45857554      -0.25839273
O        3.74450796      10.44228258       9.49193293      -0.01538913      -1.41121231       0.69261047
H        4.52557956      11.00334936       9.39092285       0.26844014      -0.42840544       0.31104025
H        3.11379608      10.41518224       8.79578771       0.30000555      -0.28570554       0.08271574
O        7.21321501       7.58066686      11.48526980       1.06181817       0.20754708       0.92161198
H        7.06691043       8.52215883      11.65813358       0.20189886      -0.17797126       0.03421191
H        8.02924278       7.27587526      11.12997052       0.05137285      -0.07113131       0.16689098
O        4.91892655      11.01043015      12.66905132      -0.03855429       1.32143559      -0.61654417
H        4.28473057      11.11616760      13.38082450       0.12462508       0.18647068       0.08770308
H        4.72748317      11.43074954      11.82653129       0.20610081      -0.17783530      -0.09725964
O        8.09000120       4.55160177      12.66215352      -0.41924279       0.36570431       0.49885869
H        7.14736656       4.34598796      12.71331164       0.22661164      -0.35006505      -0.15932206
H        8.27310270       5.35042646      12.16451318       0.15293685      -0.26149731      -0.04318527
O       11.34767007       8.35669740      11.78084792      -0.80293325      -1.21311454       0.49347660
H       12.06166582       8.50216944      12.38242012      -0.36780878      -0.07935253       0.33220751
H       11.16258859       9.12310496      11.19313594      -0.05966259       0.44509075       0.40958808
O        5.18605040       4.12362348       2.15864167      -0.17682276       0.01479203      -0.38194414
H        5.61633514       3.76581126       2.92598812      -0.13312940       0.19652850       0.23380054
H        4.28950319       4.35073214       2.42050395      -0.04943486      -0.15401778      -0.10719177
O        1.83368967       1.07137298       8.87824428       0.32308747      -0.45944151      -0.28526667
H        2.80697416       1.01606260       8.87024235      -0.26495981      -0.08385527       0.25935364
H        1.60000672       1.50162720       9.71093070      -0.44308922      -0.34315243       0.04772525
O        4.59265895       6.17888976      10.33791080      -0.38232722      -1.42672368       0.91403116
H        3.93553476       6.81982404      10.02472797       0.25225293      -0.45528286      -0.29400354
H        5.43838476       6.58273747      10.54910522      -0.20559055      -0.01675712      -0.32939942
O        9.00253368      12.51220510       5.56585742      -0.12905502      -0.99224735      -0.30139491
H        8.51938391      11.69948471       5.63216365       0.07328673      -0.13276820      -0.10713950
H        9.92603517      12.48627147       5.76249359      -0.23567491       0.12256743       0.61794530
O        6.24078366       5.28495403       7.96463399      -1.28084582       0.71441652      -1.01065371
H        5.36465878       5.52048266       8.28169163      -0.03313276       0.13738642       0.13389086
H        6.14769247       4.95091594       7.05788577       0.02114915      -0.13318522      -0.04249853
O        9.84769092      10.55776746       3.22917448       0.89436929       0.00909397       1.04461657
H       10.47280165       9.99753222       3.70475820       0.15098426      -0.14421911      -0.10687929
H       10.53811836      12.27310253       2.66487152      -0.05400588      -0.43221058      -0.15949947
O        7.36494137      12.83584959      10.60422172      -0.65768900       0.51186186      -0.72857646
H        6.98460616      13.30904499      11.31908049      -0.16481294      -0.09643933       0.01928892
H        6.95905497      12.70648708       9.75289834      -0.06389367       0.07833627       0.20016723
O        0.96585769       5.50226968      10.99129636       0.27970974       0.71212123      -0.64710830
H        0.30545356       5.64958369      10.33698475       0.01598769      -0.41841241      -0.31538437
H        1.78297880       5.27251409      10.50352032       0.00688277      -0.44805196      -0.08454413
O       10.76191548       5.89731595       5.62206344      -1.66773524       1.21867675       0.26899388
H       10.19463993       6.53892710       4.03927981       0.62391767      -0.86225693       0.43245201
H        9.92258675       5.97973577       6.07795132      -0.20445854      -0.07933769      -0.15038266
O        1.30269017       4.99429467       5.61227233       1.07390855       1.09955823       0.29353467
H        1.21937960       4.20819328       5.02225895       0.02898577       0.05752266      -0.12188724
H        0.74096494       5.05386050       6.34187190      -0.07817077       0.01638360       0.11986621
O        5.93100181       6.93838339       1.74120509       0.69052165       0.24143106      -0.01831103
H        6.46002778       7.45274598       1.15705218       0.03391997       0.04359874      -0.02081864
H        6.13178341       6.01087365       1.83578169      -0.19463101       0.07578780       0.18785014
O        9.25677305       4.20187359       1.79162515       0.88270694       1.05326518       0.43302191
H        8.58007738       4.31722574       1.12476692       0.00779119      -0.17824984      -0.04720664
H        9.60312755       5.07915657       2.02766983       0.51957737       0.09447665      -0.06122028
O        0.94607852       2.58066271       1.17746018      -0.35081976      -0.80642324      -0.12815459
H        0.92108951       1.79718258       0.58151600       0.11131117       0.44693505      -0.14122233
H        1.56059402       2.39561941       1.85108599       0.23906374       0.10201139       0.09435015
O       12.91353744       4.77681702       7.65138133       0.63378131       0.08847906      -0.68043900
H       13.05325630       5.35142439       8.41017330       0.14661863      -0.10487814       0.01339431
H       12.18938307       4.98298772       7.10912205      -0.14630597      -0.13563747       0.10240367
O        7.55382471      10.02480475      12.79064564      -0.76264131      -0.68608239       0.31310484
H        6.61927895      10.18624076      12.86712165      -0.18110928       0.07561528       0.18215301
H        8.07873841      10.50386658      12.14048306       0.08457743      -0.17326905      -0.17914037
O       10.92800414      -0.00790460       2.78638913       0.33848171       0.31697278       0.34410044
H       11.10539729       0.62458019       2.17508632      -0.13539487       0.51470463       0.00819058
H       10.04766738       0.04300312       3.12724074       0.23917748      -0.24887731      -0.08897659
O        1.61106631       2.37915466      11.24070402      -0.19578134      -0.30592733      -0.44949549
H        1.96936156       2.05194381      12.07306183       0.17552629      -0.21098448      -0.09687995
H        1.73748946       3.24216224      10.86803442       0.47375474       0.05809841      -0.32844105
O        4.72016320       1.84739423       8.17269377      -0.97214588       0.19300750      -1.13056022
H        4.38109150       2.33056056       8.90059350      -0.21733761      -0.17855937      -0.00624096
H        5.60309326       2.15558294       8.08327043      -0.05721226       0.05575638      -0.08457330
O        9.47951114      11.51010120      11.41546922      -0.52343163       0.18757144      -0.74579544
H        8.96863849      12.19705571      11.00964121       0.25026585       0.15686726       0.21817207
H        9.83872229      11.08881668      10.58942783       0.08119787      -0.14261930       0.00548494
O        1.71675812      10.82442354      12.69035292       1.09515712       0.40887225       0.75452490
H        1.89926802      10.23083083      13.45271913       0.27306474       0.02260645       0.19477027
H        1.07310370      10.57832627      12.08937480      -0.13810986       0.17804966      -0.08877882
O        8.51435171       0.39080989       3.16570006      -1.12419818      -0.07445115      -0.10753804
H        7.95078685       1.14545252       2.98403362       0.03448057       0.02019823      -0.25885547
H        8.49250369       0.25361555       4.07727873      -0.12288376      -0.08560160       0.06100453
O        8.24607946       3.05622378       4.08488957       0.58059903      -1.20883473      -0.87592853
H        8.28262750       3.74151106       3.44447810      -0.54509566       0.16056084      -0.24176328
H        9.01801121       3.21459881       4.65401291      -0.17710029       0.42764315       0.27705207
O        2.42736327       4.95079983       1.90747846      -0.80380974       0.05899141       0.07829613
H        2.01758637       4.13624962       1.62544559      -0.17423790      -0.13248690       0.06096859
H        2.79266014       5.39013728       1.10479551       0.01317972      -0.13238485       0.06104319
O        0.64779534       8.74429557       8.03833670      -1.48696884       0.38235082      -0.32339097
H        1.31666454       8.38095469       7.51575726       0.15704178      -0.00376749      -0.11334501
H        0.07896245       9.33054053       7.51877371      -0.05505662      -0.36311838       0.22838876
O       11.88596195       0.75155286       6.79434912       0.17301904       0.87670568      -0.06527337
H       11.24895370       0.99565275       7.46897671      -0.02154260      -0.23103787       0.04953403
H       11.79097972       1.30467521       6.01631058      -0.23390168       0.14521532       0.05029756
O       12.55708047       7.10859044       2.33097964       0.89227347      -1.01355646       0.01512605
H       13.12957290       7.05254819       3.08415643      -0.31698611      -0.04859029       0.03076718
H       12.91149588       6.52242125       1.65771264      -0.30595531      -0.43379372      -0.03680790
O       10.54882868       9.36678985       9.33478321      -0.09546630      -0.25918580      -0.32749134
H       10.23355791       8.53369528       8.99609268      -0.53836686       0.27457292      -0.03979125
H       11.06404461       9.71877121       8.61766413      -0.01802283       0.25662705       0.12139009
O        3.97470444       4.46052515       5.55044081      -0.95618875      -0.03888725       1.09559534
H        3.81002713       3.53787216       5.43119953       0.06305500      -0.16319961      -0.10768772
H        3.24264708       5.08573162       5.66900456      -0.16773388      -0.05185503      -0.00958821
O        4.61739144       3.47316782      10.42658970       0.87474746      -0.40209595       0.45276898
H        4.59274685       4.41270311      10.56714367      -0.04386898       0.26407413      -0.27857169
H        5.39795784       3.00138500      10.74229161      -0.26047279      -0.13341813       0.48276071
192
Lattice="13.287998972554558 0.0 0.0 -5.291574206240866e-07 13.287998972554558 0.0 -5.291574206240866e-07 -5.291574206240866e-07 13.287998972554558" Properties=species:S:1:pos:R:3:momenta:R:3 step=120 time_fs=12.0 phase=production pbc="T T T"
O       10.27795311       0.35857539       9.50422216       2.09325501      -0.20547891       0.43029140
H       11.03429978       0.62297008      10.05933863      -0.24470055       0.70941352      -0.09103132
H        9.44584753       0.59091692       9.91694962       0.04873760       0.35879840       0.01150421
O       11.35036476       2.58509514       2.53448205       0.88844993       0.19571418       0.74865274
H       10.70667164       3.14024219       2.11212049      -0.05130095      -0.08804371       0.00155260
H       12.21415670       3.02101794       2.41094202       0.00625371      -0.11690307       0.24916255
O        3.05760264       8.23304741      10.80895080       0.55206612      -0.40600816      -1.09058309
H        2.15259800       8.39427348      10.53108450       0.06187780       0.33851978      -0.29250463
H        3.64497861       8.95671407      10.51839887       0.12343774      -0.15097595      -0.37358435
O        8.86635608       6.26345542       7.63296144      -0.71082883       1.03940385       0.64007118
H        9.34024953       5.90671396       8.38017871       0.01167489      -0.05916263       0.11612004
H        7.94654077       6.02210670       7.46981668       0.32176835       0.06689621       0.02715970
O        6.70481089      13.51608805      -0.03501702       0.69760295       0.52517375      -1.07254202
H        6.46737548      12.59434068       0.04679872      -0.18736945       0.41612142       0.50648536
H        7.11904426      13.86275026       0.77972944      -0.10793734      -0.03202033       0.25466033
O       12.52211683       6.81723745       9.61509791       0.11906247      -0.83001401       0.29808074
H       11.72871145       7.16682080       9.97801037      -0.08226008      -0.11127027      -0.23909431
H       12.95424713       7.24888537       8.89814303      -0.11361958      -0.19335414      -0.07472503
O        7.74601618       9.78816617       5.19820568      -0.00517612       0.12054009       0.03211594
H        7.50001623       8.92202048       5.54366476      -0.03385878       0.41308080       0.29727616
H        7.83701941       9.77509939       4.25106182      -0.33353182      -0.07216306      -0.35311362
O        0.57234466      12.81333841       3.25564000      -1.70133272       0.49417768      -0.20645361
H       -0.38017584      12.73922248       3.21814905       0.02350167      -0.02629778      -0.25560407
H        1.05108265      12.69852612       2.44084218       0.26741606      -0.45949514       0.24339282
O        8.96485816       8.51433199       1.41122098       0.34013435       0.09368752      -0.11348424
H        8.91258218       8.59406597       0.44348475       0.00507628      -0.21580689       0.11960782
H        9.16474071       9.36342004       1.68227576      -0.14868523      -0.50778692      -0.49601386
O        3.63723479       7.79594371       3.69559292       1.22118404      -0.47923189      -1.30688589
H        3.74420001       7.45496613       4.59651278       0.20639084       0.65460922      -0.12285522
H        3.12847489       7.25071118       3.10867351       0.20019658      -0.37880117      -0.11583021
O        9.78602689       6.66579378      10.73125796      -0.53838053       0.55650283       0.37349939
H       10.08602132       5.75270961      10.81638984      -0.08289043      -0.14211523       0.45394556
H       10.07051854       7.38677401      11.23351949      -0.05541273       0.12337071       0.08035337
O        2.82280873       1.83260926       6.17133842       0.44565487       1.07231412      -0.92064453
H        3.78765933       1.70871998       6.06392713       0.03567147       0.18379375      -0.22265362
H        2.11911903       1.22083778       6.45621216      -0.04184163       0.07106818      -0.13557311
O       10.99945749       3.06881001       5.43464270       1.06142362       0.56376049       0.79928923
H       10.84995124       3.74354468       6.11554174       0.24638118       0.08289065       0.45179911
H       11.69706707       2.95719605       4.76954549       0.04619994       0.09006228      -0.11799050
O       11.57625567       3.86435049      11.24628644       0.16860933      -0.11509056       0.49275467
H       11.94514414       3.87843333      10.35393541      -0.01120402       0.19458589       0.00756267
H       11.66784390       3.09211534      11.79652595      -0.12130802       0.12275497       0.14955573
O       11.87489138      10.87108922       7.36487732      -0.45699161       0.65300980       0.16212599
H       11.83643498      10.15742429       6.74342952       0.10580576       0.00280060       0.06637659
H       11.86394487      11.78240124       7.07272040      -0.13519762       0.10531780      -0.01059705
O        3.82891887       7.69487249       0.32073250       0.38954430      -0.14348753      -0.42370100
H        4.02196218       7.49448273      -0.57850026       0.03691595       0.10346630       0.04424728
H        4.60233108       7.58175527       0.83196770      -0.01580672       0.01670072      -0.06904802
O       11.66706587      12.55149617      12.85092302       1.56055724       0.43411984      -0.23938784
H       11.14919330      12.05726963      12.20770734       0.44188565      -0.10418550      -0.15176236
H       11.48869327      12.42027266      13.79622162      -0.12098063       0.25441622       0.13188206
O        3.16646998       9.94317502       1.53429765      -0.78418933      -0.13620561      -0.95376346
H        3.10190045       9.55979114       2.45255060      -0.06040564       0.44975637       0.24612234
H        3.58708226       9.13603751       1.16547699       0.31543747      -0.23168519       0.09539971
O        0.20971935       9.88579192      10.52047891       0.78796238       0.19892863      -0.75006662
H        0.67621299       9.79507482       9.72879010       0.01098621       0.28934717      -0.23709981
H       -0.41997686      10.61382779      10.61674540       0.23931755       0.04451709       0.22458739
O        1.55857538       2.08960045       3.61811564       0.23861348       0.41339481      -0.14022985
H        1.55361610       1.13314067       3.46323693      -0.27387684       0.07817105      -0.04993172
H        1.71612830       2.35640246       4.53978669      -0.06049938      -0.22501811       0.04039063
O        0.99948371       7.31332253      13.08616563      -1.04404298      -0.95528332      -0.29385051
H        0.71358852       6.67299876      12.39990746       0.02838675       0.03557222      -0.29002096
H        1.93763114       7.29010217      13.21110689       0.13556943      -0.26169979      -0.18683522
O        0.66250929      12.41893145       6.00551688       0.69095984      -0.06210579       0.45741028
H        0.96547507      12.14594547       5.13081031       0.14781184      -0.44205467       0.06226843
H       -0.16577596      12.91817863       6.06728343      -0.48144266      -0.46543297      -0.29097176
O        1.69276448      11.66793788       8.25960263       1.33086452       0.42234381       0.32728435
H        1.49200489      11.79280443       7.32796755       0.12331831      -0.04441202      -0.04949464
H        1.67143749      12.38209256       8.92977563       0.17766435       0.26451522       0.07738319
O        0.83708816      13.25740203       0.41542255      -0.44999496      -0.32613379      -0.28014483
H        1.57896641      12.71781482       0.16660193       0.06766996      -0.13122909       0.25616652
H       -0.02179680      13.00995543       0.11396854       0.00772212      -0.07242937      -0.06214020
O        6.70793812       0.93988641       5.95117973      -0.12957610       0.29880395       1.45357606
H        7.06361779       0.07594871       5.82807699      -0.05189102       0.02415405      -0.08328791
H        7.02072551       1.66036909       5.42076234      -0.19342115       0.07085883       0.10870487
O        0.80772884       7.66767899       4.70343826      -0.23574713      -0.76747977       0.61652442
H        2.65726882       8.45637594       4.28160388      -0.89937641       0.19850779       0.37446274
H        0.97178376       6.82283590       5.15262689      -0.01048331      -0.03290749       0.09077386
O        5.67624731       2.92347853      13.01974551      -0.47386837       0.74368742       1.32633715
H        5.55926928       2.01100324      13.33680813      -0.29594632      -0.03621910      -0.31105907
H        5.30816559       3.61935147      13.58139631      -0.33315971      -0.10602331       0.02707614
O        5.67666350      12.44729481       8.53308089      -0.64710215       0.42472563      -1.11277539
H        6.08238940      12.29887667       7.67963098       0.22733201      -0.34459162       0.12518608
H        5.17887031      13.20306868       8.76878494      -0.17874671       0.11970489      -0.41426121
O       11.36612965       8.92401588       5.07087326      -0.15105858       0.13291708       0.15199540
H       10.81451574       8.16346319       5.10209794      -0.08607098      -0.10753502       0.19062789
H       12.27931837       8.91323566       4.71692653       0.23940627       0.41846412      -0.20145993
O        9.90360918       6.58278212       2.94720870      -0.44957497      -1.03527943      -0.82042548
H        9.42619440       7.17310523       2.44886833      -0.13819233      -0.15001195       0.06635414
H       10.85118103       6.63258574       2.81357011      -0.02776927       0.49286679      -0.37561523
O        3.74480550      10.43352532       9.49651567       0.13061280      -1.42675510       0.83099116
H        4.54981905      10.96173239       9.42009229       0.22883220      -0.42326886       0.28672871
H        3.13870031      10.38936586       8.79839635       0.19910299      -0.24289163      -0.04423878
O        7.21921451       7.58195226      11.49110553       0.90745744       0.19772422       0.99128780
H        7.08818451       8.50516062      11.66139271       0.23077703      -0.14524110       0.03814789
H        8.03966377       7.26810978      11.14327524       0.16208399      -0.08803292       0.10738313
O        4.91885190      11.01848921      12.66521043       0.02668567       1.31384298      -0.60570366
H        4.29635314      11.13531958      13.38649787       0.11224417       0.20805334       0.02880024
H        4.74498550      11.41200670      11.81913435       0.14952766      -0.20040622      -0.06240276
O        8.08735041       4.55378743      12.66537163      -0.41655844       0.34396448       0.57624745
H        7.16962389       4.31086018      12.69711528       0.21148140      -0.37418009      -0.17113319
H        8.28780278       5.32517283      12.15921770       0.15256538      -0.24365401      -0.07319252
O       11.34241102       8.35010595      11.78305326      -0.89365886      -0.92027496       0.24537109
H       12.02688518       8.49364475      12.41633329      -0.34193795      -0.09581776       0.36789216
H       11.16025946       9.15369432      11.24492714       0.01052542       0.18298039       0.64724939
O        5.18484496       4.12379077       2.15610976      -0.20286095       0.04114412      -0.42733272
H        5.60500287       3.78428843       2.95188081      -0.10436711       0.18776723       0.28592380
H        4.28338936       4.33558234       2.40952430      -0.07541974      -0.15608469      -0.11897808
O        1.83593667       1.06841466       8.87643879       0.37836200      -0.50028578      -0.28678985
H        2.77794175       1.00867811       8.89570583      -0.29887511      -0.07001655       0.26385978
H        1.55544127       1.46773208       9.71467362      -0.47040535      -0.35293051       0.02796862
O        4.59027555       6.17005918      10.34345413      -0.38628706      -1.46982810       0.91318303
H        3.96081100       6.77599513       9.99619466       0.24016239      -0.42213595      -0.30378789
H        5.41915034       6.58184347      10.51801075      -0.16323828       0.00862664      -0.30122074
O        9.00158502      12.50630394       5.56388502      -0.17269539      -0.91689807      -0.33355463
H        8.52673837      11.68318259       5.62184410       0.08079168      -0.19659082      -0.10436419
H        9.90525069      12.49737835       5.82508705      -0.18594381       0.10715934       0.66706262
O        6.23273554       5.28917763       7.95794291      -1.33178793       0.67120579      -1.15126296
H        5.36399015       5.53398937       8.29433837       0.02221256       0.13919602       0.12375400
H        6.14946469       4.94015466       7.05952313       0.01390364      -0.08804733       0.07306583
O        9.85341959      10.55778327       3.23572026       0.99132407       0.00902351       1.09427908
H       10.48500622       9.98481559       3.69305090       0.09547582      -0.11156292      -0.13574383
H       10.52703044      12.20377281       2.64513380      -0.17125332      -0.96382442      -0.23853030
O        7.36127320      12.83882568      10.59972270      -0.52287467       0.48307719      -0.69860418
H        6.96550556      13.30191122      11.32376731      -0.22217983      -0.05278255       0.07228813
H        6.94934427      12.71398178       9.76988232      -0.14196455       0.07363217       0.13215513
O        0.96808575       5.50649288      10.98716360       0.44002004       0.67000178      -0.70197899
H        0.30404534       5.61020177      10.30494198      -0.03122095      -0.39159592      -0.32671561
H        1.77937855       5.23044739      10.49988961      -0.08643560      -0.41119122       0.01513454
O       10.75153641       5.90483768       5.62357481      -1.70117985       1.24031798       0.23184377
H       10.25874196       6.45231364       4.10679075       0.68307000      -0.91698746       0.92027761
H        9.90181178       5.97210909       6.06536776      -0.21847671      -0.07657970      -0.10820212
O        1.30970557       5.00092066       5.61327820       1.19517658       1.06520761       0.06367573
H        1.22146741       4.21853002       5.01565594       0.01432977       0.15784481      -0.00999437
H        0.72774181       5.05419626       6.35973331      -0.17397194      -0.01112811       0.22163296
O        5.93498508       6.93983499       1.74128990       0.61735771       0.25366881       0.04311150
H        6.46728554       7.45852018       1.15278290       0.11063510       0.06970122      -0.06146556
H        6.11334752       6.01672326       1.85395246      -0.18117120       0.03869596       0.18531715
O        9.26231908       4.20866737       1.79443239       0.93752110       1.17551577       0.48133582
H        8.58020745       4.29934971       1.11819432       0.00302447      -0.18639506      -0.08055072
H        9.65153912       5.08324256       2.02120623       0.46646742      -0.02241524      -0.07632660
O        0.94368104       2.57562234       1.17633430      -0.40371147      -0.80880797      -0.18680236
H        0.93148752       1.84382593       0.56900730       0.10264974       0.48035194      -0.13755197
H        1.58673009       2.40368520       1.86550371       0.27189413       0.06899804       0.17324450
O       12.91779549       4.77716225       7.64731955       0.76015715       0.03363971      -0.63987147
H       13.06702825       5.34038787       8.41080574       0.13619057      -0.12124345      -0.00066379
H       12.16855164       4.97138734       7.11620695      -0.26861643      -0.10506730       0.05336356
O        7.54922824      10.02043648      12.79243542      -0.73205084      -0.71342481       0.28089329
H        6.60141872      10.19481455      12.88425487      -0.16791381       0.09849534       0.16848126
H        8.08569317      10.48625797      12.12435535       0.05110524      -0.19288512      -0.14139571
O       10.93084807      -0.00535467       2.78908399       0.62462213       0.52836158       0.50011019
H       11.09376665       0.68621848       2.16651633      -0.11228851       0.71820986      -0.15355317
H       10.06510897       0.02339655       3.12190623       0.10555699      -0.16351797      -0.01759334
O        1.60982652       2.37723509      11.23780425      -0.19840771      -0.29756590      -0.48270910
H        1.98650987       2.03423807      12.06041256       0.17345803      -0.15013949      -0.16783594
H        1.78459879       3.24533094      10.83976804       0.48842491      -0.01350517      -0.24089163
O        4.71383517       1.84812878       8.16549157      -1.06495428       0.06240073      -1.19643701
H        4.35714886       2.31687039       8.90660526      -0.26609905      -0.10905523       0.11905492
H        5.60615256       2.16442756       8.07260052       0.09625528       0.11922798      -0.12960505
O        9.47663539      11.51066559      11.41046880      -0.39449825       0.00471199      -0.86077959
H        8.98872645      12.21776784      11.02960969       0.15743135       0.27670402       0.18815301
H        9.84538318      11.07591373      10.59601485       0.05522459      -0.11972548       0.12999385
O        1.72406935      10.82694718      12.69577698       1.26853229       0.41774059       1.01406814
H        1.92323596      10.23659727      13.46544407       0.21509417       0.10026473       0.05972933
H        1.05295074      10.59126794      12.07455830      -0.25144600       0.09611316      -0.19081849
O        8.50724334       0.39052107       3.16444109      -1.17896398      -0.02171333      -0.27283081
H        7.95459743       1.14843970       2.95729989       0.04649610       0.03714924      -0.28660578
H        8.48091808       0.24202995       4.09404874      -0.11456778      -0.14628348       0.25497394
O        8.24996937       3.04860035       4.07985730       0.70654956      -1.23645307      -0.77737248
H        8.22957426       3.76039258       3.41691258      -0.54160161       0.19642014      -0.29303898
H        8.99636580       3.25507129       4.67882955      -0.27657761       0.40110448       0.22142797
O        2.42274097       4.95144180       1.90760737      -0.71002350       0.13855093      -0.02644665
H        1.99974711       4.12332715       1.63105338      -0.18526900      -0.11846179       0.05865785
H        2.78954931       5.37450945       1.11663252      -0.07165060      -0.18093896       0.17087220
O        0.63837867       8.74675586       8.03674928      -1.52304486       0.38855844      -0.18389525
H        1.33834022       8.37730836       7.49829612       0.25641178      -0.05298113      -0.21922472
H        0.07259477       9.29706548       7.54037674      -0.10196150      -0.29688780       0.19255749
O       11.88693230       0.75702472       6.79381650       0.16090980       0.90808681      -0.10059099
H       11.24732960       0.97260555       7.47289171      -0.01184976      -0.24199760       0.03218839
H       11.76718306       1.31875797       6.02265381      -0.25249129       0.14239159       0.08105922
O       12.56233693       7.10227435       2.33069443       0.83512820      -1.04315150      -0.12679752
H       13.10154531       7.04779082       3.09369512      -0.24919280      -0.04984013       0.17336564
H       12.88098979       6.48113447       1.65320352      -0.32194063      -0.40137942      -0.04238783
O       10.54818757       9.36515273       9.33295062      -0.09513278      -0.25631969      -0.25600755
H       10.17824348       8.55948363       8.99077339      -0.59539803       0.25424875      -0.07078661
H       11.06405028       9.74745939       8.62658187       0.01647474       0.32943545       0.06525650
O        3.96881735       4.46067062       5.55705497      -0.96136540       0.07420774       1.06404150
H        3.81403912       3.52232020       5.42229397       0.02298292      -0.13483481      -0.07157197
H        3.22848223       5.07527335       5.66764596      -0.12074197      -0.16358354      -0.01814383
O        4.62279875       3.47042432      10.42928639       0.88592960      -0.46314433       0.44063237
H        4.59005257       4.43747704      10.53993218      -0.00968072       0.22083359      -0.28002703
H        5.36977024       2.99197555      10.79042768      -0.31171141      -0.06072492       0.50715808
192
Lattice="13.287929343788324 0.0 0.0 -5.29154647853076e-07 13.287929343788324 0.0 -5.29154647853076e-07 -5.29154647853076e-07 13.287929343788324" Properties=species:S:1:pos:R:3:momenta:R:3 step=130 time_fs=13.0 phase=production pbc="T T T"
O       10.29100380       0.35753379       9.50736927       2.13412303      -0.13374755       0.59805751
H       11.00418371       0.69102950      10.04422816      -0.33761559       0.69483345      -0.19978852
H        9.45275287       0.62413031       9.91533514       0.10018968       0.31583061      -0.04912442
O       11.35600903       2.58618541       2.53912700       0.95393273       0.16127149       0.76887195
H       10.69938276       3.13358562       2.11102086      -0.09132296      -0.05036109      -0.02081078
H       12.21375410       3.00874589       2.43555320      -0.00418232      -0.12777733       0.25362376
O        3.06122503       8.23076993      10.80211631       0.62618865      -0.32035468      -1.12077007
H        2.16010443       8.42753646      10.50348674       0.09677628       0.34239885      -0.26994150
H        3.65158713       8.93772054      10.48330859       0.01483071      -0.23762118      -0.34405726
O        8.86230439       6.26991121       7.63682400      -0.56121891       1.07920422       0.64230888
H        9.33802716       5.90096049       8.39030802      -0.05871856      -0.05575289       0.08926471
H        7.97522066       6.02708867       7.47320725       0.23622954       0.02804099       0.03791046
O        6.70925910      13.51942543      -0.04141864       0.77438291       0.61316461      -1.00324150
H        6.44776711      12.63414106       0.09751669      -0.22343090       0.37329703       0.53430438
H        7.10684105      13.85717524       0.80045330      -0.14421374      -0.08026336       0.16119482
O       12.52296235       6.81178523       9.61702781       0.17940062      -0.93332447       0.34621508
H       11.71812492       7.15798824       9.95571442      -0.13522241      -0.06868608      -0.21741918
H       12.94481550       7.23451293       8.88746753      -0.07876150      -0.10107177      -0.14273490
O        7.74594445       9.78900650       5.19792519       0.00253150       0.19239606      -0.16148494
H        7.49577962       8.96114844       5.57430162      -0.05820619       0.37018671       0.33922550
H        7.80430960       9.76725872       4.22207387      -0.33960412      -0.09023957      -0.20167115
O        0.56187903      12.81644682       3.25453201      -1.69466857       0.54096426      -0.15415178
H       -0.37841101      12.73613780       3.19175499       0.00435145      -0.03720815      -0.28624872
H        1.07762187      12.65168302       2.46333618       0.27332113      -0.49929990       0.22389465
O        8.96652394       8.51367854       1.40990692       0.20859458      -0.34247851      -0.30598711
H        8.91235733       8.57085562       0.45411197      -0.01051683      -0.25962913       0.07920437
H        9.15540693       9.33586620       1.64350090      -0.03071576      -0.00749052      -0.28509894
O        3.64343474       7.79351448       3.68794429       0.79619050      -0.28243227      -1.23927784
H        3.76172186       7.52054980       4.58028022       0.15118068       0.67916372      -0.15838425
H        3.15226099       7.21832329       3.10341328       0.28325572      -0.27133507       0.02522890
O        9.78237242       6.66873332      10.73317799      -0.62351025       0.40961929       0.28308259
H       10.07812781       5.74264778      10.86246090      -0.08341207      -0.04733768       0.48931562
H       10.06788662       7.39935220      11.24604444      -0.00421020       0.12191821       0.16763537
O        2.82562816       1.83930001       6.16552351       0.47125628       1.11668326      -0.96302384
H        3.78235585       1.72263313       6.04503881      -0.13680370       0.09848656      -0.16477971
H        2.12163261       1.22881792       6.44187931       0.09247844       0.08912798      -0.15706323
O       11.00605254       3.07207351       5.43946146       1.10598410       0.52141061       0.79549009
H       10.87742173       3.74929125       6.15295585       0.32022517       0.01881765       0.29854844
H       11.69607629       2.96970631       4.76358479      -0.06683574       0.16570775      -0.00256179
O       11.57727632       3.86397363      11.24874411       0.17697799       0.00580376       0.33657519
H       11.94172631       3.89468968      10.36365576      -0.05224568       0.13754501       0.18105023
H       11.65736679       3.10144659      11.81047038      -0.09112026       0.06388872       0.14073109
O       11.87198662      10.87497754       7.36599865      -0.46914703       0.63815035       0.21310582
H       11.84611657      10.15844089       6.74698533       0.09396825       0.02027927       0.00782944
H       11.85065918      11.79208358       7.07119636      -0.13639331       0.08828530      -0.01771710
O        3.83071676       7.69399051       0.31832912       0.20694039      -0.13158909      -0.35746481
H        4.02664104       7.50337849      -0.58361261       0.05925471       0.08046285      -0.14696495
H        4.60805362       7.58129475       0.83054649       0.12949242      -0.02468802       0.03742031
O       11.67660342      12.55412971      12.84974910       1.56476259       0.44625023      -0.11376028
H       11.19179974      12.04636936      12.19412630       0.43301658      -0.11871069      -0.12494203
H       11.47562988      12.44430398      13.80275166      -0.14456113       0.23915388      -0.00363154
O        3.16196747       9.94142994       1.52865404      -0.66930189      -0.42584890      -0.88060776
H        3.09474971       9.60910152       2.47150662      -0.08536735       0.56165135       0.13794943
H        3.61305293       9.12340970       1.17672698       0.21041547      -0.01568681       0.14046574
O        0.21421348       9.88717957      10.51635272       0.69968381       0.25477954      -0.60123845
H        0.68083806       9.82360252       9.69776054       0.06980413       0.29995538      -0.37492361
H       -0.39430988      10.61576340      10.63778280       0.27782094       0.00737243       0.20927681
O        1.56005969       2.09200503       3.61738239       0.24641044       0.38085863      -0.09764176
H        1.52695072       1.14396293       3.46050824      -0.27287859       0.13256936      -0.00840152
H        1.70975479       2.33177449       4.54016901      -0.06905001      -0.27666167      -0.02412924
O        0.99288049       7.30713855      13.08399505      -1.08751251      -1.05156490      -0.39390958
H        0.71938458       6.68043140      12.37690725       0.09125309       0.12167520      -0.17544706
H        1.95124994       7.26456120      13.19271947       0.12566580      -0.26036925      -0.19032982
O        0.66638351      12.41868152       6.00797752       0.56307516       0.00250882       0.34322710
H        0.97757234      12.10440567       5.14126304       0.09650244      -0.40397140       0.16319502
H       -0.20488854      12.86883034       6.03886984      -0.30888909      -0.54985229      -0.29008416
O        1.70094861      11.67068810       8.26199268       1.33762570       0.50113715       0.46857056
H        1.50514042      11.78904076       7.32692207       0.14672956      -0.03157947       0.03092117
H        1.68828302      12.40353191       8.92854436       0.16794400       0.16958535      -0.10722161
O        0.83450635      13.25559453       0.41381007      -0.38490035      -0.24567056      -0.24815022
H        1.58600068      12.70179218       0.19045663       0.06866905      -0.19016715       0.23599940
H       -0.02297867      13.00113355       0.10666828      -0.02837379      -0.10659917      -0.08577477
O        6.70666303       0.94182641       5.96044769      -0.26834686       0.33137404       1.57147616
H        7.06153554       0.07371139       5.81790827       0.00632686      -0.06129624      -0.12384127
H        7.00483814       1.67144376       5.42820074      -0.13415510       0.15155325       0.04817261
O        0.80627322       7.66253888       4.70738619      -0.23702804      -0.88616950       0.67318871
H        2.58892746       8.45785890       4.30570053      -0.48745424      -0.18752594       0.11006106
H        0.97039164       6.82394678       5.16008267      -0.01700769       0.05044965       0.06620152
O        5.67326408       2.92811683      13.02790790      -0.48493500       0.77099684       1.34787657
H        5.53074639       2.01155792      13.30589404      -0.28920552       0.04212296      -0.31956886
H        5.27684479       3.60466193      13.58301374      -0.31182962      -0.18827961       0.01240036
O        5.67271417      12.44944083       8.52650902      -0.63649886       0.30653619      -1.01086174
H        6.10363714      12.26621884       7.69020157       0.20819198      -0.32319042       0.09365500
H        5.15963067      13.21960451       8.72603217      -0.20772595       0.20923523      -0.46614317
O       11.36580740       8.92509925       5.07135139       0.07421081       0.22613493       0.00300512
H       10.80830713       8.15268683       5.12132885      -0.03156150      -0.09995273       0.20380926
H       12.29035396       8.95073414       4.70252817      -0.02848719       0.34592059      -0.08498179
O        9.90160350       6.57556861       2.94266077      -0.15476265      -1.30063992      -0.57551051
H        9.40386553       7.16924712       2.44656673      -0.31122219       0.05697602      -0.10314581
H       10.84821580       6.68159824       2.77210516      -0.04980212       0.50674142      -0.45518643
O        3.74611081      10.42465138       9.50213002       0.29275487      -1.44807036       1.00975808
H        4.57004531      10.92102536       9.44632866       0.18677375      -0.40952645       0.25043762
H        3.15208497      10.36789292       8.78606046       0.08407730      -0.19517388      -0.20123218
O        7.22440638       7.58276477      11.49725229       0.81118285       0.06441784       1.02283015
H        7.11117280       8.49745451      11.66612571       0.23999553      -0.00115776       0.06232451
H        8.05934060       7.25904874      11.15134646       0.22877153      -0.09238791       0.06515714
O        4.91927266      11.02638839      12.66161071       0.12407367       1.27329880      -0.53684269
H        4.30605945      11.15670583      13.38630964       0.08452637       0.23263932      -0.03026974
H        4.75590410      11.39255734      11.81244869       0.07220551      -0.19312406      -0.08254267
O        8.08495265       4.55570814      12.66919169      -0.34408572       0.28661849       0.69447138
H        7.18572458       4.27242412      12.67985974       0.11203931      -0.41574027      -0.18221759
H        8.30318708       5.30465612      12.14881921       0.16484405      -0.17242024      -0.14282174
O       11.33667293       8.34512251      11.78396889      -0.94253084      -0.72106238       0.10345353
H       11.99511026       8.48305924      12.45431360      -0.31020283      -0.12348215       0.41242910
H       11.16321927       9.16222915      11.31525692       0.04079724       0.02914469       0.76729841
O        5.18356837       4.12403386       2.15355027      -0.20031048       0.04108107      -0.38764896
H        5.59474464       3.80335155       2.97901159      -0.11167141       0.20864363       0.25696121
H        4.27509797       4.32028588       2.39704534      -0.09156136      -0.15756526      -0.13833164
O        1.83787478       1.06526164       8.87468551       0.22004470      -0.52095869      -0.26483993
H        2.75534018       1.00192047       8.92171613      -0.13150802      -0.07086588       0.27266612
H        1.50867142       1.43258108       9.71559303      -0.48637452      -0.37009634      -0.01305312
O        4.58790808       6.16049775      10.34912032      -0.37262460      -1.64683824       0.95771004
H        3.97776589       6.74100871       9.96297389       0.09282050      -0.28401228      -0.38641367
H        5.41047236       6.58583189      10.49120943      -0.00328623       0.07771086      -0.24564406
O        9.00031327      12.50073476       5.56172473      -0.22258760      -0.88494015      -0.35701285
H        8.53581928      11.66237217       5.61173037       0.11158434      -0.22049293      -0.10275611
H        9.88927185      12.50714767       5.89213404      -0.14890024       0.09516222       0.70628377
O        6.22441987       5.29319821       7.95058146      -1.35896508       0.65383594      -1.21462063
H        5.36863494       5.54756859       8.30557145       0.06882428       0.14119471       0.10844645
H        6.14993326       4.93286884       7.06966003      -0.00593568      -0.06829248       0.11647088
O        9.85977619      10.55778714       3.24255860       1.09301402       0.01740841       1.13264817
H       10.49120357       9.97575611       3.67837343       0.03722945      -0.07733602      -0.16156414
H       10.50632339      12.09438344       2.62027150      -0.21989119      -1.18318765      -0.25485930
O        7.35843800      12.84174935      10.59577702      -0.39439774       0.49877239      -0.55518759
H        6.94239040      13.29755836      11.33142918      -0.24418381      -0.04177840       0.07555821
H        6.93049463      12.72033149       9.77649680      -0.24447179       0.05738797       0.00211186
O        0.97110286       5.51043007      10.98237147       0.52902906       0.62148933      -0.85248015
H        0.30197439       5.57294464      10.27613033       0.00019606      -0.37267012      -0.24968720
H        1.76593616       5.19273633      10.50662145      -0.18505683      -0.36188126       0.12262456
O       10.74085346       5.91248964       5.62488195      -1.76167126       1.25470044       0.22914807
H       10.32354904       6.36194878       4.20145373       0.62166518      -0.90819408       0.87843458
H        9.88062643       5.96457323       6.05722045      -0.21153115      -0.08020731      -0.04873093
O        1.31713436       5.00734738       5.61328997       1.21045538       1.04123951      -0.02565157
H        1.22221989       4.23884410       5.02030136       0.00145926       0.25572868       0.10281996
H        0.71083468       5.05139742       6.38012032      -0.15448809      -0.04606667       0.17464840
O        5.93858132       6.94155962       1.74163181       0.57104780       0.32764165       0.06364102
H        6.48016947       7.46474994       1.14647989       0.14650034       0.05032230      -0.05936904
H        6.09666272       6.01781242       1.87183607      -0.16008554      -0.01504675       0.18130178
O        9.26817298       4.21630782       1.79746394       0.98189990       1.31718656       0.50366730
H        8.58194378       4.28126302       1.11038488       0.03977375      -0.18189808      -0.07330835
H        9.69286231       5.07371603       2.01216723       0.38013339      -0.17077911      -0.11045943
O        0.94139186       2.57095691       1.17572816      -0.32115077      -0.69082624       0.03109897
H        0.94128968       1.88561460       0.55062533       0.10010728       0.35694830      -0.25723820
H        1.60885800       2.40987547       1.87973340       0.16114230       0.06141467       0.09661523
O       12.92254275       4.77722459       7.64331387       0.78922492      -0.00209591      -0.66442764
H       13.07947890       5.32779331       8.40984539       0.11996725      -0.13587250      -0.01799737
H       12.14010893       4.96165047       7.12194814      -0.29468190      -0.09895792       0.07925662
O        7.54466920      10.01602561      12.79391106      -0.74684685      -0.70275551       0.21946289
H        6.58913703      10.20484075      12.89945760      -0.07357226       0.10625844       0.14332083
H        8.08760315      10.46547892      12.11404780      -0.01374299      -0.23375249      -0.06563844
O       10.93555430      -0.00130321       2.79194907       0.89735634       0.74908851       0.38176470
H       11.08134068       0.75580629       2.15303071      -0.15141536       0.65975995      -0.07715724
H       10.06851839       0.00866170       3.12302066      -0.02742015      -0.14484131       0.03639029
O        1.60868407       2.37564910      11.23460190      -0.16800917      -0.20582991      -0.54835747
H        2.00285131       2.02272405      12.03982825       0.16259674      -0.08745606      -0.25096299
H        1.83172343       3.23669907      10.82239355       0.47481536      -0.17109473      -0.11009212
O        4.70733662       1.84838369       8.15806878      -1.01885252       0.04587054      -1.19256381
H        4.33136377       2.30737500       8.92034930      -0.24903334      -0.09688262       0.14299821
H        5.61507613       2.17682049       8.05897546       0.04954494       0.12402297      -0.14334707
O        9.47454605      11.51007024      11.40483831      -0.27946662      -0.16683244      -0.95087599
H        8.99944165      12.25053036      11.04627195       0.07056549       0.38615411       0.15954649
H        9.84934930      11.06539972      10.61402299       0.02819768      -0.09620671       0.23444570
O        1.73203151      10.82935759      12.70240176       1.30349303       0.38241013       1.13864650
H        1.94082725      10.25017411      13.46395670       0.14632759       0.17534475      -0.08455053
H        1.02893895      10.59849260      12.05661810      -0.21685974       0.06095644      -0.15393896
O        8.49978379       0.39050207       3.16269954      -1.23757519       0.01345916      -0.25693459
H        7.96027528       1.15172778       2.92887717       0.07381126       0.02527054      -0.29220616
H        8.46992437       0.22660237       4.12004103      -0.11125113      -0.16173836       0.24181593
O        8.25469312       3.04137774       4.07505353       0.84082596      -1.08862025      -0.80013980
H        8.17765870       3.77437532       3.39268131      -0.51819510       0.06975635      -0.18272080
H        8.96295867       3.29240959       4.69559046      -0.40731964       0.36507082       0.12003669
O        2.41846190       4.95221960       1.90730968      -0.69393638       0.10392915      -0.04667150
H        1.98242256       4.11523015       1.63752814      -0.16664824      -0.03949800       0.07687028
H        2.78028656       5.35685042       1.13475379      -0.10698224      -0.16740427       0.17849228
O        0.62975212       8.74850033       8.03595700      -1.24273423       0.16655751      -0.06901267
H        1.36036583       8.37389620       7.47761641       0.16587878      -0.00063333      -0.18369886
H        0.05455475       9.27686815       7.55233235      -0.28246985      -0.10445216       0.04202991
O       11.88783639       0.76269822       6.79302942       0.15552334       0.94063803      -0.14511226
H       11.24628110       0.94846367       7.47542594      -0.00995640      -0.25349150       0.02241845
H       11.74182241       1.33227988       6.03192769      -0.26597913       0.13526349       0.10795790
O       12.56724333       7.09560101       2.32925596       0.79175269      -1.12619160      -0.33763980
H       13.08112759       7.04255395       3.11754955      -0.17356284      -0.05757673       0.30405532
H       12.84831903       6.44628434       1.65192239      -0.34717936      -0.30407079       0.02749484
O       10.54760144       9.36357273       9.33148155      -0.07445653      -0.24293192      -0.21688017
H       10.11797083       8.58384156       8.98215225      -0.63500211       0.25460772      -0.10366227
H       11.06606011       9.78168543       8.63153456       0.01783727       0.36552046       0.04659302
O        3.96286414       4.46117232       5.56341124      -0.96482697       0.08134193       1.01291801
H        3.81495318       3.51464357       5.41767150      -0.00233435      -0.01338103      -0.02136063
H        3.21847293       5.05443288       5.66548287      -0.09259745      -0.25603849      -0.02452810
O        4.62812852       3.46768798      10.43187812       0.85020286      -0.40724998       0.41821819
H        4.59095137       4.45201190      10.51243902       0.02884787       0.06462199      -0.28241638
H        5.33847900       2.98898674      10.84135845      -0.32258957      -0.00400703       0.54158807
192
Lattice="13.287817734835738 0.0 0.0 -5.291502033384736e-07 13.287817734835738 0.0 -5.291502033384736e-07 -5.291502033384736e-07 13.287817734835738" Properties=species:S:1:pos:R:3:momenta:R:3 step=140 time_fs=14.0 phase=production pbc="T T T"
O       10.30357931       0.35686350       9.51122862       1.96579368      -0.09073863       0.66916884
H       10.97506065       0.76048831      10.02396708      -0.23000716       0.74233329      -0.19904055
H        9.46536505       0.65133322       9.90678049       0.15623951       0.23807762      -0.12410539
O       11.36172563       2.58702969       2.54387831       0.92357464       0.12251506       0.78420848
H       10.69012944       3.12991631       2.10893903      -0.08831056      -0.02665799      -0.01552287
H       12.21460071       2.99740236       2.45995913       0.02903070      -0.09755472       0.24658445
O        3.06512478       8.22895043      10.79503524       0.63936659      -0.25934475      -1.15380637
H        2.17187404       8.46040203      10.47878394       0.14531556       0.33124721      -0.23341740
H        3.64929314       8.91145963      10.45092670      -0.04855711      -0.28838647      -0.32305907
O        8.85964158       6.27667022       7.64085962      -0.26877946       1.14188190       0.70090666
H        9.32847408       5.89611898       8.39736200      -0.13599973      -0.04144611       0.05885274
H        7.98745115       6.02623070       7.47639573      -0.00084516      -0.04878951       0.02796171
O        6.71431826      13.52366152      -0.04728122       0.89348650       0.80762321      -0.90597062
H        6.42231896      12.66288904       0.15103612      -0.30128173       0.21162865       0.56376006
H        7.09081596      13.84731966       0.81015453      -0.18143659      -0.11623147       0.03758568
O       12.52415975       6.80575116       9.61916619       0.24483434      -1.00445501       0.36934494
H       11.70268563       7.15312064       9.93519346      -0.17348703      -0.03265664      -0.20486265
H       12.93804402       7.22844206       8.87135312      -0.06417227      -0.02842584      -0.17595950
O        7.74598737       9.79059681       5.19580936       0.03264817       0.36099018      -0.51965842
H        7.48756205       8.99132979       5.61080505      -0.11289006       0.24572864       0.41375222
H        7.77052299       9.75705200       4.21612801      -0.35258785      -0.11803477       0.08458862
O        0.55167396      12.81980107       3.25361239      -1.61733848       0.58481574      -0.14557566
H       -0.38070042      12.73158532       3.16219453      -0.05662566      -0.05443532      -0.32043173
H        1.10314781      12.60147404       2.48592279       0.24307916      -0.52570102       0.24922507
O        8.96729451       8.50990239       1.40762918       0.07496014      -0.83343214      -0.41355695
H        8.91011748       8.54321569       0.45595699      -0.03499097      -0.30771383      -0.04930400
H        9.15900442       9.36338542       1.62686762       0.09977761       0.54342907      -0.06622759
O        3.64696159       7.79254664       3.67970003       0.37107200      -0.00124703      -1.46260861
H        3.77421847       7.58480247       4.57533704       0.11367780       0.63212248       0.09138920
H        3.18211278       7.19793515       3.11394286       0.31974730      -0.15600403       0.18158615
O        9.77835979       6.67077226      10.73474685      -0.64920520       0.28030244       0.26916074
H       10.06894123       5.74545018      10.91094791      -0.10521983       0.11052836       0.50460903
H       10.06828163       7.40774636      11.26400351       0.00823266       0.03944755       0.19340302
O        2.82843495       1.84640035       6.15943160       0.43787449       1.21164110      -1.00429363
H        3.76369920       1.72720050       6.03138371      -0.22492898      -0.00782660      -0.11758068
H        2.13624448       1.23711771       6.42587952       0.19993182       0.07433404      -0.16731513
O       11.01285164       3.07529483       5.44449114       1.13294562       0.53944240       0.86663711
H       10.91218344       3.74543948       6.17137177       0.39346417      -0.09812117       0.07642150
H       11.68453791       2.98919807       4.76825251      -0.15940955       0.23386208       0.09031484
O       11.57815383       3.86439988      11.25052040       0.12871915       0.14068625       0.30383485
H       11.93655399       3.90500575      10.38494156      -0.03977865       0.07510458       0.22879511
H       11.65005170       3.10419594      11.82394471      -0.05710283      -0.00422198       0.13581896
O       11.86896659      10.87882480       7.36735339      -0.48227898       0.64655726       0.24471089
H       11.85451960      10.16162934       6.74514798       0.07997217       0.04961147      -0.04215096
H       11.83717622      11.79845003       7.06954740      -0.13833255       0.04090847      -0.01330762
O        3.83159146       7.69309964       0.31627188       0.11162197      -0.14429946      -0.32249421
H        4.03296444       7.51066330      -0.60404637       0.06696154       0.07522652      -0.24624688
H        4.62495264       7.57720961       0.83736297       0.19828503      -0.05501414       0.08738781
O       11.68611091      12.55682495      12.84937292       1.56423240       0.46784445       0.02273581
H       11.23333836      12.03389607      12.18326310       0.42108572      -0.13544710      -0.09576673
H       11.46051784      12.46639476      13.79495688      -0.16336249       0.21490830      -0.15085172
O        3.15824081       9.93781204       1.52348837      -0.53823093      -0.71556788      -0.79613615
H        3.08530737       9.66846227       2.47899473      -0.10780809       0.65385919       0.01736394
H        3.62752408       9.13309792       1.19299056       0.08933027       0.20865307       0.19064456
O        0.21860375       9.88861532      10.51260141       0.75403123       0.22871509      -0.62209984
H        0.68670146       9.85383989       9.66087972       0.03440726       0.32375951      -0.35160126
H       -0.36756450      10.61713366      10.65761193       0.26332788       0.03145163       0.20088883
O        1.56156628       2.09435705       3.61677594       0.24768187       0.40008458      -0.09903151
H        1.50037204       1.15628213       3.46083968      -0.27318424       0.10606671       0.01142340
H        1.70294996       2.30332546       4.53717249      -0.06839633      -0.30160346      -0.02327111
O        0.98631778       7.30032445      13.08118305      -1.03319001      -1.14081936      -0.47740355
H        0.73087235       6.69615918      12.36521674       0.13887586       0.19342495      -0.07160211
H        1.95935222       7.23959283      13.17378288       0.03212985      -0.24880320      -0.19527664
O        0.66936498      12.41876874       6.00958763       0.41113912       0.05628895       0.19966410
H        0.98398179      12.06759708       5.16323515       0.03669693      -0.34955676       0.28486000
H       -0.22510240      12.81099660       6.01101948      -0.10967297      -0.62989794      -0.27842551
O        1.70917495      11.67393663       8.26525233       1.34849173       0.58216245       0.61431379
H        1.52047471      11.78661114       7.33355249       0.16690333      -0.01510062       0.10080398
H        1.70402516      12.41481169       8.90888607       0.15467436       0.06966662      -0.28811054
O        0.83239582      13.25411121       0.41231403      -0.29783937      -0.21015702      -0.24304613
H        1.59053299      12.68192748       0.21307715       0.01529794      -0.20813079       0.23046667
H       -0.02624358      12.98930342       0.09781939      -0.03161046      -0.13160954      -0.09215921
O        6.70467976       0.94389588       5.97028037      -0.34612547       0.34153107       1.63486653
H        7.06361886       0.06683234       5.80428503       0.03036769      -0.06193562      -0.15155854
H        6.99363577       1.68782677       5.43154509      -0.10026728       0.17085047       0.03147857
O        0.80478272       7.65685845       4.71154169      -0.25098696      -0.92689536       0.68301461
H        2.56308478       8.41892672       4.30247018      -0.04784886      -0.60061274      -0.17326294
H        0.96883702       6.83005016       5.16668942      -0.01245086       0.05864884       0.07822764
O        5.67027707       2.93289325      13.03601496      -0.46640407       0.79241189       1.31972711
H        5.50269849       2.01761268      13.27484252      -0.28640905       0.07276694      -0.31300658
H        5.24652196       3.58435516      13.58483548      -0.31459495      -0.21763197       0.03418968
O        5.66868529      12.45103787       8.52055028      -0.66691958       0.26010051      -0.90999889
H        6.12247954      12.23600376       7.69837046       0.17676687      -0.29316945       0.08002676
H        5.14001331      13.24111668       8.67715917      -0.18501376       0.22113979      -0.53774525
O       11.36683884       8.92658980       5.07080924       0.27719233       0.28044347      -0.16115158
H       10.80958308       8.14571938       5.14135411       0.06543837      -0.03596065       0.20437352
H       12.27329349       8.97945974       4.70064973      -0.30613667       0.24088838       0.04193378
O        9.90165628       6.56692984       2.94022063       0.20470120      -1.47759435      -0.21128641
H        9.36933903       7.17907388       2.43285598      -0.36985964       0.11594035      -0.15195189
H       10.83825377       6.72946404       2.72846740      -0.16365249       0.46441071      -0.42143717
O        3.74815660      10.41557154       9.50862560       0.36413991      -1.48383051       1.11370191
H        4.58626351      10.88202219       9.46832650       0.14791730      -0.38810702       0.20058943
H        3.15796496      10.35157615       8.76208563       0.05569126      -0.13577410      -0.26837393
O        7.22928483       7.58255893      11.50341624       0.81451985      -0.10764377       1.01045540
H        7.13481382       8.50491513      11.67342103       0.24745202       0.14605582       0.08776892
H        8.08077904       7.25121528      11.15720344       0.19428179      -0.06046934       0.06442756
O        4.92036068      11.03393450      12.65850897       0.24688017       1.21371367      -0.43773468
H        4.31225984      11.18060553      13.38070689       0.04123736       0.26019147      -0.08055749
H        4.75864496      11.37477429      11.80165391      -0.01576842      -0.16872225      -0.13979757
O        8.08301841       4.55724819      12.67373907      -0.26927550       0.23034522       0.81879331
H        7.19153095       4.23001981      12.66123215       0.01711710      -0.44956155      -0.19913427
H        8.31954963       5.29120265      12.13122982       0.16886089      -0.10981215      -0.21218524
O       11.33089196       8.34066087      11.78457464      -0.89116651      -0.74852678       0.15847823
H       11.96551883       8.46873907      12.49582221      -0.30135127      -0.17304015       0.43439406
H       11.16583350       9.16766576      11.38848584       0.00423973       0.12745852       0.71253825
O        5.18234076       4.12420684       2.15146818      -0.18490033       0.02537879      -0.27647807
H        5.58229762       3.82553136       2.99972249      -0.14532875       0.24882594       0.16099209
H        4.26600571       4.30477278       2.38227824      -0.09213206      -0.16018835      -0.16539594
O        1.83835778       1.06203693       8.87310679      -0.05667726      -0.52605987      -0.22281049
H        2.75568028       0.99461920       8.94911946       0.13427974      -0.07852356       0.29276116
H        1.46129036       1.39534630       9.71112995      -0.48230350      -0.39413434      -0.07990412
O        4.58569534       6.14981453      10.35510491      -0.33117777      -1.79384469       1.01602361
H        3.97864786       6.72038380       9.92047253      -0.06058958      -0.15104523      -0.47626514
H        5.41772511       6.59638565      10.46980897       0.13523812       0.13079822      -0.19508032
O        8.99881418      12.49516344       5.55949058      -0.23164510      -0.90323286      -0.34890443
H        8.54931124      11.64174778       5.60168658       0.17078861      -0.19287293      -0.10284320
H        9.87396719      12.51582093       5.96163233      -0.17618179       0.08526258       0.71390118
O        6.21606944       5.29721119       7.94314148      -1.33553788       0.67322587      -1.17243375
H        5.37611318       5.56174550       8.31567762       0.07899794       0.15250021       0.10237214
H        6.14781454       4.92523771       7.07830907      -0.03830574      -0.09459378       0.04559765
O        9.86666417      10.55807408       3.24944179       1.17274952       0.12580022       1.10470463
H       10.49373693       9.96799733       3.66267940       0.02760977      -0.09164545      -0.15186280
H       10.49004434      11.98575624       2.59806710      -0.11638626      -1.06086290      -0.19752416
O        7.35619698      12.84484661      10.59281493      -0.33039879       0.54921467      -0.38518362
H        6.91923742      13.29235432      11.33631967      -0.22292966      -0.06831026       0.01751179
H        6.90245560      12.72514014       9.77138732      -0.32085494       0.04549323      -0.09111643
O        0.97436915       5.51406155      10.97649003       0.52035807       0.57980345      -1.02989238
H        0.30535958       5.53767070      10.25793679       0.07091795      -0.34856598      -0.11766652
H        1.74514611       5.15944571      10.52276335      -0.22610386      -0.32535724       0.20277318
O       10.72984309       5.91995018       5.62698989      -1.78602146       1.17264465       0.53559969
H       10.37546043       6.28180896       4.25431507       0.41076957      -0.69813307       0.07833453
H        9.86104484       5.95548943       6.05920549      -0.18438387      -0.11117005       0.11222991
O        1.32439560       5.01373096       5.61316306       1.14996109       1.06396990       0.02078420
H        1.22165963       4.26677640       5.03429959      -0.01416216       0.30525509       0.17381488
H        0.70039482       5.04526477       6.39035957      -0.05014879      -0.07747671       0.02528661
O        5.94200060       6.94380092       1.74197288       0.56526410       0.42006434       0.04808598
H        6.49439880       7.46679474       1.14263640       0.14115735      -0.01271237      -0.01342383
H        6.08202511       6.01444474       1.88906654      -0.14007155      -0.04658079       0.17125685
O        9.27419753       4.22466327       1.80052742       1.00060846       1.40001170       0.49435895
H        8.58871203       4.26433220       1.10480985       0.10338826      -0.16230254      -0.03787418
H        9.72581412       5.05164017       1.99980846       0.30449525      -0.26496649      -0.13892656
O        0.93986581       2.56718253       1.17697158      -0.17006113      -0.53620934       0.37877908
H        0.95128901       1.91164469       0.51726892       0.10672640       0.18192525      -0.42353594
H        1.61549486       2.41586105       1.88159248      -0.02960983       0.06114213      -0.06329965
O       12.92710353       4.77709098       7.63892094       0.71811610      -0.02837548      -0.75519516
H       13.09018748       5.31413439       8.40745405       0.10245914      -0.14119210      -0.02681676
H       12.11422868       4.95128927       7.13368652      -0.22083498      -0.11543992       0.16993682
O        7.53989786      10.01167441      12.79496532      -0.78946899      -0.69018198       0.16274447
H        6.58790415      10.21514999      12.91181178       0.04905656       0.10687697       0.11200944
H        8.08290685      10.44077440      12.11130703      -0.07852496      -0.26801972       0.00736406
O       10.94127301       0.00317683       2.79331232       0.98446455       0.72115774       0.06904243
H       11.06324699       0.80932374       2.15668271      -0.21851777       0.42973197       0.16010895
H       10.06126144      -0.00301890       3.12873577      -0.10660964      -0.08835950       0.07744115
O        1.60772712       2.37471290      11.23082480      -0.14520406      -0.09590827      -0.65880361
H        2.01868814       2.01654144      12.01261147       0.16763169      -0.04410415      -0.29509065
H        1.87671722       3.21191746      10.81829763       0.44955346      -0.32916910       0.02441711
O        4.70145711       1.84887296       8.15090789      -0.87931762       0.12777746      -1.10678317
H        4.31088469       2.29614253       8.93076967      -0.16184122      -0.13945804       0.05893690
H        5.61041712       2.18699023       8.04542622      -0.15643500       0.08155301      -0.13067325
O        9.47290784      11.50869483      11.39868106      -0.24456341      -0.22536469      -1.01820095
H        9.00437552      12.28962005      11.06178201       0.04442376       0.39771722       0.16754820
H        9.85117674      11.05648378      10.63983909       0.01457945      -0.08904933       0.28571357
O        1.73979431      10.83152077      12.70925643       1.21325282       0.36046129       1.10216208
H        1.95209424      10.26910614      13.45062766       0.08886714       0.20279653      -0.17152299
H        1.01436011      10.60410379      12.04768283      -0.06916967       0.05948657      -0.01587110
O        8.49192246       0.39065262       3.16154509      -1.29929710       0.03363192      -0.09460983
H        7.96925909       1.15265302       2.90098389       0.11213160      -0.00718296      -0.27737897
H        8.45893229       0.21190012       4.13560075      -0.11356220      -0.13470142       0.06007322
O        8.26004278       3.03532359       4.06976898       0.90807747      -0.87477092      -0.92637535
H        8.12935969       3.77168044       3.38349624      -0.46795597      -0.12882075      -0.00146640
H        8.91839698       3.32651286       4.70284610      -0.49117757       0.33941229       0.03973822
O        2.41403390       4.95245154       1.90727321      -0.75125554      -0.02607226       0.05962404
H        1.96755425       4.11635328       1.64627241      -0.13836333       0.06351700       0.10309970
H        2.77084818       5.34440090       1.14695342      -0.07652146      -0.07587678       0.05212097
O        0.62331066       8.74861516       8.03558780      -0.86454668      -0.08924523      -0.05357967
H        1.36662604       8.37906174       7.46500082      -0.04850810       0.11316583      -0.06727675
H        0.01838774       9.27557197       7.54926135      -0.43706081       0.05806523      -0.08510366
O       11.88870211       0.76854787       6.79193851       0.16085084       0.96527611      -0.19140220
H       11.24496608       0.92314328       7.47753416      -0.01623405      -0.26644420       0.02409057
H       11.71531353       1.34518141       6.04304137      -0.27529805       0.13045964       0.11770824
O       12.57199188       7.08830252       2.32665567       0.79732908      -1.23090565      -0.48254614
H       13.06586211       7.03641646       3.14916908      -0.14747355      -0.06736372       0.32271301
H       12.81341766       6.42262588       1.65989511      -0.36437423      -0.18185933       0.13840300
O       10.54715062       9.36201647       9.33001335      -0.04394781      -0.24156164      -0.24817025
H       10.05581654       8.61100105       8.97099022      -0.62973226       0.31571504      -0.12015512
H       11.06570206       9.81679457       8.63742023      -0.03145432       0.34783325       0.08462463
O        3.95704979       4.46149952       5.56939455      -0.90411538       0.03594072       0.95112603
H        3.81359551       3.51955149       5.41798836      -0.02554743       0.10447937       0.02665874
H        3.20813328       5.02727322       5.66310811      -0.13301616      -0.28867485      -0.02118130
O        4.63310035       3.46546847      10.43423361       0.77840946      -0.30685282       0.37399813
H        4.59559678       4.44897615      10.48498524       0.06694360      -0.12338819      -0.27760607
H        5.30798861       2.99051673      10.89623621      -0.29824476       0.03365211       0.58796105
192
Lattice="13.28765266386492 0.0 0.0 -5.291436298484155e-07 13.28765266386492 0.0 -5.291436298484155e-07 -5.291436298484155e-07 13.28765266386492" Properties=species:S:1:pos:R:3:momenta:R:3 step=150 time_fs=15.0 phase=production pbc="T T T"
O       10.31486325       0.35637760       9.51529226       1.76601446      -0.06171822       0.69461257
H       10.96149106       0.83672169      10.00612971      -0.05018751       0.81878761      -0.17120691
H        9.48155410       0.67002827       9.89157054       0.16819917       0.14515797      -0.18018644
O       11.36695900       2.58766855       2.54867311       0.81837262       0.09753916       0.78460036
H       10.68353843       3.12765865       2.10897848      -0.03701023      -0.02504228       0.02024059
H       12.21981150       2.99054246       2.48338033       0.08298392      -0.04243501       0.23310555
O        3.06884610       8.22726638      10.78778257       0.57256474      -0.26862117      -1.15911854
H        2.18807812       8.49154203      10.45801173       0.18504583       0.30839269      -0.18952532
H        3.64492228       8.88397352      10.41893369      -0.02516740      -0.25970507      -0.33795593
O        8.85877502       6.28378757       7.64530000       0.00246903       1.19727762       0.77158132
H        9.31146833       5.89285920       8.40197608      -0.20867739      -0.02380183       0.03787974
H        7.97494629       6.01752860       7.47874593      -0.23448874      -0.12286215       0.02345811
O        6.72001927      13.52890045      -0.05255256       0.97839765       0.92722017      -0.81273722
H        6.38934270      12.67683393       0.20672332      -0.36641062       0.09925354       0.57222309
H        7.07204310      13.83507035       0.80853375      -0.19699822      -0.12647662      -0.06266775
O       12.52569324       6.79943926       9.62125720       0.30301891      -1.01316335       0.34170081
H       11.68562258       7.15079159       9.91495853      -0.16467160      -0.01737424      -0.21117929
H       12.93072466       7.22741220       8.85534332      -0.08911166       0.00155044      -0.13796130
O        7.74614845       9.79320601       5.19165834       0.04677789       0.51653454      -0.77092863
H        7.47369854       9.00970035       5.65431221      -0.16417303       0.14437797       0.47214323
H        7.73553746       9.74391239       4.23556865      -0.36202495      -0.15172919       0.28282394
O        0.54208979      12.82332257       3.25256913      -1.50096825       0.61022961      -0.18897179
H       -0.38957821      12.72524789       3.12920438      -0.12165019      -0.07230920      -0.35556626
H        1.12349175      12.54971378       2.51348099       0.16763670      -0.52917135       0.32392527
O        8.96742771       8.50403784       1.40493259       0.02259869      -0.95524845      -0.45575073
H        8.90537145       8.51045302       0.44603756      -0.05893403      -0.36225255      -0.13193313
H        9.17212492       9.42962274       1.62698298       0.15338180       0.73177952       0.04429896
O        3.64814349       7.79338047       3.67012252       0.05498685       0.30722101      -1.57520902
H        3.78581319       7.64298451       4.59714530       0.13427287       0.56658485       0.31122288
H        3.21247268       7.18395284       3.13515458       0.29340467      -0.15966216       0.22645244
O        9.77424920       6.67215568      10.73636050      -0.64933770       0.20937310       0.30441193
H       10.05740402       5.76377033      10.96017380      -0.12725490       0.25915301       0.50763540
H       10.06847064       7.40531849      11.28216323      -0.00444946      -0.09124315       0.17776525
O        2.83078336       1.85426559       6.15306653       0.32599342       1.36810470      -1.04409321
H        3.74299442       1.72059677       6.02120838      -0.17377534      -0.12866014      -0.09458091
H        2.15854357       1.24181724       6.40980100       0.24547999       0.01453155      -0.15719716
O       11.01961880       3.07857274       5.45004020       1.10179096       0.52758819       0.96334644
H       10.95332129       3.73142129       6.16892031       0.44916517      -0.17403199      -0.10788981
H       11.66726450       3.01490280       4.77867093      -0.17523045       0.29116893       0.10899856
O       11.57847490       3.86552014      11.25266085       0.01325260       0.22808467       0.47115669
H       11.93612552       3.90947524      10.40235287       0.04469564       0.01912730       0.10644898
H       11.64586153       3.10193759      11.83569922      -0.02693270      -0.03095887       0.10081311
O       11.86581843      10.88268102       7.36881047      -0.49495715       0.65070049       0.25709979
H       11.86129387      10.16839300       6.73907106       0.06094994       0.09386806      -0.07881586
H       11.82345201      11.79958652       7.06865312      -0.14039821      -0.01331793      -0.00293307
O        3.83229740       7.69197659       0.31422199       0.15530026      -0.19599678      -0.35433592
H        4.03873713       7.51882114      -0.62628160       0.04843847       0.09820064      -0.18546106
H        4.64265572       7.57098610       0.84447823       0.14764386      -0.06794809       0.04421413
O       11.69557617      12.55963079      12.84965943       1.56809815       0.49831844       0.10996670
H       11.27358430      12.01972712      12.17527325       0.40770777      -0.15185647      -0.06467606
H       11.44337525      12.48564154      13.77463488      -0.18778836       0.18168261      -0.24983249
O        3.15519199       9.93268873       1.51886147      -0.45755714      -0.88048331      -0.70424403
H        3.07361069       9.73544378       2.47582529      -0.13215849       0.71853989      -0.07223316
H        3.63201806       9.16051367       1.21251289       0.01983974       0.32737524       0.19888221
O        0.22367683       9.88969766      10.50819193       0.90925541       0.16153901      -0.78873106
H        0.68508183       9.88652880       9.63365644      -0.07519644       0.34862061      -0.18817189
H       -0.34401563      10.62284425      10.67697108       0.21728443       0.09123805       0.20017142
O        1.56306064       2.09694733       3.61599401       0.24504350       0.45382024      -0.14669929
H        1.47346490       1.16259337       3.46190474      -0.27966920       0.01916885       0.00834364
H        1.69673984       2.27384782       4.53783765      -0.05714694      -0.29917670       0.04672297
O        0.98030520       7.29312462      13.07803078      -0.91422075      -1.16005509      -0.47903580
H        0.74490743       6.71539699      12.35971799       0.14022525       0.18691740      -0.05785928
H        1.95692363       7.21630351      13.15469386      -0.07918820      -0.22551840      -0.19099499
O        0.67149903      12.41906947       6.01041359       0.29894924       0.08884670       0.10897875
H        0.98563087      12.03528722       5.19456639       0.00565233      -0.31815274       0.34201550
H       -0.22862366      12.74739102       5.98488702       0.01609123      -0.66128526      -0.25423186
O        1.71749798      11.67742565       8.26931418       1.37221159       0.58133652       0.73585940
H        1.53726455      11.78609693       7.34469915       0.17565739       0.00863170       0.11776082
H        1.71826902      12.41919397       8.87457349       0.13768583       0.04196106      -0.39600002
O        0.83084053      13.25264066       0.41076603      -0.20653009      -0.22160644      -0.26258923
H        1.58757803      12.66210268       0.23563250      -0.07974712      -0.19134021       0.23301251
H       -0.02786739      12.97569501       0.08941409       0.00374993      -0.14193893      -0.07696701
O        6.70242127       0.94596637       5.98024122      -0.35268314       0.33521850       1.62294241
H        7.06601708       0.06470883       5.78889925       0.01532062       0.03044270      -0.15966467
H        6.98410849       1.70214921       5.43605394      -0.09799022       0.11276847       0.07023013
O        0.80312022       7.65116099       4.71557138      -0.28872710      -0.89006086       0.64445576
H        2.57612003       8.34470728       4.27312417       0.29197824      -0.89295340      -0.41845444
H        0.96841217       6.83247681       5.17650930       0.00732755      -0.01421324       0.12872375
O        5.66748530       2.93778708      13.04375617      -0.41631568       0.81434212       1.25063534
H        5.47465495       2.02398096      13.24494570      -0.28824388       0.05141092      -0.29632517
H        5.21458104       3.56386628      13.59046395      -0.34258231      -0.19571903       0.08822082
O        5.66434406      12.45250447       8.51509546      -0.72831062       0.27689237      -0.83887410
H        6.13740135      12.20911813       7.70661591       0.12838845      -0.25427039       0.09597304
H        5.12499106      13.26015927       8.62091064      -0.11535834       0.16310304      -0.61363648
O       11.36860568       8.92836931       5.06942408       0.29720087       0.34119239      -0.24807788
H       10.82120276       8.14544329       5.16057404       0.17114561       0.02574832       0.19240522
H       12.23634295       8.99714833       4.70814180      -0.40014700       0.12530826       0.09345974
O        9.90387792       6.55749606       2.93995253       0.53298540      -1.54740895       0.10829545
H        9.33579891       7.18688246       2.42096117      -0.30156810       0.02831216      -0.07654923
H       10.81528482       6.77011775       2.69267553      -0.30141382       0.37442684      -0.32025021
O        3.75028249      10.40619179       9.51538021       0.32780169      -1.53057836       1.10754933
H        4.59905802      10.84526446       9.48495621       0.11778410      -0.36327326       0.14244078
H        3.16606020      10.34153184       8.73748571       0.12472774      -0.06671810      -0.21597942
O        7.23440321       7.58143512      11.50938462       0.88875836      -0.20800167       0.98064115
H        7.15957004       8.52238406      11.68240338       0.26428101       0.19182496       0.09556749
H        8.09429539       7.24808073      11.16475546       0.07621047       0.00085390       0.09675253
O        4.92221694      11.04106985      12.65593326       0.37707897       1.15774577      -0.35716183
H        4.31372989      11.20721197      13.37066612      -0.01047235       0.28859531      -0.12066495
H        4.75285805      11.35931086      11.78526845      -0.09986847      -0.14793079      -0.18772881
O        8.08137301       4.55848885      12.67891282      -0.24448890       0.19642044       0.91001791
H        7.19145408       4.18593111      12.64061357      -0.00135113      -0.44669924      -0.22114440
H        8.33501552       5.28122132      12.10844353       0.14552299      -0.10501103      -0.24449884
O       11.32566491       8.33549374      11.78592580      -0.75830750      -0.89776765       0.33688970
H       11.93477482       8.44852947      12.53695863      -0.33330148      -0.24175658       0.40341976
H       11.16269024       9.19172128      11.45162122      -0.06585636       0.36748698       0.58866521
O        5.18117959       4.12426305       2.15014695      -0.17439652       0.01120364      -0.14749905
H        5.56627692       3.85173264       3.00981510      -0.17987742       0.28809520       0.04930917
H        4.25724071       4.28900912       2.36463214      -0.08705859      -0.16179205      -0.19649415
O        1.83740636       1.05875685       8.87178589      -0.21089882      -0.54182162      -0.17013972
H        2.77654430       0.98696204       8.97855963       0.25620675      -0.07521959       0.31202695
H        1.41525561       1.35587068       9.69962880      -0.45912202      -0.41437393      -0.15292647
O        4.58378070       6.13874122      10.36124656      -0.27283356      -1.75094333       1.00983980
H        3.97016653       6.70756780       9.87293375      -0.08607227      -0.13359588      -0.47608030
H        5.43190120       6.60868502      10.45222944       0.12979571       0.10857700      -0.16649040
O        8.99740324      12.48932765       5.55741032      -0.18143087      -0.94821927      -0.29927487
H        8.56928868      11.62551248       5.59149936       0.24096484      -0.13590267      -0.10517628
H        9.85250319      12.52355563       6.02968870      -0.27133391       0.07700953       0.67684408
O        6.20796858       5.30138368       7.93610224      -1.27478035       0.70635408      -1.09062955
H        5.38298913       5.57740265       8.32560161       0.06104402       0.17056542       0.10363356
H        6.14209351       4.91363018       7.07688113      -0.07831612      -0.14167550      -0.07081588
O        9.87386935      10.55917014       3.25597334       1.20314360       0.25722264       1.04047835
H       10.49807378       9.95606190       3.64987687       0.06780353      -0.15291839      -0.10749720
H       10.48185033      11.89169013       2.58307285      -0.03519521      -0.77713581      -0.10125013
O        7.35403662      12.84824289      10.59069131      -0.35875663       0.60811871      -0.27991151
H        6.89979558      13.28327613      11.33345219      -0.17117969      -0.11592654      -0.07566598
H        6.87003859      12.72942466       9.76196784      -0.32969362       0.04840415      -0.08051014
O        0.97728371       5.51750040      10.96962142       0.42112022       0.56972356      -1.14785327
H        0.31518019       5.50528127      10.25277516       0.12327948      -0.31284333       0.00821534
H        1.72531272       5.12786286      10.54412778      -0.16181493      -0.32992827       0.22879901
O       10.71867397       5.92666785       5.63182326      -1.83330890       1.04914248       1.05707804
H       10.39848772       6.22962617       4.20311030       0.07372984      -0.38867789      -1.06537800
H        9.84680720       5.94264801       6.07878871      -0.08422421      -0.14327304       0.25305906
O        1.33119271       5.02050433       5.61365483       1.07327495       1.18271478       0.17852805
H        1.21906520       4.29470193       5.05097302      -0.04022392       0.24496125       0.14937983
H        0.70180185       5.03657859       6.38421907       0.07832480      -0.09728408      -0.14479220
O        5.94544734       6.94651287       1.74217008       0.58307104       0.48379660       0.02482299
H        6.50697104       7.46154251       1.14445881       0.11817134      -0.09351011       0.05140642
H        6.06907176       6.01004036       1.90487067      -0.12484368      -0.03472592       0.15198617
O        9.28017776       4.23317019       1.80344985       0.97479024       1.36632554       0.46246898
H        8.60197959       4.24988686       1.10306236       0.16871116      -0.13229563      -0.00005565
H        9.75383131       5.02575971       1.98595841       0.28329522      -0.24422365      -0.14050308
O        0.93922404       2.56415549       1.18012082      -0.04840027      -0.45820817       0.61442225
H        0.96223580       1.92398303       0.47104813       0.11832706       0.09427906      -0.50073415
H        1.60387195       2.42127536       1.86815485      -0.19488771       0.04657188      -0.19831061
O       12.93099226       4.77676060       7.63380427       0.59882229      -0.06217021      -0.88328968
H       13.09933648       5.30068716       8.40514925       0.08979089      -0.13064333      -0.01429260
H       12.09830574       4.93884446       7.15549804      -0.10170060      -0.13832892       0.27943578
O        7.53481351      10.00727323      12.79571842      -0.83437129      -0.71125473       0.14265232
H        6.59755246      10.22563063      12.92105915       0.14069186       0.11285625       0.08196992
H        8.07311862      10.41403766      12.11385242      -0.11300349      -0.27133960       0.03799211
O       10.94724213       0.00762397       2.79283315       0.97278756       0.68869025      -0.21131161
H       11.03859898       0.83837644       2.18421852      -0.28372381       0.15770672       0.40408367
H       10.05226461      -0.01240101       3.13504945      -0.04861927      -0.13036800       0.03551979
O        1.60674376       2.37430336      11.22621743      -0.18251302      -0.04388875      -0.79800093
H        2.03664625       2.01285069      11.98446544       0.20794278      -0.03883495      -0.26617390
H        1.92002742       3.17548273      10.82538293       0.44679688      -0.39466567       0.11113404
O        4.69632283       1.84990052       8.14437455      -0.79727717       0.20332726      -0.98843711
H        4.30034473       2.27982491       8.93066305      -0.05545584      -0.19236128      -0.05588300
H        5.58585642       2.19316204       8.03337818      -0.32056639       0.05430276      -0.11689189
O        9.47115218      11.50736236      11.39219646      -0.30400411      -0.13875746      -1.03722542
H        9.01003146      12.32400748      11.07976124       0.08294076       0.29406071       0.20800250
H        9.85287711      11.04678521      10.66699216       0.02843533      -0.11368321       0.26015861
O        1.74675007      10.83371975      12.71537035       1.05235568       0.41630294       0.91878777
H        1.95904435      10.28661343      13.43384147       0.06007204       0.14258112      -0.14872851
H        1.01674298      10.61013394      12.05442402       0.11972913       0.06673828       0.15846134
O        8.48368422       0.39085825       3.16154842      -1.34574673       0.03029916       0.10644712
H        7.98153523       1.15068722       2.87493513       0.13762255      -0.02831296      -0.25688751
H        8.44744465       0.20095558       4.13036005      -0.12152310      -0.08827940      -0.16309238
O        8.26545652       3.03048500       4.06342834       0.87238097      -0.70304791      -1.13074604
H        8.08659310       3.74945077       3.39192444      -0.40873976      -0.31812249       0.16742278
H        8.87031184       3.35957389       4.70604343      -0.47680753       0.34723928       0.04459468
O        2.40915946       4.95177870       1.90812577      -0.82088674      -0.16361164       0.22438054
H        1.95499328       4.12676889       1.65738013      -0.12309751       0.14330773       0.12288274
H        2.76617275       5.34290890       1.14310337      -0.02063800       0.04407366      -0.12711790
O        0.61879724       8.74753851       8.03484547      -0.63923599      -0.19670543      -0.17281422
H        1.35043364       8.39585884       7.46457262      -0.27661585       0.22961376       0.05614628
H       -0.02480016       9.28282533       7.54011959      -0.41911970       0.06751774      -0.07807631
O       11.88957883       0.77451606       6.79054622       0.17311731       0.98088296      -0.23362443
H       11.24278670       0.89640012       7.48025560      -0.02529709      -0.28295328       0.03449266
H       11.68811136       1.35779397       6.05415911      -0.27888455       0.12889535       0.10958454
O       12.57681923       7.08043343       2.32358381       0.82505882      -1.28843847      -0.48057445
H       13.05053058       7.02928565       3.17666091      -0.16996950      -0.07658416       0.22817107
H       12.77797891       6.40917253       1.67772869      -0.35130594      -0.10685445       0.21254750
O       10.54681019       9.36037360       9.32812685      -0.02872148      -0.25831346      -0.33387954
H        9.99672086       8.64697829       8.95923861      -0.57304659       0.43087790      -0.11586911
H       11.05860586       9.84797315       8.64898859      -0.11409013       0.29047703       0.15738508
O        3.95184615       4.46159127       5.57498922      -0.76400134       0.02346373       0.89634099
H        3.80964491       3.53161722       5.42210336      -0.05613783       0.12283930       0.05513560
H        3.19004211       5.00014540       5.66162404      -0.24697346      -0.25828307      -0.00605272
O        4.63758453       3.46373904      10.43622546       0.70352884      -0.25920266       0.31660780
H        4.60377498       4.42985682      10.45843617       0.10097629      -0.25084635      -0.26313989
H        5.28051414       2.99534571      10.95570972      -0.26518174       0.06683558       0.63378567
192
Lattice="13.287436309028537 0.0 0.0 -5.291350141217439e-07 13.287436309028537 0.0 -5.291350141217439e-07 -5.291350141217439e-07 13.287436309028537" Properties=species:S:1:pos:R:3:momenta:R:3 step=160 time_fs=16.0 phase=production pbc="T T T"
O       10.32529251       0.35624819       9.51959534       1.71953938       0.04103136       0.77139088
H       10.96168585       0.91752874       9.98751281       0.03288031       0.81935621      -0.22627198
H        9.49594470       0.67971971       9.87248425       0.12165121       0.05520899      -0.20277576
O       11.37140873       2.58816497       2.55340691       0.69406522       0.07925322       0.76986679
H       10.68356154       3.12385979       2.11315178       0.04334496      -0.05477257       0.06661113
H       12.23027516       2.98855639       2.50506516       0.13174783      -0.00074504       0.21231838
O        3.07196802       8.22531062      10.78054798       0.45853297      -0.32761735      -1.13862399
H        2.20726687       8.52001931      10.44160524       0.20609346       0.27799865      -0.14369416
H        3.64635297       8.86235128      10.38374124       0.06056408      -0.17840996      -0.38304707
O        8.85906003       6.29110140       7.65000739       0.10096620       1.20945601       0.79188241
H        9.28809583       5.89124277       8.40440500      -0.26400584      -0.00858010       0.01637946
H        7.94728992       6.00376601       7.48115784      -0.29517532      -0.14679729       0.03245309
O        6.72594637      13.53428652      -0.05727246       0.96995097       0.86787107      -0.72632483
H        6.35271575      12.68677991       0.26074320      -0.37127190       0.13500575       0.52545951
H        7.05326498      13.82330254       0.79987574      -0.18039187      -0.10483160      -0.10278457
O       12.52748057       6.79322506       9.62299914       0.34150660      -0.96860571       0.27235173
H       11.67182701       7.14879914       9.89324820      -0.10796565      -0.02440821      -0.23280643
H       12.91948747       7.22736656       8.84606757      -0.13893561      -0.00402825      -0.04354149
O        7.74627992       9.79646131       5.18684899       0.03142091       0.57643930      -0.70326324
H        7.45685267       9.02220734       5.70036059      -0.16993471       0.13662606       0.45944105
H        7.69991656       9.72655193       4.26281702      -0.36702558      -0.20544213       0.22698450
O        0.53318235      12.82687538       3.25113362      -1.40625176       0.61099603      -0.26413628
H       -0.40294981      12.71727296       3.09300268      -0.14280464      -0.08542166      -0.38450756
H        1.13485785      12.49871833       2.54975646       0.06394891      -0.51020643       0.42230811
O        8.96748053       8.49879449       1.40196138       0.04711472      -0.67701177      -0.51371585
H        8.89867138       8.47300932       0.43487952      -0.07385533      -0.39727550      -0.07544655
H        9.18557294       9.49163879       1.63124086       0.11748745       0.50841315       0.03001382
O        3.64792219       7.79612394       3.66124863      -0.05435495       0.61262629      -1.24403643
H        3.80026906       7.69636104       4.62349648       0.15771903       0.53896458       0.17248878
H        3.23740353       7.16076263       3.15258129       0.21454102      -0.32964852       0.11644583
O        9.77007814       6.67330811      10.73817524      -0.66276678       0.21459962       0.33891392
H       10.04449893       5.79318590      11.00971013      -0.12946564       0.32725346       0.51503629
H       10.06694614       7.38997270      11.29806309      -0.02265744      -0.21462686       0.15419156
O        2.83226791       1.86324189       6.14643320       0.17317822       1.56997442      -1.08456794
H        3.73360474       1.70209116       6.01190941      -0.00695012      -0.24870630      -0.09766701
H        2.18154168       1.23857793       6.39573388       0.21593772      -0.08557414      -0.12671432
O       11.02587626       3.08145802       5.45611590       0.98196390       0.40553605       1.03453663
H       10.99857283       3.71520820       6.15492572       0.47964429      -0.13357197      -0.14739402
H       11.65343546       3.04524208       4.78607722      -0.08927689       0.33008240       0.02823036
O       11.57795067       3.86696901      11.25616463      -0.11725290       0.25871958       0.72277630
H       11.94564621       3.90874643      10.40381288       0.14992476      -0.03330754      -0.06125032
H       11.64431420       3.09988564      11.84188516      -0.00133181      -0.00372774       0.02514333
O       11.86255310      10.88644847       7.37028009      -0.50536009       0.62874831       0.26045104
H       11.86583675      10.17985657       6.72986337       0.03522208       0.14502151      -0.10707896
H       11.80942269      11.79618857       7.06868106      -0.14406807      -0.04692703       0.00478040
O        3.83356365       7.69043601       0.31183521       0.28435364      -0.26540674      -0.42353017
H        4.04177093       7.53003539      -0.63701088       0.01410336       0.13500271      -0.02765063
H        4.65112492       7.56418674       0.84400885       0.02131474      -0.06746125      -0.05873314
O       11.70505913      12.56259244      12.85017198       1.58608873       0.53296140       0.10843270
H       11.31250498      12.00412117      12.17032078       0.39534752      -0.16314035      -0.03309024
H       11.42304402      12.50127779      13.74867681      -0.22891612       0.14359496      -0.26297640
O        3.15228905       9.92718333       1.51479875      -0.49357212      -0.82067362      -0.61164155
H        3.05931850       9.80733245       2.46719782      -0.16071422       0.75592480      -0.09114315
H        3.63534467       9.18979603       1.22910009       0.07307485       0.23923423       0.12830246
O        0.22976705       9.89034728      10.50255071       1.06734721       0.10957736      -0.98676983
H        0.67177208       9.92115427       9.62497183      -0.19291875       0.36304898       0.00713379
H       -0.32503459      10.63432674      10.69634895       0.17628607       0.14247438       0.20034886
O        1.56452643       2.09982101       3.61485487       0.24033450       0.48401289      -0.20173692
H        1.44576707       1.16055554       3.46209469      -0.28768446      -0.05055700      -0.00322451
H        1.69190802       2.24533283       4.54664929      -0.04146546      -0.28483384       0.13177878
O        0.97509298       7.28603322      13.07511763      -0.78135739      -1.10159806      -0.38909822
H        0.75665989       6.72966683      12.35008009       0.09553913       0.09823237      -0.14946384
H        1.94500366       7.19568101      13.13658677      -0.15600905      -0.19466590      -0.17440308
O        0.67320135      12.41948381       6.01096411       0.27536481       0.11179436       0.11862251
H        0.98706036      12.00333741       5.22591069       0.03520170      -0.34399877       0.28395305
H       -0.22705193      12.68393963       5.96170755      -0.01194750      -0.62642197      -0.21745377
O        1.72600172      11.68046760       8.27396392       1.40859504       0.44975894       0.81548239
H        1.55420011      11.78802275       7.35372655       0.17037409       0.03431787       0.05707853
H        1.73079862      12.42670106       8.83532061       0.12032954       0.13754492      -0.38659667
O        0.82980679      13.25096975       0.40906156      -0.12930723      -0.25228861      -0.29003996
H        1.57486789      12.64462047       0.25841727      -0.17704049      -0.16391859       0.23364581
H       -0.02486869      12.96165427       0.08321875       0.05851570      -0.14047278      -0.04948833
O        6.70022323       0.94798297       5.98995439      -0.32679147       0.32779681       1.57110928
H        7.06584696       0.07388483       5.77337840      -0.01676017       0.15721888      -0.15634971
H        6.97382120       1.70861312       5.44592700      -0.11152382       0.01981186       0.13495863
O        0.80123432       7.64569467       4.71933746      -0.31739276      -0.86033666       0.61384565
H        2.61531864       8.24931325       4.22336139       0.46762317      -1.03459059      -0.57472121
H        0.97045596       6.82767748       5.19134347       0.03299765      -0.06994250       0.17001118
O        5.66500886       2.94281808      13.05099581      -0.36362222       0.84056309       1.18086122
H        5.44641061       2.02691729      13.21670276      -0.28840707       0.01013013      -0.27978907
H        5.17953019       3.54653969      13.60168329      -0.37256911      -0.16045554       0.14350850
O        5.65954773      12.45415622       8.50993222      -0.80552855       0.33090562      -0.80286685
H        6.14699011      12.18623300       7.71749091       0.06991891      -0.21131852       0.13117619
H        5.11822977      13.27120691       8.55771492      -0.01974183       0.06462320      -0.67747681
O       11.36951566       8.93062707       5.06791536       0.01106013       0.45125075      -0.19406877
H       10.84104425       8.14847852       5.17917806       0.23049061       0.02744187       0.19239774
H       12.20616815       9.00395164       4.71443855      -0.15855367       0.01869632       0.01621348
O        9.90746901       6.54795760       2.94105313       0.65183103      -1.51477245       0.23769728
H        9.31142847       7.18272795       2.41897301      -0.19480339      -0.11312729       0.03625797
H       10.78183267       6.80410541       2.66258816      -0.36091357       0.33333881      -0.30547384
O        3.75193809      10.39647746       9.52179223       0.22507431      -1.57782585       1.02410667
H        4.60952507      10.81094775       9.49579016       0.10112646      -0.33722565       0.08336206
H        3.18382384      10.33832074       8.72227321       0.24428595       0.00362691      -0.08630713
O        7.24000221       7.58004410      11.51516131       0.96878046      -0.18524611       0.96704311
H        7.18635164       8.53787052      11.69098585       0.28819726       0.11128597       0.08150385
H        8.09490506       7.25122076      11.17586376      -0.05694035       0.06355731       0.13288201
O        4.92481954      11.04787595      12.65365112       0.49263173       1.12225394      -0.32910799
H        4.31019855      11.23643878      13.35697599      -0.05903597       0.31415014      -0.15551833
H        4.73960794      11.34505413      11.76632351      -0.16664929      -0.14417972      -0.18724282
O        8.07966430       4.55957019      12.68444884      -0.27783837       0.18241940       0.95256750
H        7.19380347       4.14422921      12.61783684       0.06405044      -0.40127760      -0.24118998
H        8.34682411       5.26865637      12.08468510       0.09617314      -0.15929045      -0.23236500
O       11.32125458       8.32973389      11.78832563      -0.62404899      -0.88989937       0.49696594
H       11.89926818       8.42119397      12.57254509      -0.39450563      -0.31648272       0.32503487
H       11.15370737       9.23379720      11.50526119      -0.10592579       0.45403837       0.53306478
O        5.18001531       4.12425682       2.14950814      -0.18127812       0.01197924      -0.06084824
H        5.54788092       3.88098312       3.01062126      -0.18992845       0.30951179      -0.02023197
H        4.24861924       4.27322900       2.34390228      -0.09077528      -0.16006475      -0.22806384
O        1.83612285       1.05530432       8.87077240      -0.16902563      -0.58132068      -0.11339439
H        2.79852500       0.98056564       9.00916212       0.16582090      -0.05278652       0.31581394
H        1.37223608       1.31484719       9.68145769      -0.42202342      -0.42535499      -0.21305449
O        4.58221174       6.12852788      10.36699120      -0.21484786      -1.52048580       0.90024909
H        3.96608045       6.69033091       9.83131518       0.01933979      -0.23208989      -0.35778531
H        5.43862558       6.61489342      10.43667290      -0.00464191       0.01147484      -0.14985104
O        8.99643579      12.48320074       5.55572167      -0.07871427      -0.97420833      -0.21795038
H        8.59549523      11.61436097       5.58096094       0.29476003      -0.09644371      -0.10944769
H        9.81969473      12.53054585       6.09209912      -0.40053293       0.07122645       0.60095017
O        6.20024050       5.30567996       7.92940302      -1.21229374       0.71447044      -1.06488518
H        5.38789567       5.59468858       8.33541828       0.04382452       0.18450033       0.09833366
H        6.13230980       4.89844210       7.06649205      -0.12048794      -0.16009679      -0.12203000
O        9.88104778      10.56058244       3.26228783       1.18783590       0.23668955       1.04666493
H       10.50611899       9.93912770       3.64120312       0.09300775      -0.18024983      -0.07426534
H       10.48591302      11.84499823       2.57783010       0.12147737      -0.18268848      -0.01063638
O        7.35144528      12.85190539      10.58886012      -0.45219981       0.64766065      -0.27838585
H        6.88576007      13.26965100      11.32169851      -0.11718049      -0.15499686      -0.15449852
H        6.84026734      12.73462364       9.75851978      -0.26958913       0.06390232       0.02448916
O        0.97946060       5.52097413      10.96227617       0.29787891       0.59510784      -1.17198776
H        0.32739489       5.47681040      10.25735110       0.11526489      -0.26891778       0.07667371
H        1.71625859       5.09362431      10.56572242      -0.01623886      -0.37544082       0.21484898
O       10.70671761       5.93287687       5.63917305      -2.01350981       1.02034866       1.29585317
H       10.39506942       6.19927411       4.07246302      -0.10957446      -0.25950103      -1.49548499
H        9.84711107       5.92874104       6.10127005       0.09091119      -0.13766811       0.19888396
O        1.33764033       5.02831873       5.61529239       1.04641217       1.39832622       0.37940677
H        1.21355746       4.31019319       5.05967382      -0.07293380       0.06147588       0.01885573
H        0.71429635       5.02660915       6.36430165       0.16507056      -0.10341840      -0.24310505
O        5.94897276       6.94943764       1.74227876       0.59276542       0.49691246       0.02626042
H        6.51765786       7.44877814       1.15209490       0.10789420      -0.16144543       0.10016392
H        6.05744873       6.00866608       1.91835839      -0.11185661       0.01258683       0.12430696
O        9.28578342       4.24107996       1.80615267       0.89444086       1.21813470       0.43039193
H        8.62055104       4.23840496       1.10393011       0.21028051      -0.10241399       0.01265702
H        9.78265652       5.00733408       1.97301052       0.32035757      -0.11871229      -0.12192502
O        0.93899291       2.56126765       1.18389385      -0.05019806      -0.48380763       0.56366331
H        0.97420437       1.93436451       0.42474681       0.12642347       0.14063662      -0.42303113
H        1.58173625       2.42386167       1.84726809      -0.22851615       0.00086327      -0.19816238
O       12.93413538       4.77616190       7.62787064       0.50422579      -0.10983053      -1.00391340
H       13.10754666       5.28894350       8.40507832       0.08435583      -0.10728491       0.01795399
H       12.09295790       4.92454660       7.18711762      -0.01618449      -0.15041975       0.36333835
O        7.52948647      10.00254120      12.79645681      -0.85472603      -0.78664144       0.17428346
H        6.61260086      10.23739821      12.92771115       0.15496679       0.13550144       0.06102614
H        8.06223808      10.38893345      12.11622621      -0.09913202      -0.23381262       0.00363456
O       10.95265908       0.01136386       2.79068757       0.84979042       0.53766814      -0.45957266
H       11.00815494       0.83900246       2.23454744      -0.33169173      -0.13610828       0.61689797
H       10.05420074      -0.03052947       3.13427035       0.09268279      -0.24448696      -0.04861302
O        1.60527221       2.37387513      11.22075226      -0.29924173      -0.10281429      -0.91278796
H        2.06002399       2.00752553      11.96237111       0.27340546      -0.07490490      -0.17876964
H        1.96542979       3.13990489      10.83680637       0.49507934      -0.30953070       0.11228322
O        4.69117944       1.85110244       8.13848698      -0.88223947       0.17673593      -0.89407352
H        4.29881004       2.25963066       8.92139680       0.01657717      -0.21377664      -0.11716292
H        5.55461576       2.19987336       8.02158413      -0.28049237       0.09783753      -0.12801317
O        9.46876579      11.50687168      11.38575871      -0.42941331       0.04900563      -0.98885783
H        9.02132684      12.34440662      11.10222745       0.15350225       0.12427606       0.25525715
H        9.85745747      11.03281671      10.68779933       0.07273404      -0.17379754       0.16120396
O        1.75266438      10.83651696      12.72001007       0.89370620       0.56617249       0.66033564
H        1.96473728      10.29385190      13.42471757       0.06083705      -0.00014955      -0.02210678
H        1.03665984      10.61641396      12.07730130       0.27548321       0.06127088       0.30258291
O        8.47521964       0.39096332       3.16263441      -1.36037857       0.00307354       0.24437260
H        7.99491109       1.14814382       2.85059230       0.13465159      -0.01801558      -0.24364131
H        8.43469895       0.19462976       4.10621221      -0.13855001      -0.04420715      -0.30841563
O        8.27040928       3.02635093       4.05581601       0.78618781      -0.65528597      -1.30896113
H        8.04863341       3.71275104       3.41298707      -0.37579848      -0.40878395       0.24129228
H        8.82751341       3.39522453       4.71423968      -0.39282898       0.38846813       0.13406644
O        2.40403355       4.95050753       1.90983300      -0.82008955      -0.20312629       0.32308633
H        1.94254099       4.14227267       1.66954543      -0.13683487       0.16632229       0.12364225
H        2.76533917       5.35114566       1.12496064      -0.00660595       0.11374022      -0.22290044
O        0.61496405       8.74627589       8.03320436      -0.64959982      -0.14338068      -0.30541962
H        1.31621966       8.42176518       7.47336243      -0.39398423       0.28973708       0.10453132
H       -0.05905875       9.28500830       7.53686122      -0.27091660      -0.02974345       0.02270521
O       11.89047332       0.78056524       6.78889015       0.17880522       0.99417312      -0.26835619
H       11.23997135       0.86782894       7.48398779      -0.02634093      -0.30377660       0.04307776
H       11.66084196       1.37019622       6.06394713      -0.27574199       0.12535233       0.09295658
O       12.58170220       7.07251600       2.32102300       0.82477937      -1.23209537      -0.31683409
H       13.03172189       7.02140489       3.19203338      -0.21216266      -0.08247403       0.08595996
H       12.74631058       6.39812116       1.69743712      -0.28682791      -0.13775193       0.17207906
O       10.54643440       9.35855893       9.32564740      -0.04276040      -0.28349063      -0.41860803
H        9.94474657       8.69502531       8.94839178      -0.48898728       0.55529653      -0.10441838
H       11.04326824       9.87297077       8.66753419      -0.19310253       0.22848945       0.22057160
O        3.94760334       4.46180845       5.58027378      -0.60255465       0.08165134       0.85732429
H        3.80234694       3.54003244       5.42794598      -0.09236904       0.04106057       0.06466750
H        3.15938879       4.97749250       5.66198097      -0.37512512      -0.20739651       0.01549421
O        4.64166186       3.46193213      10.43784535       0.65609049      -0.33517652       0.27139727
H        4.61484417       4.40389644      10.43354943       0.12575148      -0.25771810      -0.24427839
H        5.25564051       3.00372614      11.01880752      -0.24812113       0.10833251       0.65960479
192
Lattice="13.287190978138627 0.0 0.0 -5.291252445047254e-07 13.287190978138627 0.0 -5.291252445047254e-07 -5.291252445047254e-07 13.287190978138627" Properties=species:S:1:pos:R:3:momenta:R:3 step=170 time_fs=17.0 phase=production pbc="T T T"
O       10.33598272       0.35711490       9.52457788       1.84760471       0.26060315       0.91613809
H       10.96298150       0.99221281       9.95863670      -0.02017574       0.69498962      -0.37266957
H        9.50367312       0.68104851       9.85258492       0.03598744      -0.02603140      -0.19826813
O       11.37517804       2.58855780       2.55804649       0.61372653       0.06311573       0.75937801
H       10.69140554       3.11697487       2.12170288       0.11716905      -0.08164158       0.10706567
H       12.24382132       2.98958766       2.52469484       0.14305007       0.01929220       0.19184778
O        3.07442839       8.22300888      10.77339808       0.37275725      -0.36233315      -1.13223180
H        2.22750970       8.54532642      10.42962346       0.20671313       0.24446773      -0.09841596
H        3.65616812       8.84797120      10.34435102       0.13366925      -0.12482352      -0.41477260
O        8.85925866       6.29832025       7.65461731      -0.01637601       1.17436747       0.74327249
H        9.26071302       5.89051714       8.40586436      -0.28766631      -0.00797331       0.02549502
H        7.92352877       5.99082943       7.48564303      -0.16231991      -0.10660605       0.06602134
O        6.73148998      13.53878137      -0.06150821       0.86182285       0.66020107      -0.65970029
H        6.31880415      12.70654885       0.30715710      -0.31396523       0.28817069       0.41900904
H        7.03770655      13.81521234       0.79097276      -0.13103208      -0.05087054      -0.06609745
O       12.52940094       6.78734454       9.62425801       0.35565975      -0.90702730       0.19859261
H       11.66487485       7.14536985       9.86916038      -0.03013147      -0.04419056      -0.25686393
H       12.90341642       7.22619431       8.84670779      -0.18204033      -0.01523771       0.05555650
O        7.74619447       9.79970960       5.18353997      -0.01818964       0.52427594      -0.31311203
H        7.44211816       9.04030057       5.74040475      -0.12157521       0.25604089       0.34918399
H        7.66331756       9.70266976       4.27168800      -0.38377407      -0.28409082      -0.05831042
O        0.52466636      12.83034233       3.24921169      -1.37826618       0.59406169      -0.34001718
H       -0.41544485      12.70852188       3.05464220      -0.10510005      -0.08761368      -0.39865327
H        1.13610309      12.45014482       2.59522862      -0.03384168      -0.48215956       0.50630746
O        8.96768360       8.49542782       1.39848234       0.07146502      -0.37662110      -0.61182985
H        8.89092953       8.43386820       0.43364962      -0.08092496      -0.39851214       0.05227404
H        9.19444167       9.52746423       1.63180047       0.06901647       0.23501008      -0.01891223
O        3.64815545       7.80017193       3.65468160       0.19541293       0.71195326      -0.90626453
H        3.81637826       7.74826987       4.62467171       0.18072085       0.52880402      -0.14994477
H        3.25502332       7.12077264       3.15817656       0.16263456      -0.46937548       0.01020756
O        9.76569107       6.67468563      10.74004542      -0.71445214       0.27996039       0.32388247
H       10.03278492       5.82315278      11.06079057      -0.10291374       0.26848790       0.54080887
H       10.06416734       7.36549060      11.31275440      -0.02689200      -0.26903736       0.15892767
O        2.83292662       1.87344646       6.13952897       0.07578444       1.75466200      -1.12801216
H        3.74083807       1.67284022       6.00174574       0.13916653      -0.34448221      -0.10731903
H        2.19939820       1.22497492       6.38502452       0.15174955      -0.18847686      -0.09219570
O       11.03121491       3.08316562       5.46235045       0.82340923       0.15146758       1.01063726
H       11.04597212       3.70980371       6.14554100       0.49652156       0.04212936      -0.02108984
H       11.65102863       3.07882241       4.78202108       0.04464164       0.35945235      -0.11245104
O       11.57676568       3.86855865      11.26085009      -0.18587257       0.28638298       0.83791744
H       11.96282952       3.90262199      10.39494946       0.19355599      -0.09199456      -0.08563740
H       11.64521645       3.10143024      11.83991860       0.02476537       0.03385772      -0.05891751
O       11.85920591      10.88995517       7.37176523      -0.51329371       0.57378455       0.26985358
H       11.86760572      10.19612518       6.71803742       0.00519177       0.19060168      -0.13312022
H       11.79485005      11.79132370       7.06909951      -0.15117747      -0.04099160       0.00529745
O        3.83563888       7.68847306       0.30903698       0.40491707      -0.32404539      -0.48003549
H        4.04146651       7.54465457      -0.63211403      -0.01657077       0.16530149       0.11582846
H        4.64678382       7.55771026       0.83305033      -0.10072091      -0.06291350      -0.16000600
O       11.71468309      12.56572851      12.85035477       1.62218808       0.56285982       0.01554764
H       11.35037839      11.98780786      12.16841217       0.38706147      -0.16549530      -0.00110725
H       11.39762403      12.51325096      13.72582266      -0.29251029       0.10685244      -0.18721184
O        3.14881848       9.92260667       1.51127087      -0.62462034      -0.60025578      -0.53394566
H        3.04215200       9.88184789       2.45984530      -0.18999004       0.77511207      -0.05314949
H        3.64949218       9.20170921       1.23579633       0.22506659      -0.00008434       0.00848604
O        0.23659409       9.89080624      10.49591314       1.13844832       0.10842145      -1.08679468
H        0.64936137       9.95651650       9.63151278      -0.25269062       0.36480866       0.10489740
H       -0.30856949      10.64877181      10.71540640       0.16749876       0.14942383       0.19354034
O        1.56595024       2.10266643       3.61348301       0.23210757       0.44172742      -0.21262022
H        1.41763358       1.15538403       3.46135837      -0.28706049      -0.03957940      -0.00901619
H        1.68847657       2.21816221       4.56160414      -0.02940627      -0.27291766       0.16387667
O        0.97058456       7.27938560      13.07283923      -0.69282308      -1.02354863      -0.28009856
H        0.76303274       6.73373325      12.32921828       0.03621805      -0.00789347      -0.26931639
H        1.92836345       7.17812607      13.12051517      -0.17439150      -0.16324026      -0.14938991
O        0.67500357      12.42000829       6.01176510       0.32140738       0.13179315       0.17596746
H        0.99394619      11.96662405       5.24763648       0.10867270      -0.40444775       0.16460871
H       -0.23482801      12.62608680       5.94258642      -0.15548581      -0.55446649      -0.17179592
O        1.73473644      11.68236220       8.27895812       1.44573693       0.23255698       0.85436329
H        1.57023649      11.79214216       7.35414113       0.15989131       0.05288359      -0.04507127
H        1.74174972      12.44852985       8.80170623       0.10562617       0.32179012      -0.29328909
O        0.82917246      13.24912629       0.40721750      -0.07710500      -0.26166162      -0.30444736
H        1.55439790      12.62907830       0.28087272      -0.23202687      -0.15614122       0.22556725
H       -0.01698747      12.94796844       0.07967093       0.09700448      -0.13587245      -0.02476582
O        6.69813483       0.94998160       5.99936902      -0.32057699       0.33138688       1.54069999
H        7.06293428       0.09397175       5.75803313      -0.03578371       0.24175387      -0.15903827
H        6.96238272       1.70691762       5.46155200      -0.11748008      -0.04325408       0.18079013
O        0.79925022       7.64015496       4.72305096      -0.32071296      -0.91340697       0.63332747
H        2.65292192       8.14893512       4.16802473       0.23968379      -0.99745237      -0.52917968
H        0.97418372       6.82158958       5.20749491       0.04077962      -0.03754297       0.15310414
O        5.66274033       2.94799810      13.05788594      -0.35124615       0.86254365       1.15101089
H        5.41869282       2.02672760      13.18968404      -0.27511520      -0.00573758      -0.27148202
H        5.14275078       3.53157291      13.61687714      -0.37331560      -0.15190821       0.16598274
O        5.65425243      12.45614614       8.50490798      -0.88469073       0.39050921      -0.78297128
H        6.15101116      12.16733532       7.73171446       0.01768130      -0.17395940       0.16018875
H        5.12082797      13.27234903       8.48924981       0.07162493      -0.03213540      -0.72064444
O       11.36810259       8.93370771       5.06698881      -0.38783965       0.61394096      -0.08238149
H       10.86421337       8.14860599       5.19799872       0.24315876      -0.02923333       0.19709122
H       12.21041617       9.00054443       4.70918594       0.24125891      -0.08564639      -0.11829007
O        9.91084692       6.53891517       2.94186919       0.45344373      -1.37122134      -0.03093255
H        9.29720762       7.16494818       2.42768247      -0.09641025      -0.24501802       0.14261968
H       10.74909382       6.83647770       2.63128864      -0.28468569       0.34427758      -0.35007876
O        3.75290673      10.38648105       9.52762110       0.11787227      -1.61284964       0.93935425
H        4.61909167      10.77919871       9.50098383       0.09947410      -0.31018140       0.02776340
H        3.21316588      10.34157724       8.72024469       0.35170662       0.06460623       0.03933198
O        7.24591634       7.57907240      11.52093518       0.98428793      -0.07650456       0.99082561
H        7.21538855       8.54195086      11.69758245       0.30904481      -0.02547603       0.05821769
H        8.08503431       7.25920801      11.18932874      -0.12455757       0.09497014       0.14004793
O        4.92802974      11.05452116      12.65134050       0.57644077       1.11359295      -0.35558229
H        4.30250476      11.26781011      13.33986604      -0.09441548       0.33231871      -0.19102541
H        4.72103631      11.33023014      11.75023057      -0.20815412      -0.15839912      -0.12975008
O        8.07761047       4.56058554      12.69009117      -0.34544886       0.17596310       0.95744740
H        7.20526385       4.10852896      12.59337819       0.17805958      -0.32669732      -0.25498277
H        8.35303953       5.24894366      12.06367924       0.03345652      -0.24607751      -0.19126617
O       11.31751362       8.32480454      11.79149397      -0.53522630      -0.63136702       0.59733337
H       11.85733075       8.38666295      12.59924843      -0.45963540      -0.38807127       0.22846825
H       11.14332356       9.27128699      11.55779392      -0.09613654       0.28317103       0.55789007
O        5.17871770       4.12430959       2.14915812      -0.21566114       0.03343890      -0.05471406
H        5.53032425       3.91112112       3.00839813      -0.16175055       0.30663833      -0.00981084
H        4.23899047       4.25775455       2.32013497      -0.10658886      -0.15556083      -0.25870575
O        1.83550834       1.05153862       8.87005586      -0.00812199      -0.64204055      -0.07121862
H        2.80497004       0.97701902       9.03921921      -0.04271311      -0.01871630       0.30213551
H        1.33286986       1.27330678       9.65878657      -0.38760027      -0.42457949      -0.24195423
O        4.58096343       6.11998214      10.37181062      -0.16750726      -1.22882291       0.72753854
H        3.97509782       6.66086269       9.80479333       0.16539939      -0.36952701      -0.18016396
H        5.42983205       6.60981963      10.42279039      -0.16890373      -0.11215338      -0.12942276
O        8.99617737      12.47704810       5.55455287       0.04958412      -0.94433359      -0.13081780
H        8.62522599      11.60436320       5.56994885       0.31179822      -0.11590735      -0.11479226
H        9.77452389      12.53721377       6.14616272      -0.51689210       0.07214697       0.51195158
O        6.19282174       5.30988487       7.92256182      -1.17112272       0.68081539      -1.12931009
H        5.39195807       5.61281402       8.34395871       0.04479863       0.18789150       0.07747413
H        6.11841231       4.88396940       7.05642204      -0.16225713      -0.12708233      -0.06596928
O        9.88819075      10.56156152       3.26880059       1.20709763       0.13931430       1.09755011
H       10.51411915       9.92251818       3.63437014       0.06714328      -0.14957175      -0.06801977
H       10.50438345      11.85424035       2.58072495       0.26120558       0.38852472       0.07272011
O        7.34823964      12.85566533      10.58671419      -0.54049951       0.64667593      -0.36970370
H        6.87565672      13.25389499      11.30523262      -0.09558841      -0.15471118      -0.16315843
H        6.81831544      12.74147659       9.76729606      -0.17700676       0.08055399       0.15682911
O        0.98106298       5.52461155      10.95496471       0.24962717       0.61757952      -1.14059520
H        0.33543940       5.45270312      10.26507118       0.04064325      -0.22409632       0.07567535
H        1.72175964       5.05459666      10.58592333       0.11930196      -0.41784155       0.20941561
O       10.69376352       5.93905864       5.64705258      -2.10888467       1.02844910       1.29178763
H       10.38492474       6.17234552       3.93424200      -0.05906929      -0.32426222      -1.25083583
H        9.86048645       5.91571170       6.11848087       0.15651977      -0.12779014       0.17173386
O        1.34415532       5.03744167       5.61786599       1.09634623       1.58760215       0.46011710
H        1.20509239       4.30692015       5.05441158      -0.09675290      -0.11220747      -0.11500532
H        0.73069243       5.01654774       6.34090431       0.15323756      -0.10037882      -0.21114174
O        5.95244614       6.95227953       1.74252156       0.56706283       0.46463375       0.07100510
H        6.52898549       7.43097768       1.16254927       0.13465233      -0.19400168       0.10649937
H        6.04706995       6.01254201       1.92890496      -0.09866469       0.06776263       0.09283006
O        9.29085164       4.24791860       1.80874682       0.82146083       1.04001092       0.43469280
H        8.64165737       4.22970617       1.10433381       0.22094804      -0.07461005      -0.01032589
H        9.81656172       5.00330376       1.96214910       0.37549107       0.03207882      -0.10279247
O        0.93822125       2.55801936       1.18636197      -0.21822060      -0.56152323       0.20966567
H        0.98659808       1.95420800       0.39255271       0.12729733       0.27476924      -0.22498847
H        1.56527625       2.42010161       1.83573697      -0.08440033      -0.08235932      -0.01241178
O       12.93691941       4.77522521       7.62131797       0.49895296      -0.16720848      -1.07317385
H       13.11552388       5.27961275       8.40846852       0.08504093      -0.08352879       0.05335767
H       12.09160049       4.91001011       7.22401326      -0.02569516      -0.14271963       0.38556819
O        7.52414679       9.99717498      12.79748517      -0.83124722      -0.90590215       0.23984376
H        6.62474635      10.25231768      12.93294888       0.08492293       0.17739326       0.05346935
H        8.05476748      10.36902720      12.11253356      -0.04778733      -0.16843167      -0.07901852
O       10.95737052       0.01398025       2.78738030       0.75968257       0.25421808      -0.57096353
H       10.97497138       0.81824206       2.29902352      -0.33819853      -0.23350038       0.66780811
H       10.06837990      -0.06091623       3.12639790       0.18643541      -0.38628080      -0.10527793
O        1.60298202       2.37278466      11.21478851      -0.42905704      -0.24363749      -0.94692443
H        2.08898579       1.99808026      11.94840358       0.31180849      -0.11390562      -0.11582563
H        2.01770146       3.11794418      10.84506909       0.57985622      -0.13857477       0.05906097
O        4.68511419       1.85178681       8.13298879      -1.06719796       0.04577062      -0.86012438
H        4.30162603       2.23960995       8.91053333       0.03423541      -0.18886525      -0.08721402
H        5.53628684       2.21411091       8.00726981      -0.08238546       0.19955915      -0.16509059
O        9.46556569      11.50752489      11.37973804      -0.54682174       0.21632544      -0.90168103
H        9.03913531      12.34853610      11.12831159       0.20855602      -0.02226640       0.27744885
H        9.86679506      11.01248581      10.69754401       0.11922570      -0.23465922       0.04721710
O        1.75793144      10.84040289      12.72325706       0.86422440       0.76939849       0.50675546
H        1.97093338      10.28585132      13.42948298       0.06522400      -0.15552745       0.11885436
H        1.06596853      10.62035597      12.10901482       0.29637790       0.01454921       0.32611854
O        8.46675309       0.39088406       3.16411595      -1.34261987      -0.02239380       0.22497840
H        8.00677653       1.14795273       2.82700068       0.10995877       0.01668320      -0.24071561
H        8.41992111       0.19138651       4.07574925      -0.16279305      -0.02910724      -0.28125972
O        8.27495900       3.02200998       4.04756630       0.76469437      -0.76072063      -1.31865241
H        8.01102226       3.67500051       3.43351567      -0.40480660      -0.33861649       0.15534228
H        8.79322013       3.43490522       4.73209281      -0.31519242       0.42129886       0.22574016
O        2.39919774       4.94935172       1.91177585      -0.72612330      -0.12609360       0.30083822
H        1.92749059       4.15751789       1.68077741      -0.17450566       0.14196127       0.10467081
H        2.76252086       5.36228491       1.10411297      -0.06156717       0.10417589      -0.18184533
O        0.61028301       8.74572927       8.03112778      -0.91018077       0.03423517      -0.28933868
H        1.28104874       8.44845908       7.47912366      -0.28551653       0.24137228      -0.01556671
H       -0.07673783       9.27606224       7.54499578      -0.09512708      -0.14800322       0.14667567
O       11.89131641       0.78670922       6.78703362       0.16268500       1.01360265      -0.29412179
H       11.23784950       0.83709538       7.48790273      -0.00951244      -0.32672588       0.03687522
H       11.63419208       1.38195177       6.07219501      -0.26546943       0.11479868       0.08030917
O       12.58641566       7.06524811       2.31977339       0.77930685      -1.08662088      -0.07837460
H       13.00921151       7.01299501       3.19384539      -0.23964719      -0.08763659      -0.03932997
H       12.72250043       6.37926298       1.70845424      -0.19566539      -0.25250566       0.04969754
O       10.54587001       9.35657022       9.32279001      -0.08047329      -0.30779205      -0.44170369
H        9.90063187       8.75366860       8.93809020      -0.41836508       0.64229314      -0.10770671
H       11.02185963       9.89327497       8.69001774      -0.23317372       0.20062780       0.23317444
O        3.94412062       4.46252538       5.58534655      -0.53241628       0.18229520       0.83002966
H        3.79177127       3.53944380       5.43447296      -0.12063496      -0.04385462       0.07250447
H        3.11974308       4.95796691       5.66427653      -0.41442835      -0.20377610       0.03198287
O        4.64558326       3.45920183      10.43929571       0.65897050      -0.55731291       0.27514394
H        4.62773584       4.38376522      10.41026876       0.13884439      -0.13367530      -0.23124745
H        5.23073382       3.01696189      11.08242502      -0.26900357       0.16856393       0.64054871
192
Lattice="13.286943510244212 0.0 0.0 -5.291153897874753e-07 13.286943510244212 0.0 -5.291153897874753e-07 -5.291153897874753e-07 13.286943510244212" Properties=species:S:1:pos:R:3:momenta:R:3 step=180 time_fs=18.0 phase=production pbc="T T T"
O       10.34772865       0.35956300       9.53051180       2.04114197       0.54369722       1.07240671
H       10.95553112       1.05064712       9.91394675      -0.13058237       0.49935813      -0.53787115
H        9.50234385       0.67485522       9.83384638      -0.05704726      -0.10038883      -0.18263674
O       11.37868317       2.58881142       2.56268332       0.61139632       0.03158680       0.77162395
H       10.70465262       3.10896218       2.13313089       0.14989387      -0.07425083       0.12278673
H       12.25630201       2.99157814       2.54239889       0.11170019       0.02000458       0.17253000
O        3.07661138       8.22071455      10.76613581       0.37348427      -0.32194819      -1.17822513
H        2.24679471       8.56737393      10.42199205       0.18616453       0.21174553      -0.05465965
H        3.66998092       8.83491275      10.30433748       0.13824922      -0.15483880      -0.39176140
O        8.85826431       6.30526607       7.65871881      -0.26375619       1.12728990       0.63224261
H        9.23299350       5.88862887       8.41090743      -0.27201463      -0.03224044       0.08933767
H        7.91832609       5.98398391       7.49401718       0.06291078      -0.02873590       0.10781715
O        6.73616043      13.54178462      -0.06543807       0.69591439       0.39951279      -0.62341208
H        6.29233713      12.74350775       0.34138920      -0.22397543       0.47478104       0.28124598
H        7.02812227      13.81353153       0.78893465      -0.06218498       0.02272910       0.02909584
O       12.53135227       6.78178300       9.62515385       0.35494677      -0.87086892       0.16002144
H       11.66481523       7.13998850       9.84326305       0.02604056      -0.06206694      -0.26736370
H       12.88473723       7.22496158       8.85482706      -0.18816492      -0.00128242       0.10168753
O        7.74570893       9.80241986       5.18263406      -0.09731669       0.41593046      -0.00093873
H        7.43367607       9.07302928       5.76655773      -0.04912603       0.41399520       0.18900114
H        7.62491692       9.67107866       4.25581724      -0.39700961      -0.35508779      -0.21459368
O        0.51607158      12.83369910       3.24689155      -1.43186040       0.57939973      -0.38991751
H       -0.42230263      12.70007804       3.01580228      -0.03238278      -0.07854361      -0.39405105
H        1.12958541      12.40388172       2.64683673      -0.08968571      -0.46653830       0.54461878
O        8.96803088       8.49380688       1.39449671       0.09819421      -0.09961048      -0.66234128
H        8.88258941       8.39547488       0.44369788      -0.08735863      -0.38573228       0.13997719
H        9.19872003       9.53737908       1.62741329       0.02102028      -0.03022499      -0.07124842
O        3.65035771       7.80417985       3.64942021       0.54201511       0.61451181      -0.84505856
H        3.83704293       7.79909265       4.59783116       0.25345149       0.51880777      -0.36124372
H        3.27236455       7.07293760       3.15652809       0.21072543      -0.48854147      -0.03139515
O        9.76089280       6.67646740      10.74164335      -0.78928059       0.32934230       0.25764005
H       10.02435039       5.84268016      11.11490321      -0.06852381       0.13198321       0.57123461
H       10.06205799       7.34037109      11.33006618      -0.00939608      -0.22971178       0.20689718
O        2.83334595       1.88449826       6.13235219       0.10000258       1.83239121      -1.17242676
H        3.75548735       1.63658202       5.99139778       0.13165741      -0.38801969      -0.09827696
H        2.21215166       1.20362602       6.37686304       0.12035085      -0.23568478      -0.07777385
O       11.03565872       3.08317752       5.46820030       0.70590222      -0.11407219       0.92681460
H       11.09494702       3.72368954       6.15125433       0.51261123       0.22947289       0.12534599
H       11.66026865       3.11513292       4.76520181       0.13403324       0.38664811      -0.21490528
O       11.57537143       3.87042123      11.26566448      -0.19048305       0.35232653       0.77361033
H       11.98066783       3.89064002      10.39165306       0.16846919      -0.15158697       0.03947048
H       11.64884114       3.10516689      11.83093531       0.05487102       0.03475684      -0.11325554
O       11.85581399      10.89304191       7.37335014      -0.51954825       0.49555540       0.29324762
H       11.86642130      10.21606103       6.70363295      -0.02445519       0.21903784      -0.16014962
H       11.77941349      11.78906388       7.06929346      -0.16163672       0.00449688       0.00101971
O        3.83818405       7.68623263       0.30603679       0.42384068      -0.35311691      -0.48467122
H        4.03905220       7.56130653      -0.61826929      -0.02714843       0.17548743       0.14179510
H        4.63412648       7.55135584       0.81490892      -0.13686671      -0.06729703      -0.19666186
O       11.72455486      12.56901731      12.84981652       1.66278625       0.58269448      -0.11000680
H       11.38764922      11.97169146      12.16970081       0.38274004      -0.15956339       0.03202014
H       11.36522664      12.52168272      13.71296768      -0.36673889       0.07203529      -0.07406007
O        3.14458672       9.91931911       1.50808750      -0.71644921      -0.43694056      -0.50280551
H        3.02248039       9.95762689       2.45682296      -0.20960359       0.78096078      -0.01354631
H        3.67745702       9.19184015       1.23223060       0.32894856      -0.16911667      -0.06560054
O        0.24349546       9.89140077      10.48916435       1.09263614       0.15078824      -1.01920594
H        0.62542021       9.99182659       9.63948769      -0.22387933       0.36490141       0.03382765
H       -0.29140169      10.66151435      10.73349716       0.18883662       0.10897106       0.18130420
O        1.56730839       2.10502597       3.61225010       0.21907919       0.33141050      -0.15591143
H        1.39015993       1.15527493       3.46045194      -0.27470151       0.04649585      -0.00768540
H        1.68590649       2.19192770       4.57586044      -0.02358615      -0.26476765       0.11846940
O        0.96640062       7.27308087      13.07102693      -0.67648006      -1.00028652      -0.25142425
H        0.76427215       6.72989254      12.29970042      -0.00578981      -0.05312068      -0.31140426
H        1.91266710       7.16352173      13.10715350      -0.13972675      -0.13411896      -0.11901149
O        0.67708486      12.42057230       6.01273014       0.34886089       0.11746732       0.15155280
H        1.00737024      11.92569981       5.26022404       0.15759552      -0.41567682       0.11725852
H       -0.25582259      12.57496752       5.92819085      -0.25338042      -0.49480106      -0.11994678
O        1.74365462      11.68297746       8.28406672       1.46602406       0.05835724       0.85389544
H        1.58567494      11.79744964       7.34654979       0.16048089       0.05772730      -0.09059770
H        1.75141363      12.48796294       8.77735875       0.09380803       0.47505987      -0.21366777
O        0.82877830      13.24736663       0.40535852      -0.04938358      -0.22271355      -0.29478578
H        1.53183601      12.61239051       0.30207363      -0.21887716      -0.18832420       0.20863957
H       -0.00753382      12.93451613       0.07795826       0.08817644      -0.13636720      -0.01318487
O        6.69592328       0.95204243       6.00879741      -0.36940914       0.34714438       1.58070016
H        7.05972144       0.11775823       5.74145856      -0.02133062       0.22829496      -0.18316560
H        6.95143983       1.70291978       5.47917673      -0.10020327      -0.02151502       0.17285129
O        0.79728488       7.63408271       4.72700822      -0.31454109      -1.01931309       0.68514295
H        2.65409365       8.05738726       4.12378515      -0.23722542      -0.87327908      -0.36537076
H        0.97805766       6.82167475       5.21974321       0.03919642       0.04160604       0.09882745
O        5.66035185       2.95326206      13.06474999      -0.40354518       0.86627005       1.17190310
H        5.39332038       2.02736714      13.16299175      -0.23958531       0.02793408      -0.27263657
H        5.10802561       3.51558598      13.63206098      -0.33017323      -0.18005514       0.14392041
O        5.64849490      12.45844098       8.50002728      -0.95403926       0.42670287      -0.75131977
H        6.15104493      12.15125136       7.74738171      -0.00873215      -0.15606081       0.15736235
H        5.13089485      13.26586380       8.41765696       0.12897366      -0.08546819      -0.74209662
O       11.36487949       8.93787182       5.06648911      -0.52795427       0.79404418      -0.07770005
H       10.88769571       8.14216505       5.21758588       0.24471103      -0.09495834       0.20687312
H       12.24430278       8.98671116       4.69457524       0.39116208      -0.19656316      -0.15221177
O        9.91237805       6.53100597       2.94006888       0.10550464      -1.15803750      -0.56222488
H        9.29149417       7.13590839       2.44632867      -0.02430955      -0.33825368       0.23612450
H       10.72732680       6.87189751       2.59313931      -0.16687499       0.38293096      -0.42769348
O        3.75336334      10.37633640       9.53314429       0.06745324      -1.62423842       0.93731233
H        4.62919674      10.75009341       9.50112701       0.11186051      -0.28330561      -0.01901576
H        3.24994369      10.34992851       8.72655445       0.38844249       0.10731655       0.07134714
O        7.25157461       7.57886245      11.52699509       0.88217470       0.05080123       1.05994429
H        7.24590231       8.53387698      11.70215201       0.31731934      -0.12302203       0.04268577
H        8.07449073       7.26756184      11.20099447      -0.06645211       0.06873446       0.09426109
O        4.93163803      11.06119112      12.64874533       0.62272223       1.12991093      -0.41627800
H        4.29222177      11.30042045      13.31917429      -0.11185777       0.33920531      -0.22864185
H        4.69969326      11.31341729      11.74182812      -0.22414856      -0.18322573      -0.03487704
O        8.07512549       4.56155451      12.69571667      -0.41201030       0.16625380       0.95357882
H        7.22823153       4.08059294      12.56780548       0.29193647      -0.24652433      -0.26482680
H        8.35305503       5.22049918      12.04705919      -0.02854694      -0.33302324      -0.14725461
O       11.31415909       8.32188473      11.79512818      -0.49736114      -0.26696420       0.64955334
H       11.81028551       8.34547045      12.61781761      -0.49293292      -0.45313753       0.16959235
H       11.13523655       9.28510184      11.61391314      -0.06502740       0.00139410       0.59494972
O        5.17710684       4.12454653       2.14861490      -0.28327865       0.07040263      -0.11658379
H        5.51712301       3.94007309       3.01085419      -0.10421405       0.28773246       0.06875843
H        4.22777460       4.24278265       2.29340568      -0.11930588      -0.15020218      -0.28899029
O        1.83600332       1.04735905       8.86949934       0.17608139      -0.71351654      -0.06269586
H        2.78982385       0.97685487       9.06749932      -0.25971470       0.01458756       0.28217789
H        1.29603582       1.23241696       9.63519804      -0.37150116      -0.41270934      -0.23279963
O        4.57992131       6.11302940      10.37558126      -0.15048444      -1.02724092       0.57638253
H        3.99607957       6.61953358       9.79465789       0.24564108      -0.46091218      -0.04033259
H        5.40851159       6.59414807      10.41155191      -0.23986580      -0.19376117      -0.09385534
O        8.99667407      12.47124158       5.55386325       0.15985729      -0.86755932      -0.06613556
H        8.65486883      11.58952214       5.55822249       0.29653423      -0.18973305      -0.12503096
H        9.72025040      12.54456463       6.19241891      -0.58263891       0.08594439       0.44624368
O        6.18559776       5.31379672       7.91515312      -1.14543384       0.62499340      -1.23664402
H        5.39682196       5.63087550       8.34985111       0.05760954       0.18446171       0.04581218
H        6.10049735       4.87443717       7.05513553      -0.20294391      -0.06547526       0.04366436
O        9.89564381      10.56201166       3.27558311       1.29299890       0.09363970       1.12160193
H       10.51781593       9.91014550       3.62761499       0.01059556      -0.10060869      -0.06862950
H       10.53538164      11.91642491       2.59207886       0.36530091       0.80043970       0.15289455
O        7.34467918      12.85928773      10.58384935      -0.55998739       0.60685031      -0.49757839
H        6.86526338      13.24065343      11.29269555      -0.12232011      -0.10479533      -0.07482038
H        6.80494309      12.74942660       9.78689065      -0.10210777       0.08420823       0.23297925
O        0.98275559       5.52823386      10.94783215       0.32925252       0.58312775      -1.12348899
H        0.33425371       5.43284088      10.27050996      -0.06614294      -0.18199421       0.03744808
H        1.73626867       5.01395491      10.60762923       0.15911630      -0.40129122       0.24827754
O       10.68083007       5.94528882       5.65463790      -2.01309698       1.03839388       1.19766230
H       10.38716824       6.13180345       3.83732405       0.12474474      -0.51998980      -0.71170516
H        9.87113318       5.90341829       6.13778586       0.04007802      -0.12375823       0.24142957
O        1.35114276       5.04738060       5.62034042       1.18902260       1.65816194       0.35201051
H        1.19554719       4.29199711       5.03987239      -0.09335878      -0.16990439      -0.16437164
H        0.74131957       5.00689886       6.32645778       0.05635324      -0.09581218      -0.07185100
O        5.95562672       6.95484901       1.74316273       0.49898148       0.41525397       0.15255179
H        6.54505011       7.41197135       1.17132763       0.20346259      -0.18780764       0.06801578
H        6.03803317       6.02087225       1.93650023      -0.08431209       0.09915682       0.06506870
O        9.29569698       4.25384076       1.81154359       0.82958726       0.93160457       0.49642692
H        8.66246911       4.22373217       1.10076272       0.20676744      -0.04622284      -0.06700741
H        9.85368168       5.01098111       1.95226844       0.37716540       0.11082546      -0.10289181
O        0.93621372       2.55430470       1.18631978      -0.41663603      -0.62669134      -0.19314589
H        0.99889795       1.98769621       0.38128108       0.12595438       0.40464995      -0.01525922
H        1.56645205       2.40742227       1.84600510       0.09594767      -0.17426595       0.20931941
O       12.93998711       4.77394689       7.61455788       0.59148739      -0.21691269      -1.07119027
H       13.12366768       5.27194983       8.41444907       0.08674839      -0.07558897       0.06669247
H       12.08438153       4.89707100       7.26032460      -0.12917793      -0.11907140       0.35713625
O        7.51908782       9.99104423      12.79889743      -0.76586584      -1.02611959       0.29095239
H        6.62772218      10.27187379      12.93787004      -0.02075046       0.22762894       0.05239059
H        8.05242404      10.35561404      12.10068489      -0.00267215      -0.10623325      -0.15213941
O       10.96177232       0.01384380       2.78388398       0.76784223      -0.30680692      -0.52981333
H       10.94273283       0.80477245       2.35804086      -0.31719914       0.00940060       0.52099060
H       10.08596347      -0.10505249       3.11584363       0.14963484      -0.49256658      -0.08993492
O        1.60017423       2.37086734      11.20886061      -0.44769209      -0.35037769      -0.90789482
H        2.11818148       1.98665314      11.93617168       0.27344328      -0.11128746      -0.14832461
H        2.07719090       3.11027239      10.84888317       0.62834233      -0.04223095       0.03404360
O        4.67808530       1.85158109       8.12748743      -1.16442016      -0.09243522      -0.89199776
H        4.30423939       2.22372139       8.90612999       0.01885204      -0.13395401       0.00534772
H        5.53667543       2.23801326       7.98932139       0.06580443       0.28086556      -0.19577197
O        9.46187789      11.50877853      11.37426092      -0.57975206       0.22934432      -0.81483544
H        9.05973359      12.34331649      11.15429065       0.20596806      -0.05660062       0.25112704
H        9.87918499      10.98818820      10.69824442       0.13177439      -0.25042717      -0.01861186
O        1.76355351      10.84557143      12.72614996       0.99708571       0.97428243       0.53961201
H        1.97689405      10.26453559      13.44563607       0.05457886      -0.26759741       0.20507840
H        1.08938514      10.61733010      12.13597905       0.16852406      -0.07747116       0.21763906
O        8.45844777       0.39076086       3.16489203      -1.31020117      -0.00739498       0.02073841
H        8.01611945       1.15115095       2.80360374       0.08703344       0.04541718      -0.23669165
H        8.40250311       0.18754820       4.05728708      -0.19164739      -0.05567324      -0.07272511
O        8.27975456       3.01682472       4.03989125       0.86794325      -0.90054456      -1.12798537
H        7.96762601       3.64986347       3.43986746      -0.48797896      -0.17075231      -0.02888873
H        8.76339093       3.47517368       4.75481872      -0.30873086       0.39219943       0.21916280
O        2.39515964       4.94893052       1.91326714      -0.56883877       0.02589009       0.18722339
H        1.90800004       4.16892703       1.68948758      -0.22612379       0.09137117       0.07365001
H        2.75161328       5.36943542       1.09279142      -0.16601000       0.03909693      -0.03993600
O        0.60353988       8.74642523       8.02969789      -1.27214190       0.23415401      -0.11116460
H        1.26607950       8.46587960       7.46575385      -0.01390936       0.11599381      -0.26100751
H       -0.07966178       9.25735053       7.56413598       0.01620426      -0.21847079       0.23787432
O       11.89197449       0.79300158       6.78503943       0.11986174       1.04220537      -0.31377916
H       11.23828623       0.80417440       7.49031354       0.02508342      -0.34803316       0.01308670
H       11.60895241       1.39218295       6.07982039      -0.24664366       0.09412937       0.08096090
O       12.59073321       7.05884291       2.31975861       0.69849019      -0.97305868       0.05748927
H       12.98584212       7.00395992       3.18665874      -0.22727790      -0.09586521      -0.09135903
H       12.70748984       6.34987730       1.70819535      -0.11015654      -0.33145972      -0.03955082
O       10.54503780       9.35442968       9.32006129      -0.12697004      -0.33353057      -0.37665993
H        9.86137330       8.81793828       8.92619622      -0.39193513       0.67040606      -0.13733043
H       10.99925028       9.91358547       8.71053022      -0.21750918       0.22973134       0.18127958
O        3.94061398       4.46386961       5.59026370      -0.60797017       0.27692247       0.80519451
H        3.77932721       3.53370474       5.44223285      -0.12967011      -0.05854015       0.09097487
H        3.08306173       4.93536778       5.66766557      -0.31697033      -0.26659376       0.03849238
O        4.64967900       3.45478011      10.44097243       0.70862707      -0.86371791       0.34354268
H        4.64152498       4.37981905      10.38778956       0.14546400       0.05300384      -0.22714726
H        5.20168000       3.03717861      11.14142280      -0.33004299       0.24996018       0.56678329
192
Lattice="13.286701569944883 0.0 0.0 -5.291057551912504e-07 13.286701569944883 0.0 -5.291057551912504e-07 -5.291057551912504e-07 13.286701569944883" Properties=species:S:1:pos:R:3:momenta:R:3 step=190 time_fs=19.0 phase=production pbc="T T T"
O       10.36054222       0.36375315       9.53733242       2.17520085       0.81254483       1.19729587
H       10.93799237       1.08986707       9.85481659      -0.21378079       0.31682742      -0.66073704
H        9.49334771       0.66140618       9.81630489      -0.11605023      -0.17585077      -0.17624071
O       11.38242887       2.58880175       2.56749112       0.68828233      -0.02311530       0.81489081
H       10.71840858       3.10378338       2.14445810       0.12694653      -0.02398885       0.10501064
H       12.26434100       2.99295774       2.55823189       0.05572564       0.00785608       0.15341729
O        3.07906997       8.21886551      10.75843683       0.45560845      -0.22741680      -1.27076167
H        2.26294900       8.58642153      10.41844318       0.14214175       0.18343598      -0.01535328
H        3.68103981       8.81528937      10.26933899       0.08426245      -0.25098616      -0.31681541
O        8.85572282       6.31194783       7.66209822      -0.49638418       1.08874699       0.52170626
H        9.20797164       5.88379076       8.42359213      -0.23739458      -0.06305832       0.17195683
H        7.93440435       5.98491745       7.50579446       0.25381763       0.04607179       0.13143445
O        6.73981158      13.54328353      -0.06914202       0.54298316       0.18703815      -0.58029665
H        6.27479415      12.79732755       0.36217317      -0.13950754       0.61961675       0.15146764
H        7.02494994      13.81884405       0.79605271      -0.00435397       0.08794294       0.10797886
O       12.53330480       6.77629995       9.62597120       0.35748735      -0.88306926       0.17050198
H       11.66773098       7.13340496       9.81745340       0.02810412      -0.06812207      -0.25474369
H       12.86790675       7.22685710       8.86363887      -0.14462739       0.04825349       0.07052219
O        7.74469139       9.80452660       5.18266172      -0.18658994       0.34175744      -0.00921492
H        7.43144474       9.11797375       5.77834511      -0.00161261       0.49125701       0.06917187
H        7.58686867       9.63434884       4.23905665      -0.37465264      -0.38907165      -0.09258086
O        0.50693267      12.83702279       3.24438157      -1.54919644       0.58276335      -0.40298470
H       -0.42156755      12.69312007       2.97824726       0.04617964      -0.05827434      -0.37373421
H        1.12059083      12.35783563       2.69959704      -0.08452332      -0.47871575       0.53209462
O        8.96859481       8.49393513       1.39052066       0.14239071       0.19861420      -0.60638942
H        8.87336730       8.35816116       0.45768691      -0.09998187      -0.37923270       0.13085498
H        9.19781189       9.52033750       1.61767221      -0.03866662      -0.32245103      -0.12916634
O        3.65451858       7.80720086       3.64344024       0.81163306       0.40325401      -1.13362449
H        3.86679143       7.84981329       4.56288056       0.36313850       0.53021358      -0.30909486
H        3.29816353       7.02885786       3.15395864       0.32719663      -0.39815078      -0.01077935
O        9.75570357       6.67827161      10.74286576      -0.83320776       0.27808197       0.21775521
H       10.01798928       5.85035286      11.17025693      -0.06640639       0.04492708       0.55708382
H       10.06223627       7.32207938      11.35310131       0.01609409      -0.14057998       0.26751110
O        2.83426534       1.89555453       6.12491921       0.22748954       1.75406864      -1.21044483
H        3.76107392       1.59938254       5.98317662      -0.03562512      -0.36380028      -0.06511259
H        2.22471120       1.18189714       6.36862766       0.14753586      -0.19442567      -0.09390204
O       11.03973010       3.08196089       5.47356598       0.71056973      -0.23209064       0.85835980
H       11.14508237       3.74968651       6.16485427       0.51641498       0.27650546       0.12675325
H       11.67288509       3.15377203       4.74412326       0.10752878       0.40433038      -0.19220132
O       11.57403979       3.87284829      11.26974655      -0.17567705       0.46888789       0.61828240
H       11.99439621       3.87324518      10.40358784       0.11804615      -0.20173527       0.20552637
H       11.65561895       3.10611162      11.81909902       0.08904865      -0.02397296      -0.11639458
O       11.85238859      10.89564139       7.37510134      -0.52632807       0.41871427       0.31955402
H       11.86255280      10.23782062       6.68659747      -0.04952529       0.22869500      -0.18624394
H       11.76284285      11.79226488       7.06909917      -0.17419743       0.06494103      -0.00109480
O        3.84040503       7.68392436       0.30319537       0.30067124      -0.34843373      -0.43149249
H        4.03682236       7.57797102      -0.60944930      -0.01370388       0.16739797       0.01742322
H        4.62407013       7.54370860       0.79776163      -0.04847783      -0.08984635      -0.14073609
O       11.73460685      12.57239589      12.84865698       1.67319092       0.59013352      -0.17594364
H       11.42462304      11.95645172      12.17412387       0.38062201      -0.14790818       0.06295685
H       11.32663144      12.52709211      13.70885115      -0.41378598       0.04503927      -0.02107451
O        3.14016626       9.91651727       1.50497493      -0.68494742      -0.44293606      -0.50302011
H        3.00197356      10.03286330       2.45504158      -0.20562421       0.76165915      -0.03593751
H        3.70853048       9.17500355       1.22637720       0.28563752      -0.14154006      -0.03775896
O        0.24984951       9.89233131      10.48326393       0.97406699       0.21184814      -0.83225631
H        0.60764009      10.02763638       9.63383924      -0.13683705       0.37543373      -0.15425492
H       -0.27126886      10.66863071      10.75030448       0.22490455       0.03874395       0.16788144
O        1.56857853       2.10661834       3.61153916       0.20429126       0.20169394      -0.04888754
H        1.36416955       1.16496435       3.45964162      -0.25859788       0.14978408      -0.00925420
H        1.68372804       2.16661930       4.58296115      -0.02048365      -0.25233647       0.02523128
O        0.96211628       7.26665532      13.06900797      -0.72133613      -1.06271552      -0.34799760
H        0.76280676       6.72614609      12.27225082      -0.01985489      -0.00774450      -0.22799703
H        1.90210751       7.15166247      13.09699760      -0.07259963      -0.10692808      -0.08370748
O        0.67905542      12.42084906       6.01310734       0.27786362       0.03420227      -0.01419129
H        1.02250190      11.88845983       5.27453459       0.14337321      -0.32824805       0.19665675
H       -0.27870492      12.52823937       5.91938061      -0.18661138      -0.46327392      -0.05598555
O        1.75262701      11.68299102       8.28908899       1.46391000       0.04896010       0.82989134
H        1.60201007      11.80236967       7.33994453       0.17772859       0.04454521      -0.02410751
H        1.76003880      12.53561171       8.75685473       0.08422748       0.47533674      -0.22049482
O        0.82851782      13.24597315       0.40361491      -0.03026575      -0.15114751      -0.26977217
H        1.51331621      12.59104005       0.32146925      -0.15642420      -0.24648279       0.18988079
H       -0.00114273      12.92079845       0.07662611       0.03911624      -0.14010966      -0.01581869
O        6.69326159       0.95421574       6.01868488      -0.46098276       0.36637369       1.68078355
H        7.05938043       0.13576764       5.72148094       0.01882950       0.13416167      -0.22631742
H        6.94318050       1.70524714       5.49355893      -0.06560465       0.07729987       0.12090878
O        0.79534856       7.62745589       4.73122918      -0.31295850      -1.07860729       0.70822055
H        2.60566387       7.97798989       4.09763189      -0.74512140      -0.76039036      -0.17185757
H        0.98215048       6.82776674       5.22731657       0.04866872       0.07040289       0.06701086
O        5.65747160       2.95848417      13.07185590      -0.50655776       0.84981125       1.22236181
H        5.37243582       2.03318445      13.13589711      -0.18473876       0.09427156      -0.27903337
H        5.07925628       3.49583917      13.64352064      -0.25534626      -0.22363396       0.09441469
O        5.64236635      12.46084757       8.49542520      -1.00551967       0.42486000      -0.69351102
H        6.15032619      12.13546458       7.76077168       0.00251433      -0.16875815       0.11464766
H        5.14405740      13.25746324       8.34482739       0.13409904      -0.07014462      -0.74749234
O       11.36193269       8.94306072       5.06553418      -0.32121296       0.94104047      -0.22140948
H       10.91179229       8.13110725       5.23802215       0.25452857      -0.12175601       0.21371953
H       12.27413958       8.96171769       4.68441429       0.18082255      -0.31159397      -0.03552564
O        9.91197882       6.52451869       2.93472154      -0.14678376      -0.91565951      -1.15782297
H        9.29024853       7.10116816       2.47210367      -0.00978134      -0.35838817       0.28376520
H       10.71281908       6.90946680       2.54971561      -0.14809804       0.37978842      -0.44871518
O        3.75378061      10.36620914       9.53902566       0.10541083      -1.60905040       1.05270685
H        4.64096041      10.72344084       9.49746996       0.13094357      -0.26119767      -0.04920965
H        3.28559185      10.36155004       8.72933154       0.32992040       0.13299660      -0.03200263
O        7.25630067       7.57929730      11.53356837       0.69397699       0.12054503       1.14923662
H        7.27649413       8.52113872      11.70612074       0.31136587      -0.11564862       0.04674011
H        8.07485032       7.27076817      11.20595648       0.08335542      -0.00460684       0.00852332
O        4.93543133      11.06801996      12.64576143       0.63808248       1.16192921      -0.47778074
H        4.28107014      11.33312340      13.29495239      -0.11324502       0.33438684      -0.26167432
H        4.67777750      11.29411042      11.74288518      -0.22164509      -0.20798460       0.05618407
O        8.07231731       4.56244621      12.70138575      -0.44787536       0.15055359       0.97564264
H        7.26037854       4.05953485      12.54125135       0.35911775      -0.19123507      -0.27617901
H        8.34771161       5.18485142      12.03366041      -0.07353344      -0.38885701      -0.13035019
O       11.31090908       8.32109635      11.79893479      -0.49750110       0.03661715       0.65416867
H       11.76257726       8.29810226      12.63464092      -0.47374088      -0.51636979       0.19465269
H       11.12986742       9.27331535      11.67210915      -0.04544552      -0.21534236       0.59562680
O        5.17499477       4.12502610       2.14763477      -0.37678349       0.10941342      -0.18461225
H        5.50977947       3.96709888       3.02184555      -0.04763151       0.27000215       0.15200081
H        4.21648289       4.22825447       2.26375884      -0.10469292      -0.14692105      -0.31815606
O        1.83742539       1.04275778       8.86888362       0.27148778      -0.77543449      -0.09119137
H        2.75756433       0.97944687       9.09435794      -0.37301009       0.03627166       0.27741289
H        1.25983437       1.19297502       9.61374917      -0.37284068      -0.39621994      -0.20286586
O        4.57889239       6.10670094      10.37875533      -0.15915237      -1.03756129       0.54460659
H        4.01721287       6.57482643       9.79187689       0.15572654      -0.43012945      -0.04229484
H        5.38924123       6.57498194      10.40483884      -0.11860881      -0.17993272      -0.03624659
O        8.99769435      12.46591180       5.55345454       0.21485548      -0.80278535      -0.04061153
H        8.68263671      11.56705633       5.54512961       0.27895732      -0.26050904      -0.14259737
H        9.66262053      12.55393419       6.23433239      -0.58745902       0.11294964       0.42392172
O        6.17854656       5.31739396       7.90716002      -1.11118709       0.58379178      -1.30824216
H        5.40275306       5.64860666       8.35265889       0.06339319       0.18251507       0.01652783
H        6.07862268       4.87049618       7.06344604      -0.24411370      -0.02001681       0.11635565
O        9.90375203      10.56252580       3.28237356       1.40141314       0.14346816       1.10790695
H       10.51606386       9.90227074       3.62113064      -0.03755118      -0.06044166      -0.06099618
H       10.57143338      11.99881974       2.61038399       0.34478187       0.93909371       0.25018630
O        7.34125820      12.86263482      10.58034883      -0.50063533       0.56299950      -0.56076943
H        6.85090279      13.23368507      11.29189541      -0.16872413      -0.03366718       0.06348881
H        6.79622811      12.75672313       9.80866008      -0.08563121       0.06683337       0.19792708
O        0.98525472       5.53142061      10.94065955       0.49799177       0.47759092      -1.15767852
H        0.32316671       5.41696579      10.27231699      -0.15346980      -0.14190720       0.00907440
H        1.74923365       4.97854990      10.63504856       0.09320958      -0.31359905       0.32136418
O       10.66875554       5.95159661       5.66148141      -1.86786198       1.05073187       1.07159474
H       10.41077983       6.06900593       3.79719519       0.36604143      -0.76865808      -0.11861755
H        9.86636345       5.89118470       6.16622738      -0.12284866      -0.12499120       0.33758648
O        1.35863575       5.05734727       5.62175160       1.24777136       1.59820086       0.13289415
H        1.18787988       4.27786611       5.02543122      -0.05874834      -0.09904362      -0.11503197
H        0.74139915       4.99770679       6.32705593      -0.04798713      -0.09047060       0.07925243
O        5.95831703       6.95717815       1.74433619       0.41362203       0.39279307       0.23658921
H        6.56889929       7.39463427       1.17523494       0.28707251      -0.16551102       0.01373232
H        6.03043697       6.03021543       1.94182594      -0.06936110       0.08711995       0.04671603
O        9.30086068       4.25940146       1.81484353       0.91753568       0.92031168       0.59091856
H        8.68158125       4.22052936       1.09091078       0.19091376      -0.01826475      -0.13340063
H        9.88720771       5.02155517       1.94139498       0.30268286       0.09295502      -0.12209189
O        0.93337934       2.55035311       1.18453054      -0.47191460      -0.63180870      -0.31978155
H        1.01143084       2.03003753       0.38576305       0.13466502       0.44475856       0.07884850
H        1.57881382       2.38717505       1.87086257       0.12650914      -0.23300305       0.26638932
O       12.94375242       4.77244439       7.60798647       0.70574469      -0.23838705      -1.01958085
H       13.13180265       5.26389952       8.41984626       0.08416040      -0.09153243       0.04032048
H       12.06549911       4.88675258       7.29319298      -0.24665103      -0.09146868       0.32351910
O        7.51448724       9.98430736      12.80046864      -0.68997934      -1.09793386       0.28552355
H        6.62180367      10.29586786      12.94244740      -0.08604990       0.26448955       0.04433834
H        8.05234289      10.34695420      12.08460168      -0.00594901      -0.07383369      -0.15975100
O       10.96665501       0.01046189       2.78087837       0.89085910      -0.76950374      -0.43597207
H       10.91269446       0.82460890       2.39920670      -0.29667592       0.39258608       0.33197853
H       10.09511854      -0.15725489       3.10968588       0.07027848      -0.64632589      -0.06447774
O        1.59779249       2.36865195      11.20326060      -0.29073837      -0.33430086      -0.85223545
H        2.13977881       1.97757235      11.91650437       0.16184316      -0.07149827      -0.25741668
H        2.13669447       3.10432947      10.85357747       0.57463915      -0.10391249       0.07663787
O        4.67106549       1.85077376       8.12166729      -1.06090858      -0.14062970      -0.95725275
H        4.30533011       2.21337215       8.91110307       0.00860803      -0.08017929       0.09423605
H        5.54214826       2.26587168       7.97003180       0.01186063       0.27542950      -0.19019513
O        9.45828628      11.50955245      11.36929069      -0.52126667       0.06576672      -0.73995334
H        9.07694083      12.34119223      11.17540886       0.14265334       0.03460640       0.18097271
H        9.89085860      10.96496560      10.69529032       0.10539500      -0.21375118      -0.02947742
O        1.77024808      10.85177854      12.72972337       1.19976290       1.08958240       0.72440154
H        1.98048809      10.23662347      13.46503387       0.01334841      -0.27921808       0.17219291
H        1.09755625      10.60451148      12.14989717       0.00048721      -0.18133632       0.07333648
O        8.45035944       0.39083639       3.16413582      -1.27501621       0.03424810      -0.23928832
H        8.02389774       1.15581807       2.78128825       0.07740655       0.04605764      -0.21706952
H        8.38229468       0.18023719       4.06255676      -0.21910615      -0.09072963       0.16889242
O        8.28543369       3.01111567       4.03372567       1.02860112      -0.90883648      -0.86144528
H        7.91607907       3.63985390       3.42952721      -0.55638460      -0.05516274      -0.15972899
H        8.73036211       3.50867207       4.77043295      -0.37363046       0.28650510       0.08617611
O        2.39212077       4.94948224       1.91398211      -0.41339335       0.17528939       0.06284455
H        1.88343201       4.17529694       1.69510396      -0.27502045       0.04480701       0.04362086
H        2.72997316       5.36951448       1.09658639      -0.27338673      -0.03188636       0.11103260
O        0.59510171       8.74798766       8.02946770      -1.41552174       0.29421382       0.06944934
H        1.27522965       8.47208300       7.43079127       0.16815759       0.02888533      -0.42359054
H       -0.07808998       9.23646919       7.58826482      -0.00907100      -0.18830295       0.24412433
O       11.89232072       0.79948139       6.78293189       0.06287971       1.07260193      -0.33268343
H       11.24252353       0.76939249       7.48997758       0.06572998      -0.36455058      -0.01667909
H       11.58589903       1.40003658       6.08803418      -0.22158238       0.06726389       0.09028001
O       12.59447867       7.05278828       2.31998335       0.59274656      -0.97971943      -0.00455281
H       12.96584775       6.99393489       3.17891769      -0.17162682      -0.10775690      -0.05159441
H       12.70005676       6.31858509       1.70418801      -0.03981403      -0.28510133      -0.02328306
O       10.54392408       9.35212070       9.31792802      -0.17334000      -0.36326418      -0.26116994
H        9.82271224       8.88266583       8.91045331      -0.40008937       0.65798399      -0.18308045
H       10.98027894       9.93898395       8.72387282      -0.16526563       0.29764755       0.09474742
O        3.93634481       4.46565836       5.59501517      -0.76415761       0.32302944       0.77450914
H        3.76700530       3.53007538       5.45231568      -0.11888522      -0.00817218       0.11874625
H        3.06011104       4.90524040       5.67150557      -0.15015038      -0.34755277       0.04303206
O        4.65413169       3.44862412      10.44318649       0.76788093      -1.09702567       0.43985593
H        4.65588805       4.39118681      10.36564614       0.15100076       0.15770634      -0.22211092
H        5.16592888       3.06565169      11.19162866      -0.40033484       0.33406985       0.46682668
192
Lattice="13.286452283101344 0.0 0.0 -5.290958280394349e-07 13.286452283101344 0.0 -5.290958280394349e-07 -5.290958280394349e-07 13.286452283101344" Properties=species:S:1:pos:R:3:momenta:R:3 step=200 time_fs=20.0 phase=production pbc="T T T"
O       10.37375413       0.36927305       9.54472028       2.16406550       0.95902143       1.25494902
H       10.91682598       1.11628008       9.78743719      -0.19538079       0.25352388      -0.70422901
H        9.48085046       0.64055971       9.79870595      -0.12957244      -0.25126289      -0.18293326
O       11.38681485       2.58841129       2.57263873       0.81334759      -0.08779672       0.87921746
H       10.72754677       3.10521308       2.15272262       0.06037090       0.05707508       0.06332078
H       12.26671935       2.99288985       2.57221822      -0.00019689      -0.00793470       0.13478038
O        3.08213996       8.21760112      10.75012764       0.56085061      -0.14085498      -1.36632037
H        2.27372797       8.60303981      10.41840490       0.07722385       0.16221483       0.01770371
H        3.68619645       8.78558466      10.24247697       0.02818017      -0.35000333      -0.23397305
O        8.85216081       6.31844174       7.66500272      -0.57563809       1.07001758       0.48814488
H        9.18619208       5.87690388       8.44293161      -0.20803803      -0.07045166       0.21974169
H        7.96252911       5.99127456       7.51802722       0.29347864       0.07625361       0.11462098
O        6.74278190      13.54390864      -0.07255423       0.48842546       0.13293647      -0.53406100
H        6.26253184      12.85923139       0.37316187      -0.12808468       0.62557743       0.09075016
H        7.02613287      13.82938702       0.80758938       0.02676169       0.12979229       0.11502387
O       12.53531114       6.77062813       9.62693341       0.37537986      -0.92409258       0.20063963
H       11.66829503       7.12677862       9.79383356      -0.01720291      -0.06429839      -0.22431071
H       12.85709905       7.23469036       8.86684626      -0.06982425       0.11556515      -0.00284573
O        7.74319807       9.80647289       5.18186309      -0.24353052       0.37375583      -0.24838646
H        7.43117543       9.16384435       5.78364171      -0.01280032       0.42749760       0.06665443
H        7.55256543       9.59589007       4.24108263      -0.32333338      -0.39216807       0.13981886
O        0.49702190      12.84039343       3.24185570      -1.67043660       0.59179756      -0.40051712
H       -0.41389785      12.68840808       2.94302567       0.10503708      -0.03290157      -0.34815360
H        1.11436677      12.30958377       2.74974752      -0.04072129      -0.50649174       0.49863956
O        8.96949566       8.49604130       1.38715734       0.20868460       0.54544166      -0.47518462
H        8.86257590       8.32081489       0.46705868      -0.11856316      -0.38596701       0.05728177
H        9.19032147       9.47266209       1.60195152      -0.11338738      -0.65725088      -0.19331074
O        3.65977827       7.80876793       3.63507726       0.87018010       0.15669933      -1.54987637
H        3.90872778       7.90287744       4.54254076       0.50141427       0.56289668      -0.10938268
H        3.33664694       6.99735558       3.15599336       0.46327302      -0.23681205       0.06237175
O        9.75045352       6.67944360      10.74416139      -0.80356006       0.13493484       0.29388502
H       10.00943309       5.85481377      11.22049038      -0.11287437       0.06553075       0.46509934
H       10.06427659       7.31207938      11.38032017       0.02505842      -0.06944669       0.28355679
O        2.83606970       1.90571971       6.11729653       0.37313024       1.55690730      -1.23224690
H        3.74682925       1.56721269       5.97870087      -0.25107959      -0.29090515      -0.02549692
H        2.24192353       1.16803699       6.35762822       0.20729327      -0.08225918      -0.13105120
O       11.04424655       3.08058284       5.47859728       0.84539922      -0.17239277       0.81843739
H       11.19414700       3.77244566       6.17095425       0.48903364       0.17178597      -0.01680696
H       11.67732563       3.19296551       4.73129674      -0.02429539       0.39625006      -0.05643060
O       11.57272897       3.87607557      11.27292946      -0.18829463       0.60342475       0.50642410
H       12.00415496       3.85168044      10.42870890       0.09575405      -0.23643417       0.29216996
H       11.66571166       3.09926982      11.80907467       0.12122256      -0.11533689      -0.08156176
O       11.84890609      10.89784242       7.37695887      -0.53644077       0.37191216       0.32512175
H       11.85652251      10.25996328       6.66741605      -0.06872883       0.22946781      -0.20215083
H       11.74507235      11.80051996       7.06925797      -0.18538721       0.10211007       0.01019568
O        3.84158783       7.68169827       0.30075680       0.10805725      -0.33032053      -0.36463147
H        4.03652714       7.59359096      -0.61677658       0.00852200       0.15728232      -0.16437675
H        4.62662765       7.53324371       0.78904539       0.10329027      -0.12189510      -0.03677643
O       11.74455017      12.57576360      12.84737956       1.62740142       0.58108108      -0.14552890
H       11.46144216      11.94252619      12.18143581       0.37957296      -0.13326917       0.09071353
H       11.28584454      12.53036584      13.70517043      -0.40903787       0.02959004      -0.06541031
O        3.13622243       9.91331838       1.50188962      -0.57398180      -0.54492513      -0.48822418
H        2.98302521      10.10469082       2.44736265      -0.17906859       0.71106408      -0.12996970
H        3.72968572       9.16796805       1.22695387       0.14046521       0.01134134       0.05636526
O        0.25549758       9.89362964      10.47846843       0.87877182       0.27064068      -0.68730610
H        0.59817407      10.06455532       9.61040617      -0.06583283       0.38314709      -0.30272671
H       -0.24781719      10.66885368      10.76596499       0.25334724      -0.02640969       0.15884680
O        1.56977338       2.10750677       3.61153418       0.19656550       0.11164589       0.06694939
H        1.33943181       1.18282333       3.45803693      -0.25129492       0.20427850      -0.02563027
H        1.68194345       2.14304432       4.58080362      -0.01461343      -0.22848443      -0.06220360
O        0.95746524       7.25966786      13.06612800      -0.78653504      -1.17172662      -0.51406881
H        0.76084636       6.72966670      12.25711220      -0.01931894       0.08485088      -0.07392762
H        1.89864501       7.14237906      13.09047915       0.00019002      -0.08076474      -0.04459452
O        0.68028918      12.42043130       6.01219997       0.11959458      -0.09683717      -0.24337932
H        1.03422398      11.86315186       5.30005288       0.09764336      -0.18511902       0.32697924
H       -0.28805548      12.48393471       5.91754270       0.00405255      -0.44059326       0.02186421
O        1.76154243      11.68350049       8.29396715       1.45064356       0.20872532       0.81413954
H        1.62046327      11.80522433       7.34372688       0.20118694       0.01714688       0.10657953
H        1.76783030      12.57460511       8.73162141       0.07667381       0.30904848      -0.30077475
O        0.82839845      13.24496922       0.40202009      -0.00069005      -0.10492045      -0.24981509
H        1.50108397      12.56444706       0.33919730      -0.10005315      -0.28725775       0.17499935
H        0.00017310      12.90700237       0.07478391      -0.00776473      -0.13538210      -0.02088024
O        6.69005120       0.95650199       6.02917335      -0.53516556       0.38379653       1.76124234
H        7.06281021       0.14426315       5.69736663       0.04925063       0.05067363      -0.26221425
H        6.93813280       1.71763123       5.50296341      -0.03898430       0.16749203       0.08169800
O        0.79339856       7.62075549       4.73540322      -0.31742049      -1.04500852       0.67219843
H        2.51335556       7.90710360       4.08782715      -1.09735083      -0.70347946      -0.05396981
H        0.98825181       6.83201955       5.23441526       0.08002319       0.00727286       0.08803590
O        5.65391173       2.96357653      13.07925950      -0.61479671       0.82803988       1.26487519
H        5.35727959       2.04518330      13.10806085      -0.12485881       0.14569829      -0.28758309
H        5.05805963       3.47252419      13.65020709      -0.18094209      -0.24720932       0.05259367
O        5.63597712      12.46314684       8.49120437      -1.03870078       0.39919649      -0.63393849
H        6.15207453      12.11717576       7.76901480       0.03653875      -0.20343888       0.05979763
H        5.15558246      13.25332675       8.27197813       0.10151781      -0.00639707      -0.74262426
O       11.36072624       8.94895960       5.06350736      -0.00703787       1.02133591      -0.40375810
H       10.93705871       8.11953864       5.25881790       0.26950135      -0.10540990       0.21356666
H       12.27530625       8.92665074       4.68886783      -0.15054050      -0.39629568       0.12585686
O        9.91066809       6.51944274       2.92599382      -0.17414149      -0.71426012      -1.62992346
H        9.28662734       7.06826463       2.49951007      -0.07689982      -0.30217962       0.26892047
H       10.69455897       6.94310561       2.50869513      -0.23538608       0.29861475      -0.37544509
O        3.75463839      10.35623852       9.54581034       0.20058833      -1.57245419       1.21052902
H        4.65404997      10.69836481       9.49177926       0.13475954      -0.25215585      -0.06120724
H        3.31265616      10.37525698       8.71796981       0.22754947       0.15181078      -0.19482311
O        7.25988177       7.57987615      11.54062789       0.53221580       0.10178297       1.21340243
H        7.30610134       8.51383629      11.71132731       0.29845649      -0.02394567       0.06567460
H        8.08940349       7.26652186      11.20252985       0.20147636      -0.07409802      -0.06831949
O        4.93925707      11.07505975      12.64247834       0.63674231       1.19934731      -0.50664093
H        4.27027093      11.36487505      13.26826389      -0.10584862       0.32033346      -0.27688385
H        4.65656555      11.27270462      11.75070857      -0.21150853      -0.22556520       0.09715562
O        8.06941609       4.56323285      12.70733367      -0.44099958       0.13416633       1.04913364
H        7.29538782       4.04136389      12.51335334       0.34804588      -0.19127369      -0.29238009
H        8.33954556       5.14634871      12.01952063      -0.08385541      -0.38893643      -0.16498994
O       11.30765700       8.32162611      11.80270802      -0.48542342       0.14738993       0.65151208
H       11.71841398       8.24437143      12.65703228      -0.42748657      -0.58400898       0.27177331
H       11.12472668       9.24955179      11.72804116      -0.06354300      -0.22712038       0.55025789
O        5.17228514       4.12571842       2.14638830      -0.47198032       0.13939161      -0.19562387
H        5.50661190       3.99297336       3.03825603      -0.02197304       0.26495164       0.17164402
H        4.20835773       4.21391625       2.23149359      -0.05572900      -0.14578665      -0.34171375
O        1.83882370       1.03786137       8.86799088       0.15195731      -0.80760061      -0.14943485
H        2.72401967       0.98333773       9.12266453      -0.27432176       0.04139764       0.31666743
H        1.22344125       1.15504319       9.59481327      -0.37005471      -0.38292351      -0.18800567
O        4.57781838       6.09972702      10.38212933      -0.15768194      -1.20497033       0.62654855
H        4.02123211       6.53896457       9.78168251      -0.08269186      -0.29603936      -0.17252793
H        5.38985616       6.56105376      10.40462182       0.13904316      -0.10108531       0.03675764
O        8.99885785      12.46077036       5.55310013       0.21131953      -0.81112392      -0.04372272
H        8.70966390      11.54042859       5.53015042       0.28391804      -0.26737657      -0.16257877
H        9.60652743      12.56634166       6.27594087      -0.55757385       0.14694798       0.43546983
O        6.17178308       5.32085207       7.89897166      -1.04941086       0.58253225      -1.29615589
H        5.40834533       5.66650511       8.35318352       0.05039165       0.18858344      -0.00028283
H        6.05254990       4.86875736       7.07442925      -0.28978038      -0.02263069       0.09507315
O        9.91232452      10.56335439       3.28907875       1.43749215       0.19082604       1.09543465
H       10.51163708       9.89700634       3.61620168      -0.03946713      -0.05231288      -0.03400185
H       10.59843268      12.09615650       2.64064710       0.22076678       0.92256171       0.32819171
O        7.33829924      12.86580015      10.57683831      -0.42329871       0.55516893      -0.49595211
H        6.83321994      13.23280608      11.30330174      -0.18169545       0.01336547       0.16085232
H        6.78623696      12.76151551       9.82232665      -0.12225941       0.03532207       0.07874490
O        0.98882568       5.53381156      10.93310813       0.66433330       0.33165691      -1.24219508
H        0.30638755       5.40500092      10.27341272      -0.17862733      -0.10142345       0.02613644
H        1.75257488       4.95384736      10.66987356      -0.02864867      -0.18876681       0.39518949
O       10.65721277       5.95794192       5.66776690      -1.85604878       1.04943103       1.02953890
H       10.45677856       5.98337205       3.80917494       0.56456695      -0.96615919       0.32450555
H        9.85152052       5.87911574       6.20035439      -0.14797835      -0.11810605       0.34531170
O        1.36621870       5.06664030       5.62181299       1.21220841       1.45044579      -0.06498252
H        1.18468068       4.27506726       5.01927211      -0.00458502       0.05046392      -0.00350232
H        0.73440434       4.98930344       6.33882543      -0.07803343      -0.07820371       0.14481868
O        5.96054544       6.95952578       1.74592480       0.35735501       0.42324646       0.28299481
H        6.59972769       7.37886620       1.17486461       0.33939087      -0.16035696      -0.01322926
H        6.02423627       6.03645374       1.94582371      -0.05622525       0.03954608       0.03724718
O        9.30667917       4.26512393       1.81870541       1.03464809       0.97699505       0.67266264
H        8.70012053       4.21993236       1.07549562       0.19819792       0.00721295      -0.17638441
H        9.91060212       5.02669329       1.92809457       0.17603225       0.00696031      -0.15111926
O        0.93065954       2.54661573       1.18305128      -0.39287303      -0.55835552      -0.10622011
H        1.02580645       2.07054332       0.39091294       0.16455704       0.37057461      -0.00107399
H        1.58602434       2.36320267       1.89229110       0.00293559      -0.25235315       0.15295127
O       12.94799951       4.77090966       7.60176942       0.73653853      -0.22791492      -0.96116493
H       13.13943505       5.25336801       8.42096538       0.07718550      -0.12418271      -0.01728182
H       12.03871989       4.87875715       7.32419945      -0.27830665      -0.07301577       0.32231468
O        7.51028075       9.97733821      12.80180705      -0.64154184      -1.09972400       0.22061759
H        6.61342278      10.32201044      12.94561228      -0.06885323       0.26987354       0.02356844
H        8.04925101      10.33973836      12.07156205      -0.06138459      -0.07500115      -0.09270866
O       10.97227896       0.00513761       2.77838893       1.01176385      -0.85149810      -0.36088090
H       10.88409615       0.87636174       2.42539576      -0.28838431       0.62494697       0.22790033
H       10.10351933      -0.23375268       3.10046109       0.09470758      -0.84415383      -0.10128167
O        1.59675321       2.36690288      11.19790564      -0.03449454      -0.20724191      -0.83389231
H        2.14919077       1.97213360      11.88611754       0.03706563      -0.04807132      -0.34866487
H        2.18629121       3.08690670      10.86436328       0.43583598      -0.25692727       0.14777708
O        4.66515575       1.84998262       8.11547214      -0.82717810      -0.09426611      -1.00379435
H        4.30664733       2.20724783       8.92245169       0.02502997      -0.04945357       0.13150285
H        5.53365327       2.28921546       7.95301169      -0.19736242       0.19752291      -0.15279998
O        9.45522717      11.50897169      11.36469871      -0.41471055      -0.18852544      -0.69210570
H        9.08653590      12.35116084      11.18861760       0.05936389       0.17234589       0.09440072
H        9.89833842      10.94752669      10.69353528       0.04774335      -0.13415843       0.00342576
O        1.77817289      10.85828448      12.73473249       1.37807946       1.07663976       0.98370733
H        1.97844618      10.21338606      13.47458871      -0.05717737      -0.18067340       0.01529504
H        1.09116633      10.58219271      12.15131989      -0.11377218      -0.26617582      -0.02465626
O        8.44246988       0.39110369       3.16210936      -1.24479048       0.04758082      -0.37156417
H        8.03110818       1.15939186       2.76176118       0.07471769       0.02496244      -0.18017822
H        8.35996783       0.17115083       4.08480512      -0.23227488      -0.08747820       0.25529350
O        8.29192339       3.00596226       4.02895349       1.11651668      -0.72109178      -0.69305499
H        7.86191495       3.63378469       3.41386324      -0.53446249      -0.09522748      -0.13348314
H        8.68972704       3.52970115       4.76961195      -0.45518195       0.14375864      -0.10338667
O        2.38986017       4.95073027       1.91412688      -0.32304766       0.24235785       0.01556850
H        1.85505568       4.17866257       1.69832248      -0.30186992       0.03324129       0.02565398
H        2.69962807       5.36455445       1.11146510      -0.33825919      -0.05578704       0.17262306
O        0.58687757       8.74932021       8.03000826      -1.20430523       0.16551648       0.13324458
H        1.29112583       8.47429576       7.38965801       0.11905122       0.03491158      -0.38337044
H       -0.08580660       9.22348374       7.60857109      -0.16684154      -0.06210224       0.16405855
O       11.89232430       0.80612189       6.78070259       0.01421931       1.09296239      -0.35204427
H       11.25036475       0.73328245       7.48716774       0.09680942      -0.37541522      -0.03490286
H       11.56534424       1.40539608       6.09707146      -0.19644717       0.04500870       0.09566189
O       12.59751115       7.04634001       2.31929959       0.47033519      -1.08778524      -0.21842569
H       12.95283367       6.98263206       3.17861683      -0.08817876      -0.12167632       0.05217010
H       12.69902229       6.29763879       1.70632239       0.02313794      -0.13152930       0.07531902
O       10.54250502       9.34964267       9.31643184      -0.22729146      -0.38289361      -0.18358705
H        9.78365954       8.94594813       8.89063140      -0.38886116       0.64787293      -0.21486609
H       10.96623672       9.97061241       8.72953213      -0.12487333       0.34667523       0.03434120
O        3.93113984       4.46758431       5.59955307      -0.89362785       0.32689573       0.73689857
H        3.75645097       3.53191486       5.46508616      -0.09473678       0.04040900       0.14391063
H        3.05249317       4.86882082       5.67611172      -0.01985103      -0.38662195       0.05578604
O        4.65889429       3.44151455      10.44594555       0.80728051      -1.17040716       0.51619461
H        4.67074296       4.40536190      10.34448936       0.15525655       0.11043823      -0.20603217
H        5.12413085       3.10158459      11.23238322      -0.45050294       0.40009102       0.37880572
