192
Lattice="12.749513626098633 0.0 0.0 -5.291772140481044e-07 12.749513626098633 0.0 -5.291772140481044e-07 -5.291772140481044e-07 12.749513626098633" Properties=species:S:1:pos:R:3:momenta:R:3 step=0 time_fs=0.0 phase=equilibration pbc="T T T"
O       11.58024883       0.72498864     -16.52445793       1.11768299       0.20408896       0.69008038
H       11.81181717       0.78436756     -15.53965855       0.36097603       0.29840838      -0.15413935
H       10.76372814       0.18189090     -16.44460487       0.15239367      -0.02783003      -0.01289933
O       26.36344719      24.79401588       4.85561371       0.24636511       0.03920975       0.99621760
H       26.70196342      23.84678841       4.58326721       0.12184479       0.01628950       0.07550418
H       25.49327087      24.94361305       4.49529648       0.05278673       0.23805757      -0.02937182
O        4.55044222      -0.28422797       6.68408966       0.18357736      -0.60336600      -1.58355279
H        4.83529854      -1.07390165       7.11166525       0.10448683       0.13631298      -0.11614725
H        4.04536915       0.15737888       7.41435432       0.36563978      -0.23838440       0.01117406
O       -2.84938097      -4.43740463       0.99063027      -0.13847139       0.93324112       1.00592910
H       -2.61852217      -3.73749900       0.44086069       0.02390609       0.05773556      -0.13967824
H       -3.60226274      -4.18081188       1.49332213      -0.32121079      -0.05959153       0.02904448
O        4.24721289      15.84552383      10.73478317       0.77406131       0.72053872      -0.18935610
H        4.32293320      16.65563965      11.23829556      -0.04998140      -0.17280874      -0.22568214
H        5.19970036      15.68020821      10.36292934      -0.27684983       0.31185556      -0.07857528
O       -1.38442278       6.65292120       5.13221407      -0.29998804      -0.86003830       0.56052247
H       -1.16714787       6.34425259       4.30304146      -0.26192329      -0.03774898      -0.14091939
H       -0.51785862       7.04266024       5.23280573       0.06138793      -0.08591356      -0.18699957
O       22.81806755      12.30516911       5.78538847      -0.03611034       0.22222706       0.10281672
H       23.17335701      13.23964310       5.97626257       0.04774470      -0.10587278      -0.05483579
H       22.49505615      12.44190884       4.78045988      -0.10979553      -0.06147261      -0.12761717
O       -0.99380004     -15.77508926       6.81807756      -1.12930256       0.06070057      -0.19866128
H       -0.45485213     -16.08402252       6.13538647      -0.26455731       0.07140934      -0.14283130
H       -1.49262893     -14.86474609       6.47252512       0.00726189       0.11444236       0.02462237
O       15.45499039     -17.88147926       9.66319847       0.71554873      -0.84846998       0.31901162
H       16.20885658     -18.30376244      10.29202080      -0.11179112      -0.14408501      -0.08975696
H       15.70476151     -16.92102242       9.71442318      -0.05147608       0.00570373      -0.18449776
O        3.25135970     -14.66133022     -13.33013248       0.56196096       0.24625949      -0.92899846
H        4.07719374     -15.24898148     -13.27065277       0.23935606       0.30298645       0.19426001
H        2.57298112     -14.89321613     -12.72210789      -0.03020624      -0.17639601       0.17416975
O       -5.74231339       1.54765272       2.85520196      -0.27752205       0.73345619       0.19407663
H       -6.46929693       1.30210924       2.21823668       0.15668401       0.05421351       0.11795573
H       -5.43554926       2.35845280       2.31344628       0.00056469       0.28520842       0.02428775
O       -5.38575363      16.01581192      25.98963737       0.24082278       1.15880104      -0.80765703
H       -5.29129553      15.31565762      25.36113358      -0.20643089       0.15327365      -0.18578622
H       -4.35831404      16.55647278      26.03186607       0.31293957      -0.07020916      -0.11700203
O        7.41874647     -15.71936703      -8.56404495       1.21997197       0.89959466       1.26227987
H        7.76011896     -16.59404373      -8.22976398       0.14527660      -0.14253835       0.31242910
H        6.70255852     -15.71397018      -8.01100159      -0.04443893       0.12629761       0.15684724
O       13.68023586       8.54409504      17.93683052      -0.11775878       0.34180640       0.65368701
H       14.04198074       8.80058670      17.02638245       0.05969494      -0.18102529       0.05197249
H       14.22989178       7.91326284      18.49035072       0.21319994      -0.11560795      -0.02039969
O       -0.15136531       1.17568886      -1.25246716      -0.29810774       1.13698550       0.49280032
H        0.81402797       1.41365457      -1.19074392       0.06471013      -0.12778354       0.09091769
H       -0.07980151       0.32297695      -0.61002493      -0.11009807       0.00177145      -0.09896707
O      -14.19501877      12.66273403      15.80837536       0.41750254       0.31767226      -0.07410255
H      -14.08447456      12.39100170      14.93772030       0.06285908      -0.18000092      -0.23719382
H      -15.12377834      12.22245789      16.00036049       0.06986971       0.02356085       0.10639523
O      -16.50709915       5.89053583      12.35020161       1.51623836       0.55450928      -0.52765617
H      -17.07337189       5.99335480      11.63549519       0.17936770      -0.21601080      -0.07080799
H      -15.87981319       6.77748966      12.58092308      -0.01215924       0.27348859      -0.11656573
O       -9.93085670      32.95535660      -9.56657028      -0.55000669      -0.11690284      -0.36713513
H       -9.34108829      32.25430298      -9.17445087       0.18092215      -0.17787923      -0.18164064
H      -10.60434055      32.31637573     -10.11273479      -0.07187977      -0.08384961       0.31557481
O       34.72598267      11.51679993      21.45279121       0.59324470       0.00284148      -0.72890836
H       34.76889801      11.55188560      20.38697433       0.13530940      -0.16499782      -0.24584112
H       35.17197418      10.55581474      21.38193321       0.19084284       0.04784298       0.15258235
O       30.39016914     -12.69961739       2.17083836       0.18722109       0.49808324      -0.35911841
H       29.79241180     -12.15017319       2.64960074      -0.16825629       0.10676742      -0.12604383
H       30.32688141     -12.61913013       1.28064585      -0.11255702      -0.07698201       0.00660438
O       17.59328842       9.34982014      -7.42393255      -0.24585931      -0.93867906      -0.35434986
H       17.75654030       8.24436951      -7.47171736      -0.36041383       0.09765966      -0.25509811
H       17.49332619       9.50084782      -6.49755478      -0.17959036       0.00505733      -0.11572678
O       -5.19974279       2.63030171      32.17810059       0.97538472      -0.88582886       0.23191499
H       -5.76909018       2.18207788      31.62262344      -0.00747976      -0.19212541       0.08833667
H       -4.51727343       1.96271300      32.26456833      -0.02885235       0.12134229       0.13685072
O        3.72383595       0.83603644      -0.23808952       1.37466686       0.80689973      -0.17767484
H        3.50995302      -0.10580844      -0.28170851      -0.03981352       0.17432296       0.10966459
H        4.04864979       1.22581255      -0.97762311       0.10230744      -0.26465753      -0.00015098
O       23.25961304       3.22112799      11.66518211      -0.49309219       0.12668637      -0.00319194
H       22.89178276       3.69758320      12.53435612       0.14594465       0.04788751       0.13084338
H       23.95712090       2.57524610      11.70460510      -0.07650112      -0.15598604      -0.06248042
O       -1.44264293      31.80788803      14.97783184      -0.02892466       0.19056619       1.51447818
H       -1.90867865      32.56244278      14.49384594      -0.00796039      -0.15784413      -0.05212762
H       -0.63238788      31.96923447      14.54845619      -0.07604493       0.07443097      -0.24519894
O        4.83401251      19.39249229       5.20213461       0.02275903       0.04723308       0.20946672
H        4.19375563      18.92559814       5.89170027      -0.09765288      -0.04181807      -0.22633545
H        5.66431284      18.99529266       5.20644188      -0.08084804      -0.09109358       0.07100982
O      -10.11733818      10.47273445       9.45824909      -0.76228711       0.44939303       1.02210441
H      -10.56179523      10.95322704       8.62468815      -0.33562285       0.06550747       0.11316211
H      -10.49601841      10.85548878      10.17052078      -0.10413607      -0.06756761      -0.01769240
O       17.70605659      17.76738930      26.21935463      -0.20967728      -0.25245609      -1.01897234
H       18.51691628      17.23879242      26.00022125       0.18507433       0.17108451      -0.12765240
H       16.93769073      17.24535561      26.08018112      -0.23809291       0.08082729      -0.08926222
O        6.93529034      18.72588730      10.12019539       0.07341833      -0.25909691       0.50518909
H        7.17553711      19.43673134       9.56392574       0.11113316      -0.12062204      -0.21975919
H        6.77701330      17.86063004       9.62658024      -0.25692053       0.09525970      -0.18832899
O       -0.61552304     -13.79612541      13.26192093      -0.34424236      -0.43741294       0.02615325
H       -1.32075751     -13.98700047      12.60902309      -0.31401730       0.02713283       0.08843595
H       -0.07504050     -14.52363777      13.75675488       0.01315619      -0.05360847       0.01951889
O        1.14059913       6.22465849       1.06936646       0.23892814      -1.83844376       1.31915943
H        1.58913505       5.20397615       1.11494458       0.06190353      -0.10879540      -0.05939462
H        0.86076492       6.21000004       0.19304278       0.07865219      -0.02213342      -0.32436032
O        3.08428288       1.33452666       8.34316635       1.31109867      -0.12468486       0.71675497
H        2.14491916       0.71188623       8.18653011      -0.11296100       0.24489254       0.05005045
H        3.21509027       1.66781306       9.25075817       0.09725164      -0.17227556       0.19949001
O      -18.86823654      28.79443550     -16.13371277       0.42611937       0.78457256      -0.34435151
H      -18.57898712      28.67098045     -17.17761993      -0.07886164       0.36892000      -0.16750906
H      -18.02880287      28.11259079     -15.81260872      -0.02310026       0.18033927       0.01957137
O        2.89657831      26.89320755      -9.10925674       0.35732283      -0.31067644       0.29822691
H        3.39167643      26.84923363      -8.50101948      -0.21225492       0.26456683      -0.01531434
H        2.37178278      26.07023048      -8.79159164      -0.11104265       0.10430939      -0.07066824
O      -18.04356575      19.06403160       1.91016555      -0.87692777      -0.92050290       0.50662754
H      -17.35203743      18.82579613       1.07529342      -0.02691764      -0.02497704       0.17793354
H      -18.82352066      18.41457176       1.64946640      -0.18321686      -0.12144299      -0.05841319
O       11.69502831      17.57333946       7.08430672       0.04277370      -0.08067057      -0.12469572
H       12.57938862      17.40537834       6.63619947      -0.01109028      -0.02071164      -0.11250165
H       11.44980621      18.34218216       6.52200270      -0.13250432       0.04098728      -0.14018391
O       -7.21591282     -11.17987347       5.19630289      -0.76304215      -0.25456721      -0.04150717
H       -6.55555296     -11.33497524       4.52568722       0.36353407      -0.11724526       0.15620229
H       -7.33566570     -12.14186478       5.44856691       0.11960685      -0.19549482       0.12873058
O      -24.11656189       3.45878673      10.69699860      -0.78011849      -1.76542662       0.45032720
H      -24.75385094       4.16675711      10.53126049      -0.28486803       0.06949485      -0.10675007
H      -23.20468330       3.72668266      10.25629997       0.26703637       0.16928937      -0.06948314
O      -11.42477703      -8.17853928      18.47018814      -0.46077907      -0.83511270      -0.22385967
H      -10.61190796      -8.51080894      18.81251335      -0.04643492      -0.06230325       0.02910183
H      -11.33889198      -8.48281574      17.61085892       0.09235182       0.05312892      -0.11969884
O        8.64130497       7.31222343      16.93864441      -0.94357958       0.82492790      -0.38385450
H        9.65557957       7.37318468      16.82402420      -0.10653675      -0.08759155      -0.29404345
H        8.34004402       6.79352379      16.19911957      -0.07836829      -0.08088011       0.10402419
O      -11.66915131      -0.47635421      20.40851212       0.43168092      -0.05109410       0.65989409
H      -12.51255322      -0.31226641      20.80952263       0.05380325      -0.00590616       0.02978444
H      -11.54479408      -0.51122749      19.37783432      -0.03193989      -0.06717618      -0.03948341
O       24.20710564       2.47224188      16.24833298      -0.74415130       0.12701927      -0.57935209
H       23.82329369       2.48642898      17.10057259       0.13486798      -0.04368233       0.01177784
H       23.88504791       1.49528539      15.90733051       0.07866754       0.10058171      -0.25001862
O       -5.65780354     -17.97080421      -4.97955227      -0.15116650       0.51311426      -1.03320103
H       -4.91104460     -17.61366272      -4.62017727       0.06144900      -0.36785083      -0.16144795
H       -5.84719610     -18.62328148      -5.61049509       0.00511033      -0.27108224      -0.15546971
O       29.51348114      -9.01765537      -6.13924885      -0.96549591       1.00750409       0.16572019
H       30.18786430      -9.07189655      -6.90846157       0.09053696      -0.03935436      -0.05333147
H       29.35758591      -9.90000534      -5.99594784      -0.26233961      -0.05053035      -0.11927034
O        8.81016541      -0.69567221       3.37943673       0.53434142       0.68108958       1.00413937
H        8.13959217      -0.08129326       2.97969079       0.13663266      -0.10010913      -0.17653895
H        8.18504810      -1.42161870       3.76989532       0.12275381       0.05420162      -0.28199990
O      -19.77704430      -3.17595220      24.77496529       0.21088243       0.47084467       0.09792943
H      -20.24594879      -3.93345857      24.23261070      -0.03103501      -0.13388076      -0.22996701
H      -19.22686005      -3.35188770      25.64948273       0.12818889      -0.05332217      -0.03394620
O        2.33822227      -5.82634640      -6.04426193       1.09751282       0.38714205       0.29872204
H        2.60435629      -5.58678818      -5.23193264       0.02182389       0.24224533       0.28164996
H        1.84410310      -6.58979034      -6.15263700       0.14906759       0.09071014      -0.33468899
O        9.83052444       8.29157162       7.94427252       0.06168154      -0.13728112       0.12047930
H       10.55507374       8.67099094       7.39429855       0.15125569      -0.44607910      -0.08821577
H       10.27916145       7.62031031       8.47927094       0.04248208      -0.07881009      -0.22517930
O        5.33315372       9.75194168      -4.79990673       0.54144840       0.12472113      -0.56517681
H        6.11570072       9.05035877      -4.75399590       0.04973959       0.12938873       0.00463515
H        4.79601765       9.65584373      -3.99316049       0.12823201       0.00927406      -0.06008552
O       13.78490734      29.46945572      15.87139988      -0.76437171      -0.10884166       0.18507536
H       12.97367859      29.05727959      16.07074165       0.14039463      -0.02197240       0.07769412
H       14.51437759      28.85084534      15.94469070      -0.15700458      -0.12983786      -0.01405801
O       -2.79554796       3.97514725       1.67142200      -0.69690935       0.47453222       0.35814578
H       -2.09789133       3.54244971       2.37876797       0.04396733       0.05139176       0.33036224
H       -2.66680431       4.90871143       1.82570362      -0.07689622      -0.35910506       0.03598501
O        7.81044340     -14.01097202      10.98301983      -0.05054459      -0.38668680      -0.57015015
H        6.86072922     -14.50368881      11.26676464      -0.07210106       0.02593057      -0.07747072
H        8.08376408     -13.91688442       9.99806213       0.38869865      -0.15858089      -0.12438068
O       -2.40225267      10.55052280      24.40655136      -1.49132057       0.10837733      -1.23811470
H       -2.11677766      10.18962383      23.63982582      -0.08830300      -0.04791794      -0.11090571
H       -3.26164699      10.98137951      24.01273727       0.27985406       0.15731305       0.21694048
O       20.08693123      21.72748566       1.53467739      -0.58604532       0.67303738       0.37930701
H       19.91960526      22.10029221       2.53567410       0.12352020       0.16297592      -0.14306801
H       19.85652733      20.72363663       1.67248571      -0.06969790       0.13601563      -0.42534410
O       12.13112259       9.99456882     -15.93627644       0.95627332       0.30257013       0.03057169
H       12.65966415       9.41337395     -15.31909752       0.03450003      -0.16980029      -0.05276778
H       12.34766197       9.94609737     -16.98574066       0.17666397       0.20637652       0.43946529
O      -11.40509129      22.31270409       1.06221199      -0.06555812      -0.47748072      -0.27105557
H      -11.54109001      21.21931839       1.16522169      -0.16563836      -0.01595270       0.06562600
H      -10.82580090      22.41965103       1.83509648      -0.00666526       0.17378764      -0.03406725
O        2.95212603     -15.01799583      16.16424561      -0.24164693      -0.42772701      -0.99105234
H        3.49181795     -15.75963783      16.56245232      -0.25446908      -0.19391332       0.21407889
H        3.56264305     -14.31895351      16.05730057       0.14353394       0.21880966      -0.21149344
O        2.46401834      16.36612701       0.35240024      -1.28531600      -0.47844854       0.17318229
H        2.10474420      16.02274513      -0.38129756       0.07945182       0.16597073       0.04971692
H        2.72625208      15.46308708       0.61630619       0.28046748      -0.03934314      -0.14376543
O       -5.64552689      -7.28079033       5.59652519      -1.10029130      -0.62581800       0.21586385
H       -5.41443539      -8.04312229       6.03960514      -0.14474116       0.14799702       0.23199927
H       -4.82533407      -6.73557901       5.23846245      -0.38403580       0.13625095      -0.35811983
O       -2.16926670       2.36249566       6.64598942       0.24050713       0.73501765       0.10174734
H       -1.92925835       3.32724380       7.01350307      -0.20791820      -0.09797246      -0.03849963
H       -1.87211776       1.97126448       7.38212776      -0.03058112      -0.03615837      -0.01397616
O       13.16375923      -5.43200397      -1.44062662       0.11946546      -0.83156953      -0.09581129
H       13.87253857      -5.19277859      -1.97007370       0.24420524      -0.06552730      -0.06793999
H       12.83011246      -6.28154516      -1.97071934       0.17309491      -0.41691315       0.19467999
O       11.83367157       4.88765526      22.73101616      -0.42477033       0.05201119       0.12200384
H       11.19543076       4.19066000      23.06752205       0.15116230      -0.04661297      -0.10578292
H       11.82980919       5.03477716      21.78167343       0.20858811      -0.38540116       0.00706572
O        8.21489334      14.51268387      23.75709343      -0.88572619      -0.54380255       1.35478868
H        9.03183746      14.96227264      24.07449341      -0.00833823       0.02814942      -0.28410452
H        8.11122799      13.52015972      24.14614296      -0.11893903       0.02838982       0.06110553
O       -8.10852909       7.02339840      11.40487957       0.37916792      -0.04796728       0.39926609
H       -7.33910561       6.59090185      11.03143883       0.07219503      -0.29904156       0.00975969
H       -8.30591202       6.27672958      11.91421318       0.12295406       0.09194716      -0.05501639
192
Lattice="12.749456744440518 0.0 0.0 -5.291748531362881e-07 12.749456744440518 0.0 -5.291748531362881e-07 -5.291748531362881e-07 12.749456744440518" Properties=species:S:1:pos:R:3:momenta:R:3 step=10 time_fs=1.0 phase=equilibration pbc="T T T"
O       11.58687627       0.72586315     -16.51941155       1.06707531       0.08827574       0.91755304
H       11.84689423       0.81454611     -15.56454643       0.35939376       0.31978112      -0.34876306
H       10.78313928       0.18119073     -16.44862382       0.23861505       0.00846199      -0.06775393
O       26.36523758      24.79324986       4.86169570       0.37063486      -0.24788242       0.99160352
H       26.70769037      23.86384909       4.59384116      -0.00205704       0.33166905       0.14035776
H       25.49905583      24.96549089       4.49186111       0.07114231       0.21085504      -0.03919059
O        4.55118112      -0.28747517       6.67448728       0.07218589      -0.46096009      -1.55158853
H        4.85040670      -1.06777230       7.10183271       0.20906023      -0.01724130      -0.08264163
H        4.08166167       0.13538826       7.41164567       0.36659310      -0.19908856      -0.04911964
O       -2.84998883      -4.43240629       0.99690752      -0.09339932       0.72352073       1.04733322
H       -2.61296460      -3.72316677       0.41952103       0.07930364       0.21046864      -0.27593153
H       -3.64220429      -4.18328689       1.50028990      -0.45651848      -0.00212859       0.08502467
O        4.25277770      15.84960352      10.73313068       1.02747437       0.60843562      -0.34535960
H        4.31810291      16.64220777      11.21770555      -0.05056858      -0.06962570      -0.17602164
H        5.16185783      15.71163197      10.35815527      -0.47991701       0.32667820      -0.02729111
O       -1.38629552       6.64790254       5.13636801      -0.29574388      -0.77318761       0.76818754
H       -1.19292552       6.33457913       4.27295611      -0.27905880      -0.15169662      -0.44834832
H       -0.51028431       7.03849318       5.21722903       0.08952220       0.00015056      -0.12840720
O       22.81794903      12.30744358       5.78527371       0.02490848       0.52045909      -0.13422284
H       23.17294480      13.21794488       5.97145425      -0.04822244      -0.32656389      -0.04052150
H       22.48685339      12.43242322       4.78676971      -0.05693402      -0.13301688       0.25557218
O       -1.00149648     -15.77357086       6.81709431      -1.37204830       0.40822707      -0.12023484
H       -0.47320478     -16.08051120       6.11223031      -0.11905898       0.00103371      -0.32273778
H       -1.48479922     -14.86484536       6.47850085       0.15142342      -0.11802131       0.09875208
O       15.45998366     -17.88636372       9.66583509       0.92816864      -0.77582723       0.54991925
H       16.18523739     -18.31111975      10.27168955      -0.36547909      -0.00922255      -0.32211469
H       15.69657780     -16.92891044       9.69488865      -0.11141867      -0.16221389      -0.21367421
O        3.25536275     -14.66001884     -13.33569841       0.72349941       0.15238539      -0.87785231
H        4.09234426     -15.21379129     -13.25224661       0.07365927       0.41441026       0.17898985
H        2.57042308     -14.91229082     -12.70430346       0.00034980      -0.20632977       0.16905122
O       -5.74411744       1.55284831       2.85543112      -0.30312607       0.96859136      -0.10145937
H       -6.45223161       1.30363115       2.23647243       0.17814651      -0.02741447       0.24198506
H       -5.43701935       2.37623505       2.32518225      -0.03230765       0.07824745       0.21627817
O       -5.38394653      16.02333299      25.98480149       0.34346506       1.30898002      -0.73574144
H       -5.30905579      15.32815807      25.33854307      -0.15896293       0.11103996      -0.27012781
H       -4.33645130      16.54273089      26.02190808       0.13212215      -0.21061930      -0.08465566
O        7.42728264     -15.71450332      -8.55658610       1.53521594       0.65316523       1.18772437
H        7.77721955     -16.60234461      -8.20508376       0.20177426      -0.01923232       0.18908056
H        6.67862227     -15.69616121      -7.98472531      -0.40565827       0.23665345       0.34972240
O       13.67993464       8.54604854      17.94022653       0.03739528       0.29937836       0.49377883
H       14.04272923       8.77815905      17.04709486      -0.03800874      -0.27396591       0.36122446
H       14.24474487       7.90978592      18.48214414       0.08951053       0.04864704      -0.14844874
O       -0.15234288       1.18208048      -1.24877763      -0.02805978       0.94228211       0.70723875
H        0.80948470       1.40015802      -1.18469108      -0.14926241      -0.14519405       0.03278373
H       -0.09616444       0.32939486      -0.62566256      -0.22563847       0.13215117      -0.22260272
O      -14.19327051      12.66417369      15.80843975       0.14005371       0.15502320       0.06603696
H      -14.07368176      12.37111165      14.90334803       0.14926215      -0.21213671      -0.41509359
H      -15.10207208      12.23047662      16.00753057       0.37337725       0.14188851       0.04027420
O      -16.49628020       5.89437130      12.34784285       1.96992582       0.70758903      -0.23796019
H      -17.06491975       5.97873247      11.61523148       0.00348240      -0.08707208      -0.32872987
H      -15.89277120       6.79351584      12.56480064      -0.25296521       0.05566839      -0.21239590
O       -9.93437272      32.95324225      -9.56890617      -0.60988282      -0.52980171      -0.40818133
H       -9.32915983      32.24637407      -9.19608895       0.06307969       0.02075558      -0.26267085
H      -10.60239383      32.31616204     -10.07692841       0.11118683       0.08595792       0.41723221
O       34.73018574      11.51572784      21.44698751       0.82847191      -0.33618969      -1.12704999
H       34.77884313      11.53966412      20.37707364       0.07157717      -0.08461270       0.04218070
H       35.18234626      10.57364471      21.40010818       0.02440926       0.31884962       0.22063499
O       30.39167645     -12.69646511       2.16994892       0.33387758       0.52321122       0.05486751
H       29.77101661     -12.13805780       2.63756296      -0.25701331       0.13161134      -0.12807095
H       30.31286949     -12.62511122       1.25952517      -0.17074352      -0.04853696      -0.41122665
O       17.59181190       9.34335323      -7.42639323      -0.20924369      -1.15968957      -0.46058374
H       17.71968625       8.26693867      -7.49638913      -0.39463923       0.36977110      -0.25041657
H       17.47616601       9.50289007      -6.50432732      -0.17081996       0.03714676      -0.02244058
O       -5.19329517       2.62516832      32.17995153       1.07272484      -0.78580787       0.39084642
H       -5.78171539       2.15827917      31.62255476      -0.21563310      -0.27646454      -0.05521934
H       -4.51595830       1.97651128      32.28144086       0.06775764       0.15123283       0.21511316
O        3.73178283       0.84043234      -0.23792069       1.22468444       0.64048467       0.22373523
H        3.50600865      -0.09103954      -0.27370268      -0.04326534       0.11903353       0.05472417
H        4.06678152       1.20774980      -0.99677741       0.26687278      -0.11188550      -0.38369341
O       23.25599146       3.22238555      11.66582011      -0.64186805       0.27846846       0.22809431
H       22.91513523       3.69361577      12.53497061       0.33232737      -0.12779538      -0.11723622
H       23.94916568       2.55941342      11.70055059      -0.09248465      -0.16077914      -0.02067569
O       -1.44352766      31.80940017      14.98685679      -0.23366988       0.34718597       1.43678340
H       -1.90965234      32.54072401      14.49427965      -0.01495056      -0.27899169       0.05951855
H       -0.62751981      31.97424654      14.52166637       0.15163414       0.02664707      -0.29036731
O        4.83280407      19.39228244       5.20410944      -0.39934780      -0.08745384       0.43701843
H        4.19471453      18.92967740       5.85805028       0.11554611       0.12538164      -0.45890899
H        5.66474940      18.98216558       5.21318720       0.08331456      -0.17285250       0.06737111
O      -10.12184577      10.47527822       9.46262697      -0.73095377       0.40346959       0.43503903
H      -10.58937027      10.95264083       8.64562991      -0.23005012      -0.07569781       0.31544198
H      -10.51358032      10.85762277      10.18792187      -0.24810367       0.10312715       0.35901156
O       17.70546350      17.76570821      26.21270541       0.02286673      -0.27993652      -1.11256925
H       18.52736935      17.25807533      25.99215460       0.02729782       0.22449407      -0.03517051
H       16.90986822      17.24989356      26.07261659      -0.30804195       0.02628270      -0.06061357
O        6.93533567      18.72329032      10.12337326      -0.04400711      -0.54212422       0.53108054
H        7.18841888      19.42744700       9.53774535       0.14844711      -0.08097599      -0.30562324
H        6.75496438      17.87827169       9.61332975      -0.19445778       0.26515014      -0.08180477
O       -0.61713416     -13.79922760      13.26238748      -0.19333992      -0.58705416       0.13840084
H       -1.34814606     -13.98627769      12.62037432      -0.24293182      -0.01267951       0.15017938
H       -0.08275945     -14.51767501      13.74739019      -0.16618131       0.16709756      -0.20417180
O        1.14235899       6.21271526       1.07799846       0.31875630      -2.04531870       1.43844442
H        1.59225936       5.20102762       1.10998865      -0.00005439       0.05198415      -0.04408106
H        0.86581297       6.21057540       0.15289600       0.04346315       0.03347105      -0.44214124
O        3.09174108       1.33341734       8.34781890       1.12483240      -0.23410966       0.81109774
H        2.14363140       0.74315144       8.19257326       0.08441573       0.39268239       0.07436499
H        3.22433232       1.64791470       9.26163734       0.09315046      -0.23528376       0.02388351
O      -18.86457582      28.79855321     -16.13658566       0.73920349       0.59948433      -0.61396136
H      -18.59150621      28.70771090     -17.17697161      -0.17902161       0.38572907       0.17758304
H      -18.04163831      28.13851510     -15.81206308      -0.24309349       0.35457199      -0.00988764
O        2.89520575      26.88993898      -9.11037734      -0.73210175      -0.69425546      -0.63265238
H        3.41387020      26.87139319      -8.44738634       0.64982656       0.22022056       1.06656167
H        2.37361695      26.10251237      -8.80496976       0.10578802       0.51341060      -0.20300816
O      -18.04909857      19.05745933       1.91247126      -0.94877589      -1.19049230       0.24519752
H      -17.36660091      18.82694387       1.10259037      -0.27317350       0.05041298       0.38315097
H      -18.82885702      18.41508577       1.64975623       0.06948357       0.13198553       0.06423125
O       11.69574265      17.57315381       7.08280163       0.20015607       0.04698284      -0.35784947
H       12.57180243      17.40193368       6.63192700      -0.13967670      -0.04787359       0.02306350
H       11.43525183      18.34045696       6.51481414      -0.16212275      -0.08066573      -0.00235100
O       -7.22036707     -11.18207273       5.19606824      -0.68797917      -0.48737764      -0.04480504
H       -6.52005632     -11.34335952       4.53623962       0.34315962      -0.05357781       0.07407101
H       -7.32605590     -12.15267600       5.46296916       0.07526772      -0.02078761       0.16319432
O      -24.12050597       3.44862090      10.69927159      -0.55551469      -1.52436467       0.30148106
H      -24.77697758       4.16850159      10.52052572      -0.17883664      -0.04843284      -0.10863687
H      -23.19493531       3.73808847      10.25639076      -0.06660165       0.06383226       0.07183178
O      -11.42782856      -8.18318615      18.46960897      -0.52785170      -0.71041646       0.03274972
H      -10.60763645      -8.51878570      18.82327306       0.11286031      -0.09603220       0.18477620
H      -11.33259973      -8.48167052      17.57790136       0.03285792      -0.01753308      -0.51509080
O        8.63628238       7.31736745      16.93619421      -0.68695795       0.85965401      -0.39127059
H        9.63049378       7.36330570      16.79959895      -0.39743944      -0.11176614      -0.20384015
H        8.33115630       6.78404447      16.20682206      -0.10663885      -0.11335108       0.05421665
O      -11.66579836      -0.47677960      20.41165186       0.63748241      -0.08620710       0.39534582
H      -12.51485346      -0.31047407      20.81300024      -0.09572600       0.04141318       0.04148530
H      -11.55274798      -0.51779417      19.38448179      -0.13129894      -0.06765790       0.17858044
O       24.20236676       2.47250697      16.24425265      -0.76748479      -0.04179146      -0.71993293
H       23.83424936       2.48483767      17.10932100       0.09596261       0.01026766       0.15946126
H       23.89655713       1.51718106      15.88326143       0.16144344       0.35345081      -0.23879955
O       -5.65977465     -17.96717168      -4.98551888      -0.50850140       0.60312665      -0.96179586
H       -4.88831812     -17.64512471      -4.63464171       0.40468047      -0.27861952      -0.13099027
H       -5.84464160     -18.65835342      -5.63559573       0.05484909      -0.41078893      -0.31834821
O       29.50822085      -9.01059776      -6.13932775      -0.71226014       1.23584649      -0.19183153
H       30.18727317      -9.07263279      -6.90057550      -0.10082637       0.02135713       0.21645681
H       29.32632862      -9.91991932      -6.00164456      -0.36579469      -0.31452786      -0.00789834
O        8.81217113      -0.69177408       3.38559093       0.14983140       0.58277596       1.00357417
H        8.15956198      -0.09498070       2.96565537       0.26357608      -0.16843535      -0.11797453
H        8.20502759      -1.40985056       3.73835671       0.28261230       0.17802229      -0.35772682
O      -19.77571251      -3.17379291      24.77570420       0.19399969       0.22780856       0.17666706
H      -20.23871587      -3.93402443      24.22211044       0.17704868       0.12145449       0.01673028
H      -19.22329912      -3.35496509      25.63245131      -0.05666073      -0.01001642      -0.31160473
O        2.34554157      -5.82319570      -6.04345711       1.29704308       0.62921945      -0.00359732
H        2.60922008      -5.56020039      -5.18623789       0.05811684       0.28447318       0.60826776
H        1.84855780      -6.59810188      -6.18540910      -0.04539827      -0.24197909      -0.33114202
O        9.83145566       8.29069575       7.94488034       0.24665588      -0.13298128       0.08552756
H       10.56182681       8.62574963       7.38868462      -0.00396562      -0.47166489      -0.03406273
H       10.27945187       7.61359414       8.45641270      -0.03187006      -0.07021381      -0.23193640
O        5.33693167       9.75190878      -4.80309830       0.70447482      -0.11900577      -0.49384848
H        6.11003213       9.07242492      -4.75456135      -0.16255303       0.32138014      -0.01648817
H        4.81157979       9.65786182      -4.00396121       0.18232574       0.03158301      -0.14859267
O       13.78083203      29.46904928      15.87239786      -0.54298038       0.01898086       0.16169967
H       12.97836020      29.04802977      16.07897649      -0.04858392      -0.16497731       0.09322167
H       14.49750950      28.83767057      15.94238091      -0.18356912      -0.13903243      -0.03244955
O       -2.79943145       3.97747391       1.67393937      -0.58106073       0.24409888       0.45566977
H       -2.10151529       3.54911378       2.40246270      -0.11481437       0.08221076       0.15799773
H       -2.67243112       4.88014868       1.83062415      -0.03345934      -0.17621921       0.07115294
O        7.80946698     -14.01360505      10.97897422      -0.25781911      -0.49469378      -0.72785076
H        6.87026922     -14.49348613      11.25327580       0.27142520       0.18331104      -0.19877412
H        8.11419864     -13.93531077      10.00048709       0.23521220      -0.21886244       0.17202312
O       -2.41258296      10.55214292      24.39938991      -1.84721653       0.41272493      -1.08155560
H       -2.11239170      10.17207152      23.61177304       0.16303296      -0.29552389      -0.43068826
H       -3.22811872      10.99341238      24.04376801       0.39191226       0.09668440       0.41285419
O       20.08290349      21.73090478       1.53806578      -0.69525531       0.48319329       0.72291548
H       19.93392737      22.10981909       2.50471833       0.17096748       0.03374277      -0.49068211
H       19.85224165      20.75119606       1.62914508      -0.01873389       0.42111569      -0.45902351
O       12.13740312       9.99602793     -15.93630704       1.10460906       0.18951424      -0.06200996
H       12.65815084       9.40238137     -15.33165486      -0.06259782      -0.05651200      -0.20396073
H       12.36219020       9.96685109     -16.93109287       0.12256234       0.21817663       0.67597288
O      -11.40529709      22.30883828       1.06081252      -0.02089774      -0.75350370      -0.18429473
H      -11.55663090      21.23230826       1.16772957      -0.15269996       0.29094825      -0.01421214
H      -10.82821490      22.43834553       1.82949616      -0.04330497       0.21101387      -0.07975687
O        2.95070995     -15.02122725      16.15837943      -0.18753180      -0.61778174      -0.89979635
H        3.46355470     -15.77149267      16.58066613      -0.32526129      -0.04473596       0.15774761
H        3.58023204     -14.29497708      16.03595000       0.19044279       0.23648814      -0.21921232
O        2.45690301      16.36310268       0.35484557      -1.03186579      -0.48695598       0.61630380
H        2.09997962      16.03309144      -0.39834377      -0.17621444       0.05560250      -0.39599297
H        2.75245008      15.46657710       0.60426383       0.25956050       0.10910897      -0.09827484
O       -5.65186079      -7.28319745       5.59686037      -0.97692965      -0.18329629      -0.09150270
H       -5.42163204      -8.04027082       6.07021826      -0.00653202      -0.07941425       0.39134763
H       -4.87432667      -6.73154734       5.20982108      -0.61339419      -0.05299295      -0.22857623
O       -2.16808652       2.36865682       6.64582338       0.15187186       1.25777540      -0.11756039
H       -1.95358443       3.30579287       7.00050945      -0.28792905      -0.33253054      -0.22448186
H       -1.86611642       1.95020990       7.40129439       0.14197939      -0.37865044       0.37914721
O       13.16356184      -5.43831720      -1.44136443      -0.12088882      -1.21953640      -0.17432228
H       13.90890717      -5.19398420      -1.98415382       0.45684503       0.02132985      -0.19016155
H       12.84955691      -6.30931481      -1.94225571       0.22941633      -0.14890973       0.38602058
O       11.83084751       4.88758164      22.73189586      -0.46671614      -0.05943867       0.19959260
H       11.21591332       4.19381967      23.05313002       0.25856387       0.10032775      -0.18131699
H       11.84844967       4.99581520      21.78308760       0.17525640      -0.41198956       0.01618112
O        8.20948871      14.50858531      23.76588888      -0.87338908      -0.77490465       1.53929293
H        9.02693171      14.96073844      24.04448701      -0.08357537      -0.05487799      -0.32468689
H        8.10192035      13.53934936      24.14389723      -0.06937985       0.37040448      -0.10493182
O       -8.10577672       7.02355687      11.40687539       0.52119212       0.09590304       0.25843112
H       -7.32825040       6.56363853      11.02811114       0.13231527      -0.24813058      -0.06906304
H       -8.30020537       6.27507726      11.92088938      -0.00648146      -0.12176366       0.19165676
192
Lattice="12.749275286578177 0.0 0.0 -5.29167321604586e-07 12.749275286578177 0.0 -5.29167321604586e-07 -5.29167321604586e-07 12.749275286578177" Properties=species:S:1:pos:R:3:momenta:R:3 step=20 time_fs=2.0 phase=equilibration pbc="T T T"
O       11.59326305       0.72615812     -16.51313786       1.07707429       0.01996335       1.01774556
H       11.88214456       0.84673370     -15.60384660       0.37403591       0.34316671      -0.43373349
H       10.80757584       0.18203119     -16.45689354       0.25026589      -0.00105194      -0.10382284
O       26.36742342      24.79067951       4.86773353       0.45260533      -0.44417748       1.00586770
H       26.70170664      23.90837685       4.60965867      -0.10290477       0.56029356       0.17617128
H       25.50695339      24.98378452       4.48784084       0.09879810       0.17057771      -0.04122013
O        4.55139742      -0.29007879       6.66475614       0.03406624      -0.41230898      -1.59403002
H        4.87564799      -1.07633517       7.09475469       0.30451246      -0.14369597      -0.06944384
H        4.11443944       0.12107450       7.40804186       0.29810538      -0.08462590      -0.00758592
O       -2.85078044      -4.42794347       1.00345659      -0.19339265       0.74754483       1.08234978
H       -2.60550813      -3.70268547       0.39259110       0.06078671       0.17645741      -0.24835654
H       -3.68320066      -4.18295633       1.50469295      -0.35399460       0.00084380      -0.01334948
O        4.25934983      15.85254594      10.73035694       1.08580444       0.42431192      -0.49172791
H        4.31259915      16.64611483      11.20649905      -0.06312825       0.16395127      -0.04470302
H        5.11294300      15.74176611      10.35432955      -0.47241890       0.28644836      -0.07071180
O       -1.38777084       6.64315050       5.14099084      -0.16877062      -0.75840010       0.70965309
H       -1.22408574       6.31712311       4.22380793      -0.37125515      -0.18783441      -0.50761971
H       -0.50175773       7.04214040       5.20837550       0.07519309       0.07181205      -0.05089917
O       22.81781241      12.31099614       5.78356318       0.02148949       0.65551759      -0.39965214
H       23.16583339      13.18056975       5.96953473      -0.07371525      -0.39801905       0.01316302
H       22.48321649      12.41526120       4.82941004      -0.01577500      -0.21798363       0.60944247
O       -1.01045665     -15.76985952       6.81621063      -1.53206791       0.71709176      -0.16682487
H       -0.48095972     -16.08231310       6.07656760      -0.06074796      -0.03316400      -0.37671417
H       -1.46333421     -14.88780268       6.49200676       0.28723838      -0.35888636       0.18325907
O       15.46591750     -17.89079013       9.66963514       1.04547367      -0.75776441       0.70874379
H       16.14032834     -18.30656910      10.23144842      -0.52038396       0.08024905      -0.47536627
H       15.68382266     -16.94931521       9.67282067      -0.13846169      -0.23710971      -0.23569252
O        3.25996143     -14.65923566     -13.34042835       0.77543193       0.03463826      -0.71354665
H        4.09221825     -15.16869542     -13.23602644      -0.06760849       0.50125847       0.14832320
H        2.57583256     -14.93154202     -12.69172916       0.11800904      -0.18720683       0.07761631
O       -5.74571213       1.55957717       2.85415390      -0.22576491       1.22940087      -0.27372610
H       -6.43806356       1.29554431       2.26191809       0.09045104      -0.14524026       0.26189034
H       -5.44173259       2.37410844       2.35504748      -0.06376094      -0.11245960       0.39093361
O       -5.38142304      16.03145774      25.97999882       0.45249512       1.39831205      -0.72060622
H       -5.32235247      15.33892942      25.30973533      -0.11664672       0.12645721      -0.30255790
H       -4.33226090      16.51558399      26.01488298      -0.04246520      -0.33734094      -0.05190824
O        7.43681577     -15.71107359      -8.54880430       1.55237376       0.39454618       1.34521921
H        7.79809260     -16.59599706      -8.19299912       0.22109656       0.15118360       0.05745979
H        6.63465912     -15.66864913      -7.95105922      -0.43548020       0.31392922       0.29714379
O       13.68028319       8.54752179      17.94289939       0.11432686       0.21322712       0.50322930
H       14.03668477       8.74846404      17.09078901      -0.06147117      -0.32135411       0.49104519
H       14.24725846       7.92244225      18.46122309      -0.02744911       0.20610665      -0.26960384
O       -0.15192538       1.18715301      -1.24377500       0.13427676       0.70827333       0.91288542
H        0.78861665       1.38653747      -1.18432764      -0.24902575      -0.12576364      -0.02492296
H       -0.12370127       0.34915158      -0.65356322      -0.33882316       0.27380127      -0.34992349
O      -14.19284674      12.66428149      15.80828844      -0.03833815      -0.05857154      -0.08215274
H      -14.05652339      12.35213209      14.86568104       0.19341036      -0.16319235      -0.31936266
H      -15.05264807      12.24919002      16.00809692       0.60871698       0.23512403      -0.01687437
O      -16.48296256       5.89920193      12.34667275       2.25423673       0.90315323      -0.12534919
H      -17.06777479       5.97488802      11.57740841      -0.03628715       0.00106065      -0.40256973
H      -15.92806009       6.78792813      12.53950688      -0.47182512      -0.17185181      -0.30182215
O       -9.93818457      32.94826312      -9.57141775      -0.67743843      -0.92458287      -0.45261797
H       -9.32742859      32.25714860      -9.22466421      -0.01853896       0.20100536      -0.31915549
H      -10.58317840      32.33275993     -10.03182559       0.26835516       0.25867799       0.49783772
O       34.73547895      11.51253405      21.43858514       1.04679254      -0.62978151      -1.50759870
H       34.78199331      11.53532953      20.39452195       0.00153399       0.00043251       0.32044269
H       35.17670587      10.61614935      21.42429108      -0.11910925       0.53318549       0.28099756
O       30.39347938     -12.69276961       2.17093781       0.37517719       0.63706392       0.21550623
H       29.74456851     -12.12667073       2.62242176      -0.26183670       0.08607458      -0.19311974
H       30.29372162     -12.62881862       1.21132744      -0.20813185      -0.03367790      -0.50538593
O       17.59039527       9.33534126      -7.42940098      -0.17110201      -1.40569587      -0.54396171
H       17.67912425       8.31686772      -7.51997429      -0.43338345       0.65362182      -0.23355470
H       17.45990827       9.50750435      -6.50280422      -0.15565635       0.05678991       0.04144318
O       -5.18692938       2.62054405      32.18201019       0.95525383      -0.71582220       0.41105628
H       -5.80510877       2.13063559      31.61608823      -0.25019120      -0.28312913      -0.05431062
H       -4.50299085       1.99083792      32.30591714       0.19780815       0.13889576       0.29354823
O        3.73897429       0.84410143      -0.23572135       1.15770463       0.57780151       0.43803225
H        3.50138795      -0.08306361      -0.27100123      -0.04887916       0.04980170       0.00117156
H        4.09797257       1.20074054      -1.04601576       0.35128842      -0.05696976      -0.57200639
O       23.25143545       3.22436008      11.66772793      -0.72263250       0.36691643       0.43528422
H       22.95509465       3.67317855      12.51174043       0.48613570      -0.28393601      -0.34540361
H       23.93714372       2.54543731      11.70023618      -0.15373604      -0.11816861       0.01808136
O       -1.44504281      31.81150963      14.99505797      -0.22708779       0.47863789       1.29645442
H       -1.91257573      32.50945088      14.50398441      -0.05424638      -0.33794773       0.13386043
H       -0.60859120      31.97266595      14.49481880       0.20733308      -0.05566606      -0.23933058
O        4.82936049      19.39111165       5.20723570      -0.64964289      -0.18906768       0.57570533
H        4.21377121      18.94793408       5.80501451       0.24644874       0.23389866      -0.59649002
H        5.67750857      18.96284308       5.21931338       0.15914566      -0.20586955       0.05863075
O      -10.12638465      10.47772401       9.46387126      -0.82248507       0.46626510       0.06750737
H      -10.60619855      10.93844847       8.68581611      -0.11791398      -0.21070272       0.51001930
H      -10.54033442      10.87160032      10.23289204      -0.27693814       0.16048901       0.51434857
O       17.70568842      17.76353861      26.20517041       0.10134411      -0.34517130      -1.22158911
H       18.52263473      17.28131040      25.99267365      -0.10728694       0.24915812       0.05075268
H       16.88158453      17.25248108      26.06848769      -0.24915596       0.04174934      -0.01366808
O        6.93470877      18.71919284      10.12637316      -0.11832566      -0.67303888       0.48422365
H        7.20299500      19.41771187       9.50694034       0.14529645      -0.12728260      -0.30850336
H        6.73873495      17.91029385       9.60993020      -0.14037102       0.38168094       0.00759606
O       -0.61809972     -13.80288953      13.26323646      -0.14626536      -0.64454473       0.18371817
H       -1.36728594     -13.98921175      12.63861766      -0.14809909      -0.05288638       0.22873177
H       -0.10515130     -14.49396809      13.71907898      -0.27544019       0.28962432      -0.35510992
O        1.14433392       6.19935865       1.08641125       0.32326931      -2.28624319       1.27172068
H        1.58835741       5.21528748       1.10602287      -0.08482150       0.25234021      -0.03805926
H        0.87207196       6.21615355       0.11645960       0.09438161       0.08141358      -0.27106453
O        3.09803566       1.33160088       8.35285457       0.93496984      -0.35763766       0.84922755
H        2.16098965       0.78754916       8.20086665       0.27441298       0.51629317       0.09906288
H        3.23343002       1.62261748       9.25684409       0.09626753      -0.27778486      -0.10316997
O      -18.85877199      28.80123839     -16.14093352       1.06855404       0.40521439      -0.87182024
H      -18.61381056      28.74560079     -17.14321442      -0.28633631       0.40160177       0.50369796
H      -18.07630868      28.18137729     -15.81398665      -0.47709094       0.53510198      -0.03156537
O        2.88949196      26.88471037      -9.11516082      -0.93667862      -0.82314825      -0.81044182
H        3.49843600      26.89630116      -8.32177919       0.95467036       0.30397154       1.33429831
H        2.38188180      26.15712720      -8.82941178       0.01646409       0.54952347      -0.28366475
O      -18.05481053      19.04911899       1.91312680      -0.98466282      -1.42602487      -0.01880632
H      -17.40425274      18.83516338       1.14986164      -0.49437983       0.12278051       0.58241137
H      -18.81099950      18.43891098       1.66167597       0.27378302       0.34946888       0.17778593
O       11.69715254      17.57354195       7.07983160       0.30097694       0.15259397      -0.56512882
H       12.55376942      17.39551325       6.63955090      -0.21115228      -0.08148784       0.12697167
H       11.41803759      18.32628216       6.52125488      -0.19043832      -0.19703760       0.12985646
O       -7.22406221     -11.18569027       5.19550704      -0.53404906      -0.74133043      -0.12195407
H       -6.49212865     -11.34468076       4.54260188       0.21644957       0.02583864       0.07162237
H       -7.32106259     -12.14497164       5.47961313       0.02610072       0.17463545       0.17827225
O      -24.12302871       3.44011810      10.70044480      -0.37940605      -1.22648872       0.12523085
H      -24.78697517       4.15582851      10.51032554      -0.03273440      -0.21110077      -0.09704731
H      -23.21715662       3.73884765      10.27006959      -0.39803370      -0.04800271       0.21198231
O      -11.43067006      -8.18745854      18.46966965      -0.42032644      -0.74795531       0.02269171
H      -10.59527093      -8.52750327      18.84531189       0.10724639      -0.07453571       0.25381335
H      -11.33291631      -8.48221018      17.52324149      -0.04269465       0.02592642      -0.52006447
O        8.63246680       7.32259131      16.93350092      -0.55445728       0.86911105      -0.40879836
H        9.58223972       7.35197662      16.78402503      -0.54990564      -0.11403544      -0.11346493
H        8.31855484       6.77157077      16.20959986      -0.15171009      -0.13753057       0.01115101
O      -11.66128911      -0.47735432      20.41309192       0.75604817      -0.09740365       0.18466751
H      -12.52813026      -0.30473065      20.81621417      -0.16050683       0.07272098       0.02316320
H      -11.56976763      -0.52439785      19.41195366      -0.21829019      -0.06773316       0.38326173
O       24.19715043       2.47156680      16.23927937      -0.82695723      -0.26037156      -0.81827569
H       23.84278216       2.48820395      17.12819095       0.09294216       0.05840038       0.21440322
H       23.91676038       1.56596943      15.86192840       0.26281953       0.65392297      -0.18568019
O       -5.66379201     -17.96345207      -4.99165573      -0.78810103       0.51080876      -1.07155029
H       -4.83585563     -17.66874690      -4.64647233       0.62933959      -0.22395658      -0.12737733
H       -5.83522353     -18.69576305      -5.66511848       0.13890332      -0.33579691      -0.26282259
O       29.50398720      -9.00295046      -6.14129758      -0.55735389       1.16400926      -0.45300473
H       30.16860161      -9.06822833      -6.86701569      -0.25972989       0.06275974       0.45415850
H       29.28862853      -9.95049364      -5.99949202      -0.38516862      -0.26350426       0.04050231
O        8.81227583      -0.68849008       3.39165989      -0.01965162       0.49555527       0.98337721
H        8.18758317      -0.11056754       2.95459099       0.29143271      -0.12779346      -0.12134979
H        8.23699931      -1.39097513       3.70267930       0.34747675       0.17331729      -0.35272798
O      -19.77433198      -3.17304583      24.77659106       0.15603282       0.01117819       0.21348336
H      -20.21176471      -3.91062896      24.23456766       0.36383267       0.34831214       0.23826064
H      -19.23629678      -3.35405203      25.59032204      -0.20215089       0.02339375      -0.52463872
O        2.35402118      -5.81875020      -6.04356323       1.45732957       0.75931598      -0.00622725
H        2.61184772      -5.53500501      -5.12473211      -0.01743744       0.21563851       0.59339480
H        1.84000730      -6.62916457      -6.21540905      -0.09872823      -0.34800747      -0.28015631
O        9.83318163       8.28980770       7.94517302       0.34123530      -0.11802679       0.05118800
H       10.55669124       8.58126616       7.38535266      -0.07994614      -0.42509084      -0.04640113
H       10.27362108       7.60401954       8.43609539      -0.08063326      -0.13567499      -0.17267299
O        5.34175660       9.75039235      -4.80608985       0.88562006      -0.31100357      -0.52408482
H        6.08587004       9.11121654      -4.75717519      -0.30785909       0.45816279      -0.03893645
H        4.82889162       9.66148883      -4.01847856       0.15781137       0.04392559      -0.12823430
O       13.77781936      29.46904308      15.87309547      -0.40052744       0.10049272       0.14034254
H       12.96527156      29.02598453      16.08804090      -0.19758842      -0.26503431       0.09069085
H       14.47897595      28.82301020      15.93768840      -0.18943236      -0.15492685      -0.06388517
O       -2.80267439       3.97777060       1.67695454      -0.48652898      -0.12664234       0.53840664
H       -2.11991364       3.55809382       2.40956836      -0.26360478       0.10266588      -0.01167798
H       -2.67284468       4.87965435       1.84003941       0.02257213       0.16635751       0.12087326
O        7.80708380     -14.01683638      10.97400320      -0.48181671      -0.62428807      -0.82627354
H        6.91388993     -14.46740643      11.22787391       0.62175374       0.34683627      -0.31772859
H        8.12995673     -13.95865861      10.02915324       0.09602669      -0.26083206       0.40099173
O       -2.42422340      10.55488482      24.39240977      -1.88232991       0.47304988      -1.11587244
H       -2.08956344      10.13705544      23.56529160       0.27543824      -0.38627607      -0.45585618
H       -3.19129817      11.00283351      24.08948520       0.31863100       0.12258962       0.51009787
O       20.07807933      21.73323509       1.54335659      -0.77120205       0.40244793       0.97046460
H       19.95197612      22.10713505       2.44224134       0.19874124      -0.06802644      -0.75521281
H       19.85156113      20.80119023       1.58405404       0.00180036       0.57208238      -0.46082639
O       12.14429336       9.99681181     -15.93650254       1.16791800       0.12823157      -0.02978233
H       12.64847775       9.40095488     -15.35751263      -0.11954427       0.01676901      -0.31988713
H       12.37248149       9.98770726     -16.85865214       0.10706911       0.20846797       0.74776437
O      -11.40519441      22.30292775       1.05989547      -0.00459468      -1.07742872      -0.11400791
H      -11.57038215      21.27749129       1.16222005      -0.13224911       0.65067479      -0.09998877
H      -10.83355610      22.46050515       1.82018780      -0.06522812       0.25244189      -0.10509922
O        2.95002337     -15.02495871      16.15283402      -0.01150470      -0.64172701      -0.83880315
H        3.42887699     -15.76779273      16.59264518      -0.37962899       0.11188248       0.09492928
H        3.59529350     -14.27829577      16.01532553       0.10355240       0.08095241      -0.19480861
O        2.45111191      16.35974686       0.35955733      -0.87241847      -0.54452810       0.85790715
H        2.07236366      16.03703558      -0.45353858      -0.36707489       0.06032653      -0.68346712
H        2.77795920      15.48196805       0.59907672       0.27311054       0.19600454       0.00506227
O       -5.65754156      -7.28333740       5.59556965      -0.91926511       0.04787455      -0.26482471
H       -5.41710830      -8.05362702       6.11276976       0.08741122      -0.16081884       0.45973967
H       -4.94133176      -6.74416045       5.19293980      -0.73202541      -0.18887917      -0.12841840
O       -2.16714024       2.37735135       6.64500200       0.16551377       1.50707223      -0.06573017
H       -1.98404999       3.26639862       6.97118296      -0.32687444      -0.43369544      -0.35906046
H       -1.84836286       1.90363606       7.44566635       0.19569597      -0.53409545       0.46580032
O       13.16259686      -5.44670428      -1.44308893      -0.09346484      -1.52188957      -0.41212659
H       13.95174483      -5.19223203      -2.00081525       0.38709105      -0.00144289      -0.12728494
H       12.87493516      -6.30966138      -1.89608783       0.29412115       0.13809041       0.55490650
O       11.82792789       4.88704242      22.73301282      -0.40689289      -0.06904463       0.26183416
H       11.24201982       4.20632301      23.03377873       0.25552348       0.12973381      -0.19449651
H       11.86391704       4.95477652      21.78291015       0.14729189      -0.42645401      -0.02050801
O        8.20385497      14.50292820      23.77542541      -0.93818391      -0.97542701       1.65703278
H        9.01757382      14.95228101      24.01195229      -0.09062399      -0.10740486      -0.32880824
H        8.09789261      13.59121862      24.12602718      -0.01125254       0.66858148      -0.24065259
O       -8.10187578       7.02406810      11.40787752       0.71224779       0.05895991       0.13549060
H       -7.31582380       6.54468844      11.01872662       0.11096906      -0.12878204      -0.11786843
H       -8.30652643       6.25682302      11.94916216      -0.11963522      -0.21599849       0.37124994
192
Lattice="12.748982357264211 0.0 0.0 -5.291551633746469e-07 12.748982357264211 0.0 -5.291551633746469e-07 -5.291551633746469e-07 12.748982357264211" Properties=species:S:1:pos:R:3:momenta:R:3 step=30 time_fs=3.0 phase=equilibration pbc="T T T"
O       11.59974379       0.72616514     -16.50673934       1.12303220      -0.00773718       0.90934454
H       11.92105183       0.88204254     -15.64217158       0.43892123       0.38544166      -0.33007644
H       10.82867940       0.17917903     -16.46776057       0.17662312      -0.06474263      -0.12469576
O       26.36961018      24.78745976       4.87402942       0.43528102      -0.35763036       1.09958186
H       26.69027934      23.96301261       4.62518237      -0.09236433       0.50975172       0.12599210
H       25.51703843      24.99796059       4.48366091       0.11625626       0.13526856      -0.04311741
O        4.55157753      -0.29282734       6.65471494       0.06682684      -0.50688807      -1.61268053
H        4.90787588      -1.09169465       7.08578408       0.34852302      -0.14829767      -0.12395780
H        4.13888634       0.11971521       7.41126464       0.20754440       0.05524354       0.07491398
O       -2.85233703      -4.42275389       1.01004963      -0.33584643       0.92367759       1.06541604
H       -2.60251949      -3.69296371       0.37486835      -0.00438915       0.00883898      -0.10429304
H       -3.70747746      -4.18365264       1.49580917      -0.13743292      -0.01779697      -0.17111178
O        4.26541953      15.85439264      10.72701274       0.89299536       0.32149667      -0.48665731
H        4.30530128      16.67219590      11.20789445      -0.08593149       0.35655491       0.06589223
H        5.07849772      15.76544464      10.33982103      -0.20008391       0.20311827      -0.23830530
O       -1.38811435       6.63821865       5.14442961       0.05582241      -0.80345259       0.42901211
H       -1.26568752       6.30068780       4.18204335      -0.47856493      -0.13471052      -0.31950999
H       -0.49787097       7.05074985       5.20645357      -0.00725133       0.09953088       0.00757422
O       22.81725053      12.31452721       5.78033865      -0.02945404       0.54716098      -0.55998059
H       23.16122100      13.14787409       5.97589022       0.00635691      -0.23022435       0.12955274
H       22.48077643      12.38952703       4.89881572      -0.04571071      -0.30046788       0.75012459
O       -1.02000898     -15.76442379       6.81450013      -1.55924764       0.89499877      -0.34801755
H       -0.48833252     -16.08479467       6.04377015      -0.10190772      -0.02051915      -0.27442282
H       -1.43004262     -14.93239788       6.51387274       0.37697713      -0.52990856       0.25978262
O       15.47158666     -17.89497119       9.67365397       0.85044930      -0.72402995       0.62052530
H       16.09353784     -18.30100144      10.18718121      -0.36650401      -0.01625754      -0.37388561
H       15.67039788     -16.96900157       9.64867463      -0.12363100      -0.14835319      -0.25576238
O        3.26459952     -14.65898619     -13.34393649       0.74258120      -0.05018348      -0.53602388
H        4.08160016     -15.11714402     -13.22285869      -0.12545150       0.53635719       0.11833430
H        2.59328011     -14.94763223     -12.68910376       0.23561287      -0.14990491      -0.02721505
O       -5.74657570       1.56768609       2.85234239      -0.10371519       1.38706177      -0.26151124
H       -6.43729394       1.27429029       2.28447031      -0.08448075      -0.29179325       0.19255941
H       -5.44793680       2.35838239       2.39841748      -0.05368644      -0.17109056       0.47486318
O       -5.37819978      16.03976199      25.97484608       0.55925966       1.41923506      -0.77309617
H       -5.33178003      15.35430876      25.28070700      -0.08010399       0.20510953      -0.27175423
H       -4.34372922      16.47713148      26.01083695      -0.19449653      -0.44160680      -0.01920448
O        7.44570013     -15.70900464      -8.53951210       1.38519692       0.17111799       1.62135919
H        7.81865943     -16.57143725      -8.19312562       0.19977391       0.34467178      -0.05947878
H        6.60047264     -15.63627267      -7.93107543      -0.24713415       0.33450968       0.10106974
O       13.68041603       8.54833034      17.94628963      -0.00767073       0.12256336       0.76968069
H       14.03469104       8.71802294      17.13043945       0.04768500      -0.28406769       0.27065488
H       14.24135965       7.94639045      18.43196764      -0.06619892       0.26174696      -0.29481040
O       -0.15112024       1.19074139      -1.23764504       0.08935513       0.48742387       1.05344088
H        0.76772105       1.37717332      -1.18920897      -0.14301225      -0.05875942      -0.07378290
H       -0.16184047       0.38123159      -0.69265094      -0.44093812       0.36083772      -0.43538631
O      -14.19258735      12.66323664      15.80648719       0.08553015      -0.15218205      -0.40904753
H      -14.03595038      12.34000923      14.84383815       0.22192002      -0.07709948      -0.11722475
H      -14.99326544      12.27168966      16.00681968       0.52907108       0.20197573       0.02196130
O      -16.46842012       5.90528335      12.34543289       2.32413565       1.10762956      -0.20979218
H      -17.06637193       5.97735588      11.54322251       0.07421291       0.04840582      -0.26852809
H      -15.98292255       6.75987784      12.50573750      -0.64866924      -0.38604617      -0.38287596
O       -9.94218465      32.94111971      -9.57398131      -0.67562663      -1.09231132      -0.43414119
H       -9.32912101      32.28139223      -9.25601573       0.00257211       0.28963212      -0.31606128
H      -10.55508817      32.36127402      -9.98300690       0.25619738       0.30200350       0.46910630
O       34.74149201      11.50807657      21.42778076       1.14081141      -0.67504151      -1.82840356
H       34.77754730      11.53951190      20.43751739      -0.07690090       0.09065127       0.55052065
H       35.16187747      10.66877415      21.45401376      -0.13845860       0.49079438       0.33973794
O       30.39496974     -12.68804384       2.17186511       0.32735165       0.81205917       0.06616567
H       29.72100529     -12.12243430       2.59862396      -0.20239827      -0.00837957      -0.29506040
H       30.27228445     -12.63141374       1.17225461      -0.21206443      -0.02523894      -0.25888503
O       17.58902940       9.32603388      -7.43264229      -0.14565827      -1.49904363      -0.55277431
H       17.63474567       8.38885209      -7.54162556      -0.46609298       0.76549676      -0.21928420
H       17.44568787       9.51288523      -6.49812234      -0.12589684       0.05542665       0.04278188
O       -5.18157347       2.61606399      32.18355845       0.74235981      -0.74526694       0.31834532
H       -5.82565971       2.10596371      31.61511836      -0.14715917      -0.20666524       0.07425824
H       -4.47820322       2.00371509      32.33656247       0.29580098       0.13392636       0.34451873
O        3.74613800       0.84767619      -0.23321830       1.22191895       0.60065240       0.32928502
H        3.49679466      -0.07976231      -0.27331269      -0.04136071       0.02652751      -0.04793564
H        4.13042040       1.19204869      -1.09715925       0.29700974      -0.13743982      -0.43160223
O       23.24641451       3.22654365      11.67030945      -0.72369144       0.34134703       0.42873679
H       23.00638632       3.64129555      12.47336551       0.55602018      -0.33731228      -0.37410575
H       23.91781466       2.53696179      11.70398711      -0.22835639      -0.05721845       0.06623692
O       -1.44585783      31.81392379      15.00221482      -0.02318202       0.52901598       1.15336109
H       -1.92224168      32.47727556      14.51736205      -0.15655122      -0.28699598       0.13330400
H       -0.59095924      31.96148899      14.47681275       0.14289279      -0.15978380      -0.11660392
O        4.82544102      19.38955148       5.21046189      -0.52164316      -0.14318010       0.46780746
H        4.23359622      18.96853591       5.75023622       0.10923780       0.16282424      -0.47665747
H        5.69154908      18.94392543       5.22414980       0.11322710      -0.16067806       0.04185690
O      -10.13180184      10.48080775       9.46380871      -1.01847158       0.61559765       0.04542844
H      -10.61296318      10.91248935       8.74253226      -0.04263250      -0.30004120       0.62864991
H      -10.56251776      10.88401101      10.27886054      -0.16669468       0.08367908       0.40264211
O       17.70566291      17.76088870      26.19674445      -0.00862383      -0.37197932      -1.32372859
H       18.50936797      17.30376522      26.00025828      -0.13156406       0.20528272       0.11128311
H       16.86305871      17.25855172      26.06933295      -0.11616432       0.09354326       0.04395769
O        6.93375811      18.71476125      10.12893239      -0.12761401      -0.59399177       0.43264811
H        7.21531021      19.40024901       9.47963586       0.10709323      -0.22436465      -0.23869080
H        6.72609630      17.94744801       9.61208728      -0.12517149       0.35820417       0.02460105
O       -0.61923360     -13.80618373      13.26389703      -0.25849135      -0.48593094       0.10662913
H       -1.37701994     -13.99653194      12.66424589      -0.05514408      -0.10697470       0.30005993
H       -0.13162162     -14.46762468      13.68218015      -0.23664403       0.19933062      -0.36766623
O        1.14627996       6.18428572       1.09335902       0.32130954      -2.58335106       0.99571608
H        1.57459903       5.25216484       1.10250922      -0.19980366       0.51353245      -0.03232067
H        0.88473692       6.22602550       0.10308865       0.16409686       0.12421144      -0.00271934
O        3.10297693       1.32885988       8.35763538       0.68666895      -0.53491390       0.74227818
H        2.19842384       0.84388185       8.21194006       0.50248673       0.64110623       0.13380678
H        3.24335561       1.59495575       9.24529851       0.11177340      -0.28195276      -0.10384061
O      -18.85085077      28.80250688     -16.14648745       1.32859427       0.24920203      -1.01864830
H      -18.64637715      28.78521016     -17.08260175      -0.38118151       0.42568862       0.67482045
H      -18.13274378      28.24064553     -15.81642717      -0.65754568       0.66853063      -0.01003082
O        2.88496009      26.87957311      -9.11905283      -0.48097495      -0.59541191      -0.54349362
H        3.58544636      26.92833766      -8.20562508       0.82637296       0.35397060       1.04332761
H        2.36907344      26.19775501      -8.85581024      -0.30725963       0.25225917      -0.23827909
O      -18.06033671      19.03957446       1.91244241      -0.94649549      -1.48948186      -0.12664100
H      -17.45728070      18.84941040       1.21216135      -0.54286638       0.16507537       0.63982485
H      -18.78202729      18.47731738       1.68293614       0.25170765       0.40320218       0.24498172
O       11.69883044      17.57422569       7.07582995       0.31789122       0.18578058      -0.65996748
H       12.53414073      17.38468425       6.65434585      -0.16180519      -0.13699825       0.16720034
H       11.39671226      18.30417537       6.53757630      -0.24937718      -0.22762485       0.19165846
O       -7.22656049     -11.19067703       5.19426800      -0.33126691      -0.95262102      -0.25313678
H       -6.47897071     -11.33792171       4.55152176       0.04523122       0.10543947       0.11660270
H       -7.32073239     -12.11957275       5.49753930      -0.02559218       0.32671318       0.19435102
O      -24.12428443       3.43337576      10.70039110      -0.22155415      -0.96052796      -0.05502199
H      -24.78353330       4.12826208      10.50107712       0.07734170      -0.34020865      -0.08959726
H      -23.27086686       3.72877557      10.29674238      -0.69285055      -0.15112466       0.32872098
O      -11.43232818      -8.19226416      18.46889456      -0.19609392      -0.88498727      -0.14198841
H      -10.59082738      -8.53145672      18.86870322      -0.03532403      -0.00701672       0.22255096
H      -11.33952103      -8.47362347      17.48707462      -0.09183697       0.15234338      -0.18489837
O        8.62849489       7.32766659      16.93055003      -0.73398895       0.83058748      -0.42422267
H        9.53355998       7.34167497      16.77581412      -0.38561502      -0.09016403      -0.05377234
H        8.30110371       6.75789288      16.20955628      -0.20163102      -0.13374028       0.00426509
O      -11.65633907      -0.47788203      20.41347619       0.74975964      -0.07201004       0.13151232
H      -12.54204544      -0.29694362      20.81533472      -0.11515791       0.08409081      -0.03771923
H      -11.59415885      -0.53097775      19.45492780      -0.28371902      -0.06841899       0.47595005
O       24.19130591       2.46944827      16.23379889      -0.88444010      -0.35543703      -0.81349869
H       23.85247073       2.49576695      17.14724774       0.12016935       0.09520036       0.17119786
H       23.94567972       1.64005411      15.84599848       0.32403497       0.80566779      -0.15375257
O       -5.66863472     -17.96023852      -4.99843252      -0.78335964       0.40514385      -1.16298249
H       -4.77491354     -17.69068061      -4.66257215       0.57416144      -0.24447670      -0.22002601
H       -5.81760518     -18.72060712      -5.68412725       0.21681617      -0.17834027      -0.12550618
O       29.49981114      -8.99634402      -6.14420343      -0.63174345       0.90672046      -0.48931649
H       30.14098260      -9.06059964      -6.81801511      -0.24901583       0.08697290       0.50044772
H       29.25189243      -9.96439237      -5.99463846      -0.35050871      -0.01000822       0.05356233
O        8.81230088      -0.68543612       3.39746005       0.13892471       0.51277456       0.92729034
H        8.21207217      -0.11575107       2.93967682       0.20112512       0.03553079      -0.19093063
H        8.26618035      -1.38363205       3.67354371       0.22865139      -0.05541229      -0.22824728
O      -19.77319712      -3.17320511      24.77716835       0.05530699      -0.03013302       0.13982498
H      -20.16924465      -3.86988678      24.26510074       0.47659186       0.44384734       0.37265178
H      -19.25797482      -3.35215858      25.53539464      -0.22145177      -0.00161764      -0.54420268
O        2.36311088      -5.81400951      -6.04289530       1.50467233       0.71963934       0.19370779
H        2.60452227      -5.51958201      -5.07793588      -0.13324365       0.09421063       0.34393761
H        1.83388283      -6.65788775      -6.23903052      -0.00950711      -0.21441004      -0.20356897
O        9.83505595       8.28889866       7.94531665       0.32946904      -0.12254053       0.06577409
H       10.54943468       8.54482443       7.37671530      -0.04855161      -0.31096336      -0.13827655
H       10.26377599       7.58563003       8.42354879      -0.11687480      -0.23811074      -0.08000339
O        5.34729084       9.74813574      -4.80959132       0.91360858      -0.30682692      -0.66620364
H        6.05777425       9.15478735      -4.76182558      -0.21198174       0.39570038      -0.05641728
H        4.83930776       9.66574465      -4.02504782       0.04829194       0.04644103       0.00401928
O       13.77502616      29.46896107      15.87355055      -0.43622790       0.07327721       0.12995473
H       12.94414953      28.99863741      16.09428497      -0.20317330      -0.26459083       0.03610320
H       14.46065451      28.80598225      15.92813122      -0.17776232      -0.18210944      -0.12930710
O       -2.80521959       3.97610231       1.68061470      -0.35306890      -0.34174572       0.68189672
H       -2.15327098       3.56906098       2.39966020      -0.42649767       0.12548716      -0.19589734
H       -2.66891824       4.90676554       1.85296807       0.04870299       0.34191184       0.13622004
O        7.80360775     -14.02057056      10.96858450      -0.52245780      -0.65785162      -0.83886872
H        6.98508155     -14.42821805      11.19214809       0.76668762       0.41272282      -0.39496017
H        8.13366453     -13.98526435      10.07392305      -0.00759540      -0.29155145       0.48719319
O       -2.43484121      10.55697678      24.38448208      -1.55346046       0.25613481      -1.29421121
H       -2.06361052      10.10172232      23.53084952       0.23664979      -0.31599581      -0.21478647
H       -3.17316829      11.02095963      24.13863283       0.02973865       0.26842501       0.49679426
O       20.07294298      21.73537894       1.54905482      -0.72589783       0.48270390       0.80677046
H       19.96981392      22.10193586       2.37135134       0.16391715       0.01573045      -0.60479726
H       19.84924175      20.85068222       1.53971813      -0.05608579       0.38893575      -0.44970696
O       12.15084028       9.99749385     -15.93541856       1.01890675       0.19318707       0.29936073
H       12.63798113       9.40123713     -15.38946221      -0.06786531      -0.03341901      -0.31510883
H       12.38639484      10.00678234     -16.79935137       0.20126789       0.18952827       0.39720850
O      -11.40496403      22.29493240       1.05928425      -0.00078461      -1.30260412      -0.08946057
H      -11.58254855      21.35542059       1.14830149      -0.13384612       0.89728334      -0.18015519
H      -10.83955117      22.48718248       1.81024755      -0.05747419       0.30783799      -0.09048948
O        2.95044433     -15.02827321      16.14736202       0.15824300      -0.52911034      -0.83550663
H        3.39121742     -15.75126565      16.59976337      -0.37902245       0.20072058       0.07010571
H        3.59872479     -14.28067952      15.99796603      -0.03221979      -0.13779680      -0.15278191
O        2.44571394      16.35563169       0.36452641      -0.89059298      -0.67987996       0.71272424
H        2.03412842      16.04944530      -0.51878073      -0.38864239       0.21382961      -0.59848471
H        2.80652816      15.50183124       0.60674768       0.31286878       0.21243040       0.15057541
O       -5.66329574      -7.28311269       5.59395071      -1.03151814      -0.09211655      -0.17391080
H       -5.40617886      -8.06463390       6.15506463       0.12611157      -0.04031018       0.39144003
H       -5.00887213      -6.76264915       5.18099456      -0.61223803      -0.16059517      -0.13661459
O       -2.16587542       2.38596544       6.64510120       0.22832368       1.23312919       0.14779985
H       -2.01468529       3.23294503       6.93470014      -0.29067418      -0.18492895      -0.36267744
H       -1.83162608       1.85237634       7.48237554       0.13760830      -0.49883766       0.26878009
O       13.16225668      -5.45645761      -1.44632920       0.10532655      -1.64392751      -0.63001568
H       13.97989231      -5.19546133      -2.00651685       0.19020884      -0.06932597       0.01280283
H       12.90484303      -6.28609733      -1.83687748       0.30830059       0.29382583       0.63245280
O       11.82567976       4.88685265      22.73411546      -0.21940354       0.06352069       0.25217022
H       11.26057574       4.21350934      23.01720158       0.11143417      -0.00313964      -0.12303688
H       11.87706577       4.91299335      21.77760874       0.12972838      -0.42633117      -0.07631780
O        8.19752909      14.49681584      23.78494097      -1.06596262      -0.82074065       1.58018826
H        9.01233726      14.94098485      23.98082224       0.00426815      -0.10676994      -0.29382425
H        8.09835334      13.65570869      24.10161938       0.01371273       0.56382891      -0.21149504
O       -8.09680237       7.02349228      11.40834354       0.87083054      -0.22859010       0.11910997
H       -7.30771095       6.53947656      11.00520586       0.04557832       0.02713031      -0.15013092
H       -8.32129668       6.23999999      11.98798583      -0.17468463      -0.09419915       0.40639310
192
Lattice="12.748669918269961 0.0 0.0 -5.291421953821897e-07 12.748669918269961 0.0 -5.291421953821897e-07 -5.291421953821897e-07 12.748669918269961" Properties=species:S:1:pos:R:3:momenta:R:3 step=40 time_fs=4.0 phase=equilibration pbc="T T T"
O       11.60649143       0.72604886     -16.50143369       1.16465788      -0.02517697       0.68214804
H       11.96791592       0.92205500     -15.66424963       0.52660827       0.43404443      -0.12991307
H       10.84069464       0.16887902     -16.47995785       0.07960561      -0.14380308      -0.13100493
O       26.37127511      24.78575711       4.88120834       0.30350830       0.03411155       1.29033628
H       26.68721949      23.99605567       4.63078154       0.06001721       0.14646647      -0.02013090
H       25.52770586      25.00970555       4.47911473       0.11391564       0.12135881      -0.04802175
O        4.55203150      -0.29644636       6.64487488       0.11477053      -0.67826912      -1.51828038
H        4.94143563      -1.10141143       7.06841038       0.33456288      -0.03818869      -0.23461623
H        4.15582884       0.13051434       7.42033047       0.15064966       0.15489636       0.09911451
O       -2.85474198      -4.41635088       1.01643269      -0.46416548       1.12076475       1.01919385
H       -2.60643370      -3.70159072       0.37300544      -0.07583102      -0.18429208       0.06395989
H       -3.70968175      -4.18606631       1.47153973       0.08242355      -0.03127966      -0.32045218
O        4.26998778      15.85611696      10.72419363       0.63820671       0.39858029      -0.32790492
H        4.29559550      16.70865959      11.21527219      -0.10995199       0.36418623       0.07031351
H        5.07523386      15.78046625      10.30658260       0.11743095       0.11459617      -0.42815198
O       -1.38699398       6.63294916       5.14593737       0.29355187      -0.86112576       0.10394828
H       -1.31593661       6.29206055       4.16418000      -0.54581137      -0.03439423      -0.03831480
H       -0.50463678       7.05995202       5.20839637      -0.13436215       0.08943279       0.02958215
O       22.81660301      12.31682464       5.77723174       0.02540478       0.29284716      -0.34768045
H       23.16784176      13.13918378       5.99547816       0.14303495       0.06274467       0.27555865
H       22.46764434      12.35714322       4.95997500      -0.23785877      -0.35439349       0.44659702
O       -1.02911208     -15.75892299       6.81173976      -1.37585956       0.69401412      -0.47558036
H       -0.50166206     -16.08542005       6.02469373      -0.17210849      -0.00232257      -0.11090693
H       -1.39614988     -14.97801607       6.53859381       0.27865263      -0.33473206       0.22628474
O       15.47509486     -17.89867963       9.67639680       0.39796555      -0.61804831       0.33781913
H       16.07652464     -18.31434146      10.16496550       0.04380906      -0.27858544      -0.06279974
H       15.65969810     -16.97447347       9.62237226      -0.08638120       0.03038704      -0.27915968
O        3.26857235     -14.65886391     -13.34656148       0.54343982       0.00123167      -0.44534872
H        4.07499292     -15.06747734     -13.21115046       0.03891069       0.45214867       0.12279627
H        2.61972796     -14.96055262     -12.69510378       0.29454869      -0.12719628      -0.09145548
O       -5.74694209       1.57594171       2.85113628      -0.09028850       1.26467148      -0.09361436
H       -6.45335947       1.23948031       2.29927136      -0.23234693      -0.41084144       0.12123687
H       -5.44922413       2.34917517       2.44202571       0.03598898       0.02217505       0.39729806
O       -5.37421044      16.04810398      25.96920430       0.71044596       1.43078715      -0.85849434
H       -5.33786349      15.37898214      25.25671795      -0.04846174       0.30809936      -0.20671023
H       -4.37113185      16.42867871      26.00971868      -0.38227098      -0.54696622       0.00765655
O        7.45337938     -15.70801516      -8.52856771       1.16503099       0.05516678       1.86195913
H        7.83680614     -16.53024600      -8.20271116       0.18508375       0.46616340      -0.12903679
H        6.58728951     -15.60394516      -7.93119261      -0.01867371       0.31651205      -0.10595870
O       13.67914493       8.54883830      17.95158712      -0.31645198       0.13277336       1.08145958
H       14.04728759       8.69451125      17.13580949       0.21650282      -0.19186498      -0.15783271
H       14.23831035       7.96726667      18.40871525       0.03240200       0.14498330      -0.14749256
O       -0.15115049       1.19355752      -1.23116425      -0.11133818       0.48978979       1.01405521
H        0.76587963       1.37575383      -1.19833394       0.11806509       0.03030623      -0.11324554
H       -0.20913738       0.41129436      -0.73284934      -0.52892077       0.20628819      -0.35765683
O      -14.19045704      12.66217164      15.80232681       0.52463463      -0.07632771      -0.82822575
H      -14.01266911      12.33673082      14.84221863       0.24730949       0.01633437       0.09116088
H      -14.95997505      12.28326317      16.01522923       0.11724707       0.02887752       0.16836704
O      -16.45408468       5.91197117      12.34330852       2.17299323       1.04036718      -0.39889252
H      -17.05127501       5.98372221      11.52666971       0.22420133       0.08208829      -0.06547753
H      -16.04849913       6.72096010      12.46587305      -0.66113728      -0.33000947      -0.41338532
O       -9.94571252      32.93408442      -9.57606460      -0.53690456      -0.88349021      -0.30911598
H       -9.32204367      32.30767417      -9.28362856       0.15735870       0.24630208      -0.24686273
H      -10.54180619      32.38210085      -9.94555557      -0.02413450       0.10956826       0.27440177
O       34.74747664      11.50437296      21.41572210       1.06484445      -0.40345227      -1.85515465
H       34.76564499      11.55231441      20.49144060      -0.14700551       0.17820310       0.49248481
H       35.15335579      10.70071088      21.48973686       0.00009747       0.13339199       0.40603544
O       30.39598449     -12.68220244       2.17141276       0.24389586       0.98423322      -0.20439457
H       29.70395870     -12.12764970       2.56520004      -0.13535680      -0.10048608      -0.38417901
H       30.25173989     -12.63295099       1.16416232      -0.19164801      -0.01178244       0.09754517
O       17.58773526       9.31747226      -7.43561454      -0.13647180      -1.14607024      -0.45455735
H       17.58804706       8.44894460      -7.56455449      -0.48311299       0.39773673      -0.26795563
H       17.43478710       9.51771550      -6.49538535      -0.08750705       0.04840913       0.00324817
O       -5.17753263       2.61107026      32.18431491       0.54442251      -0.87067450       0.18747756
H       -5.83023930       2.09174255      31.63182783       0.05656847      -0.08406206       0.28680257
H       -4.44830517       2.01884412      32.37030511       0.29869116       0.18813165       0.35856669
O        3.75391218       0.85143296      -0.23198719       1.34356497       0.62505509       0.05824969
H        3.49359795      -0.07646518      -0.28018032      -0.02056772       0.04679200      -0.09207286
H        4.15356631       1.17246647      -1.12498601       0.17549589      -0.26530214      -0.12809664
O       23.24155843       3.22811370      11.67163109      -0.67269168       0.18442972       0.04853150
H       23.05827684       3.61419257      12.45123756       0.50549024      -0.18795165      -0.02331303
H       23.89339723       2.53214167      11.71231139      -0.24768022      -0.05566558       0.10595096
O       -1.44506605      31.81633651      15.00858920       0.27541315       0.50406410       1.04655800
H       -1.94466562      32.45479623      14.52716569      -0.30760417      -0.15182992       0.06987725
H       -0.58194211      31.94025454      14.47198090       0.03815911      -0.25702556       0.02551824
O        4.82333204      19.38870399       5.21236667      -0.10158337       0.03260945       0.18303729
H        4.22764454      18.97401800       5.71797307      -0.24579591      -0.05177898      -0.17066178
H        5.69654913      18.93243609       5.22707070      -0.01754021      -0.06005470       0.02049201
O      -10.13815244      10.48455266       9.46475584      -1.09906759       0.66114735       0.39685969
H      -10.61968897      10.88465456       8.79864620      -0.13532274      -0.23615470       0.47350023
H      -10.57069691      10.88600013      10.30815704      -0.00297096      -0.03944278       0.20062996
O       17.70443171      17.75832096      26.18772759      -0.26668415      -0.30603997      -1.39970616
H       18.50067867      17.31767756      26.01197808      -0.01840116       0.07678858       0.13756438
H       16.85834944      17.26974005      26.07573900       0.02313416       0.14073078       0.09924226
O        6.93293253      18.71136695      10.13133112      -0.07952232      -0.34406218       0.43936963
H        7.22332287      19.37364512       9.46087948       0.06222060      -0.30510541      -0.14029922
H        6.71224551      17.97365622       9.61120684      -0.16252064       0.16814995      -0.04953454
O       -0.62151928     -13.80773078      13.26371270      -0.49927737      -0.10410546      -0.06531829
H       -1.37916540     -14.00993956      12.69539261       0.00004504      -0.17807947       0.33679606
H       -0.14615563     -14.46173147      13.65121567      -0.04518184      -0.10896150      -0.24748347
O        1.14814214       6.16758453       1.09860767       0.27033214      -2.74676328       0.72675938
H        1.55123995       5.31129097       1.10031870      -0.24902496       0.64023407      -0.00628717
H        0.90321393       6.24037946       0.11457589       0.20983439       0.17663543       0.22776878
O        3.10642019       1.32499312       8.36128963       0.50465740      -0.69171158       0.50296525
H        2.25635770       0.91059026       8.22593918       0.63673826       0.69998410       0.14619543
H        3.25596675       1.56900684       9.24122869       0.15522259      -0.24327727       0.04919199
O      -18.84272460      28.80365482     -16.15194109       1.04640845       0.43176728      -0.84262619
H      -18.68299876      28.82721258     -17.02978658      -0.35434497       0.45217461       0.30165138
H      -18.18873920      28.29874581     -15.80848268      -0.39551215       0.45860310       0.21446514
O        2.88385631      26.87641260      -9.12128428       0.17459967      -0.23515347      -0.20027372
H        3.65408788      26.96119405      -8.12261693       0.53234649       0.32098998       0.59928985
H        2.32167307      26.20311818      -8.87191618      -0.63441337      -0.09738312      -0.09443720
O      -18.06576604      19.03060339       1.91252911      -0.98291956      -1.24384441       0.23342659
H      -17.49511438      18.86279531       1.25953695      -0.19236590       0.10559593       0.27710942
H      -18.77171546      18.50867354       1.70655424      -0.08220047       0.22505887       0.23125703
O       11.70035250      17.57478997       7.07169687       0.26420138       0.12381624      -0.60945383
H       12.52554783      17.36733624       6.66965358       0.00407059      -0.21125589       0.14212173
H       11.36746248      18.28502448       6.55506155      -0.35054658      -0.13957191       0.15622374
O       -7.22784191     -11.19657777       5.19207074      -0.15890306      -1.02704625      -0.42113782
H       -6.48289029     -11.32422699       4.56454904      -0.11803293       0.16502891       0.14204669
H       -7.32632861     -12.08498651       5.51817401      -0.09474381       0.34706800       0.24010894
O      -24.12503880       3.42774615      10.69955547      -0.27531971      -0.89622092      -0.09264485
H      -24.77531505       4.09315512      10.49181043       0.04879989      -0.35298566      -0.09963060
H      -23.34009160       3.71232154      10.32838577      -0.65276766      -0.15844864       0.28509286
O      -11.43250888      -8.19795365      18.46704451       0.04201294      -1.03137261      -0.31254379
H      -10.60256065      -8.52860679      18.88645804      -0.20741358       0.05726643       0.14890572
H      -11.34969379      -8.45201492      17.48803341      -0.12311099       0.28199181       0.20671541
O        8.62254875       7.33236068      16.92748015      -1.15249952       0.75230659      -0.44404459
H        9.51413795       7.33438499      16.77174124       0.00611045      -0.05604167      -0.02442392
H        8.27950300       6.74648429      16.21135223      -0.23231007      -0.09054338       0.04827056
O      -11.65170974      -0.47815675      20.41428825       0.65554807      -0.01770354       0.34192247
H      -12.54795273      -0.28870491      20.80709930      -0.00711770       0.08381314      -0.12214089
H      -11.62376882      -0.53804175      19.49563177      -0.32649106      -0.07922439       0.32265228
O       24.18536959       2.46796820      16.22899875      -0.84053233      -0.04623668      -0.58383658
H       23.86526096       2.50601495      17.15918887       0.15535070       0.11332194       0.07651027
H       23.97441568       1.70781457      15.82514781       0.26025858       0.52132051      -0.29598377
O       -5.67271813     -17.95761141      -5.00561104      -0.56852409       0.30648936      -1.21147871
H       -4.72964785     -17.71642999      -4.69082115       0.33348208      -0.29370879      -0.36589590
H       -5.79337106     -18.72925137      -5.68902217       0.27379612      -0.00764352       0.02221253
O       29.49425367      -8.99142174      -6.14644332      -0.97900359       0.63000311      -0.25607981
H       30.12727637      -9.05122775      -6.77823732       0.01758418       0.09930339       0.27758006
H       29.21915899      -9.95107817      -5.98903355      -0.30756326       0.27489261       0.05756522
O        8.81376820      -0.68201532       3.40286228       0.39787771       0.60233320       0.85671861
H        8.22593513      -0.10344024       2.91726350       0.09669610       0.20372459      -0.25806280
H        8.27898132      -1.40413324       3.65885768       0.04173380      -0.35813379      -0.07670590
O      -19.77273342      -3.17232324      24.77703290      -0.05535134       0.36951960       0.01951518
H      -20.12502588      -3.83624576      24.29695400       0.37868954       0.17508191       0.23682593
H      -19.27148797      -3.35688743      25.49356527      -0.03091630      -0.10504073      -0.25124552
O        2.37224006      -5.80980108      -6.04084538       1.48056937       0.59880054       0.42536247
H        2.58582344      -5.51678871      -5.05936037      -0.24744865      -0.04008296       0.03115240
H        1.84003400      -6.66681045      -6.25399600       0.14136820       0.03784150      -0.10400184
O        9.83671906       8.28780674       7.94570638       0.29840426      -0.17648000       0.12886551
H       10.54801694       8.52069302       7.35730068       0.02133686      -0.18312181      -0.25215345
H       10.24983780       7.55854095       8.41933474      -0.16849235      -0.30161268      -0.01047334
O        5.35221614       9.74658556      -4.81406394       0.70212145      -0.10243542      -0.81800055
H        6.05253487       9.18110689      -4.76744107       0.13029174       0.13069198      -0.05915037
H        4.83781517       9.66993882      -4.01746750      -0.06863667       0.04498033       0.13686050
O       13.77156294      29.46832924      15.87399606      -0.59192630      -0.05794791       0.14805392
H       12.92925534      28.97570902      16.09332384      -0.08140537      -0.18252751      -0.04917029
H       14.44369874      28.78655500      15.91178757      -0.16441896      -0.19679239      -0.19347239
O       -2.80678134       3.97391973       1.68539790      -0.17976110      -0.30059192       0.89021139
H       -2.20337383       3.58234463       2.37060314      -0.59632097       0.14337401      -0.39337494
H       -2.66480128       4.93696118       1.86502031       0.02822854       0.24738502       0.10709231
O        7.80123378     -14.02367421      10.96351144      -0.12899124      -0.42539606      -0.69574887
H        7.04449402     -14.39550472      11.15505247       0.36801053       0.20868989      -0.33270405
H        8.13199402     -14.01441073      10.11346113       0.00705115      -0.30920097       0.27026392
O       -2.44298136      10.55737330      24.37533955      -1.12210946      -0.03982509      -1.48922003
H       -2.04566243      10.07696658      23.52395987       0.12438206      -0.18165840       0.08436115
H       -3.18604815      11.05521501      24.18388692      -0.28333781       0.43297105       0.44415634
O       20.06842622      21.73827058       1.55246187      -0.57777766       0.63059926       0.28926611
H       19.98144204      22.11511297       2.33656476       0.08189504       0.28006939      -0.07890056
H       19.83766384      20.86831293       1.49579237      -0.17547632      -0.02804063      -0.45323508
O       12.15593733       9.99892745     -15.93197345       0.72902769       0.36010799       0.69247566
H       12.63779452       9.38986142     -15.41392809       0.07670560      -0.20496979      -0.18550993
H       12.41273964      10.02478761     -16.78608835       0.34836175       0.18814235      -0.13773246
O      -11.40446414      22.28709645       1.05857587       0.09573325      -0.96754902      -0.14235364
H      -11.59982476      21.43122467       1.12877191      -0.24966643       0.56331418      -0.21132587
H      -10.84348395      22.51958160       1.80355716      -0.02817893       0.36686044      -0.04481399
O        2.95157744     -15.03053442      16.14164102       0.20774940      -0.31864375      -0.91215661
H        3.35748931     -15.73248073      16.60824146      -0.29845389       0.15252421       0.12745083
H        3.59002545     -14.30290667      15.98459109      -0.13090106      -0.30776625      -0.11695290
O        2.43995418      16.35066067       0.36804424      -0.96649316      -0.80136229       0.43404758
H        2.00009331      16.07725548      -0.56351951      -0.29762689       0.35414591      -0.30068195
H        2.83750544      15.52235689       0.62653964       0.31588007       0.21752390       0.24382556
O       -5.67021383      -7.28467339       5.59361635      -1.27583591      -0.49836728       0.13286939
H       -5.39365125      -8.05738705       6.18596712       0.12306701       0.19472279       0.23669295
H       -5.05442103      -6.77030746       5.16259014      -0.31050897       0.01326633      -0.24960320
O       -2.16428752       2.39175244       6.64637664       0.26829776       0.65273793       0.30991560
H       -2.03917367       3.23824905       6.90315851      -0.21005211       0.30571899      -0.27412369
H       -1.82192354       1.80807717       7.49678165       0.06149128      -0.40298686       0.03445708
O       13.16356255      -5.46577340      -1.45034459       0.44602447      -1.36344357      -0.65673908
H       13.98810205      -5.20528446      -1.99831547      -0.01118635      -0.13202381       0.15162012
H       12.92986967      -6.26570866      -1.77908132       0.18868534       0.04829549       0.52343467
O       11.82475962       4.88768012      22.73485638       0.00993777       0.23864188       0.15912030
H       11.26167999       4.20363109      23.00973786      -0.07924104      -0.19284108      -0.01978031
H       11.88876311       4.87184655      21.76842177       0.11596401      -0.41400402      -0.08930707
O        8.19042313      14.49301191      23.79336464      -1.17295614      -0.25538634       1.34038214
H        9.01927665      14.93198383      23.95366040       0.13809085      -0.07085060      -0.25463068
H        8.09818673      13.68558400      24.08886124      -0.01990627       0.00881162      -0.02378386
O       -8.09089478       7.02069699      11.40893356       0.98200113      -0.63211357       0.17091755
H       -7.30776570       6.54957874      10.98998649      -0.05448607       0.18097419      -0.15155605
H       -8.33795247       6.24186286      12.02421420      -0.16171242       0.14427511       0.33053379
192
Lattice="12.7484203490416 0.0 0.0 -5.29131836842025e-07 12.7484203490416 0.0 -5.29131836842025e-07 -5.29131836842025e-07 12.7484203490416" Properties=species:S:1:pos:R:3:momenta:R:3 step=50 time_fs=5.0 phase=equilibration pbc="T T T"
O       11.61349701       0.72580265     -16.49752697       1.19024176      -0.05173883       0.50575118
H       12.02146513       0.96548222     -15.66927886       0.56342159       0.44893521      -0.00320445
H       10.84576429       0.15255507     -16.49193652       0.04270634      -0.18131551      -0.11860413
O       26.37212523      24.78687700       4.88972238       0.14854113       0.47151748       1.51157486
H       26.70180312      23.98924894       4.62036376       0.24292038      -0.25624810      -0.18734763
H       25.53825132      25.02074226       4.47404618       0.11505099       0.11463693      -0.05503148
O        4.55272225      -0.30110113       6.63599849       0.13240454      -0.83084199      -1.31791756
H        4.97179278      -1.09784009       7.03946401       0.28767965       0.11117651      -0.35451178
H        4.16969807       0.14730744       7.42709399       0.14346761       0.17661752       0.02807505
O       -2.85774239      -4.40899963       1.02250644      -0.50664749       1.21627854       0.96711395
H       -2.61623428      -3.72634080       0.38532382      -0.11668194      -0.30210812       0.16810518
H       -3.69516722      -4.18854956       1.43559002       0.17715035      -0.01280486      -0.39666604
O        4.27336939      15.85887798      10.72256321       0.52798490       0.61650100      -0.14466824
H        4.28426394      16.73657249      11.21760556      -0.11656876       0.19272263      -0.03211514
H        5.09524910      15.78826514      10.25940134       0.25557931       0.06114891      -0.51236270
O       -1.38457896       6.62732152       5.14550829       0.46731691      -0.93415996      -0.20677450
H       -1.37073377       6.29417643       4.17488788      -0.57360973       0.08055917       0.25826202
H       -0.52319656       7.06798439       5.21134117      -0.23516830       0.08297602       0.03146717
O       22.81681216      12.31773434       5.77619078       0.20596632       0.11180890       0.05586757
H       23.18668410      13.15680554       6.02814791       0.23628263       0.27239453       0.38334106
H       22.43100009      12.32024195       4.98076213      -0.50555004      -0.39520960      -0.01456263
O       -1.03658034     -15.75581432       6.80855019      -1.05765250       0.19807612      -0.51004780
H       -0.52156718     -16.08496859       6.02180250      -0.23305850       0.00235175       0.04956669
H       -1.38047820     -14.98681623       6.55452867       0.03330927       0.17069344       0.09668917
O       15.47586507     -17.90172228       9.67743779      -0.01840336      -0.49008935       0.08528199
H       16.10026750     -18.35332624      10.17328008       0.41972653      -0.50353010       0.21091753
H       15.65291293     -16.96423098       9.59422343      -0.04755994       0.15079985      -0.29053614
O        3.27094782     -14.65812460     -13.34901794       0.26147206       0.14914613      -0.45165404
H        4.09442000     -15.03050970     -13.19752408       0.36272190       0.30338672       0.15166065
H        2.64768648     -14.97269310     -12.70404222       0.26664263      -0.13292623      -0.08514592
O       -5.74776392       1.58273096       2.85105552      -0.23425396       0.94319504       0.07194088
H       -6.47769889       1.19730291       2.31062048      -0.24237857      -0.43435679       0.12730907
H       -5.43999112       2.36612710       2.47333370       0.14566657       0.32197636       0.24523822
O       -5.36912813      16.05670491      25.96319968       0.90096009       1.47685547      -0.92525331
H       -5.34132840      15.41256558      25.23847900      -0.02759235       0.37683422      -0.16680281
H       -4.41951567      16.36983641      26.01090680      -0.60056515      -0.64617581       0.02741532
O        7.45946202     -15.70714965      -8.51648181       0.84102904       0.17338531       2.00174540
H        7.85742459     -16.48727938      -8.21477233       0.26194147       0.36294796      -0.10311318
H        6.59681899     -15.57457229      -7.95111972       0.21870146       0.27669217      -0.30476924
O       13.67597590       8.54976523      17.95832893      -0.60036081       0.22998989       1.17433081
H       14.07347945       8.67933808      17.10410051       0.29925621      -0.12677782      -0.42755510
H       14.24891178       7.97212871      18.40472673       0.18758807      -0.03829635       0.07098484
O       -0.15233117       1.19714125      -1.22537837      -0.23999464       0.70316558       0.85819646
H        0.78865863       1.38209850      -1.21114456       0.31520433       0.09044653      -0.14905728
H       -0.26493513       0.41548690      -0.75867119      -0.61548978      -0.12699532      -0.16900648
O      -14.18548116      12.66179607      15.79562967       0.98441087       0.02818532      -1.24047155
H      -13.98766984      12.34247274      14.86071029       0.25640391       0.10359924       0.29024365
H      -14.97002521      12.27657744      16.03905502      -0.30549582      -0.15114309       0.31896321
O      -16.44139337       5.91693550      12.33987774       1.84417504       0.57087203      -0.64027720
H      -17.02336585       5.99189236      11.52888931       0.33247733       0.08111652       0.10687827
H      -16.10354934       6.70976117      12.42759083      -0.45321640       0.15138983      -0.35779527
O       -9.94827592      32.92914700      -9.57731692      -0.36572586      -0.51599803      -0.16412162
H       -9.29585720      32.32579990      -9.30295919       0.37785358       0.13746286      -0.15473472
H      -10.56251885      32.37828175      -9.93054560      -0.40292108      -0.17255105       0.03391739
O       34.75294917      11.50272268      21.40484118       0.94695151      -0.07905110      -1.51034611
H       34.74765113      11.57420822      20.51988218      -0.20901157       0.27968141       0.05713708
H       35.16160566      10.69202771      21.53260458       0.17698682      -0.29345801       0.48328783
O       30.39664988     -12.67552276       2.16924825       0.17346108       1.09630280      -0.47872828
H       29.69142146     -12.13965615       2.52596829      -0.12570748      -0.13653733      -0.40177569
H       30.23407118     -12.63324551       1.18983877      -0.15621264      -0.00160443       0.40791762
O       17.58659638       9.31199387      -7.43771692      -0.11907491      -0.57012075      -0.27118102
H       17.53932788       8.45859134      -7.59503570      -0.51340141      -0.20385177      -0.36287027
H       17.42818080       9.52171137      -6.49836697      -0.03977950       0.03531211      -0.07020776
O       -5.17444639       2.60525441      32.18457236       0.45130498      -0.99563225       0.12043585
H       -5.81524452       2.08801443      31.66795511       0.23191122      -0.00816741       0.44900582
H       -4.42226104       2.04163954      32.40411562       0.22659684       0.28335559       0.34488577
O        3.76248151       0.85525778      -0.23254664       1.47136254       0.62278462      -0.24051183
H        3.49281976      -0.07012709      -0.29099334       0.00575294       0.08256686      -0.12837400
H        4.16413584       1.14053373      -1.12122863       0.04419118      -0.38595727       0.20237831
O       23.23705383       3.22866775      11.67015306      -0.65575525       0.02587983      -0.45047572
H       23.10274421       3.60727591      12.47277274       0.41900726       0.04638712       0.46701373
H       23.87055026       2.52349555      11.72335016      -0.20506842      -0.12887042       0.12312009
O       -1.44246034      31.81872664      15.01437984       0.55103826       0.48640165       0.92853750
H       -1.98096363      32.44544799      14.53071710      -0.42304560      -0.04056026       0.01757051
H       -0.58395844      31.91069565      14.48108270      -0.08090532      -0.33260277       0.16547842
O        4.82394208      19.38907820       5.21255900       0.29908965       0.19921698      -0.06396267
H        4.18684158      18.95839134       5.71531486      -0.55957506      -0.24252869       0.09341411
H        5.68721403      18.93157076       5.22806153      -0.16857986       0.04629726       0.00367093
O      -10.14455764      10.48823862       9.46868873      -1.03890425       0.59764653       0.95566265
H      -10.64348471      10.86963572       8.82761802      -0.36835831      -0.06050915       0.11053007
H      -10.56240026      10.87589249      10.31765233       0.16821595      -0.16154289       0.00144107
O       17.70161769      17.75651649      26.17844323      -0.51844919      -0.15798424      -1.45607917
H       18.50673233      17.31678475      26.02548707       0.14806410      -0.08769774       0.15078702
H       16.86478380      17.28386634      26.08709303       0.09944046       0.14612967       0.14140769
O        6.93248860      18.70974089      10.13394351      -0.02590123      -0.08032599       0.47549389
H        7.22761562      19.34150432       9.45152201       0.03271199      -0.33728444      -0.05255807
H        6.69341066      17.97751795       9.60134732      -0.22124242      -0.07825167      -0.14313503
O       -0.62523192     -13.80679082      13.26261561      -0.69000032       0.30729453      -0.18722542
H       -1.37945462     -14.03120504      12.72730187      -0.02028287      -0.26699433       0.31237130
H       -0.13986745     -14.48895148      13.63359536       0.16260508      -0.43868405      -0.11948294
O        1.14914438       6.15128051       1.10233500       0.03528734      -2.45432754       0.51001029
H        1.53376249       5.36049259       1.10241782      -0.07325553       0.29840024       0.05447952
H        0.92430216       6.26082143       0.14472461       0.21612993       0.24786865       0.37216135
O        3.10995423       1.32077578       8.36350360       0.74119712      -0.63596527       0.29106211
H        2.30673614       0.97244769       8.23684401       0.32006992       0.53506857       0.06591479
H        3.27457704       1.54807800       9.25714307       0.23072829      -0.18717894       0.27926198
O      -18.83787665      28.80696975     -16.15603757       0.41221926       0.82819914      -0.60092564
H      -18.71276041      28.87279595     -17.03046616      -0.26382448       0.49679408      -0.31690652
H      -18.19886222      28.32126931     -15.76813668       0.17975205       0.01682185       0.60921161
O        2.88700195      26.87497115      -9.12034185       0.84370064      -0.12169016       0.50411888
H        3.67892645      26.98745950      -8.09981891      -0.06682599       0.21745748      -0.18298085
H        2.25637779      26.18893912      -8.87562842      -0.63095972      -0.11190898       0.00085547
O      -18.07172652      19.02363027       1.91555870      -1.07272442      -0.91006487       0.76166850
H      -17.48994609      18.86801234       1.26133292       0.28537367       0.00963268      -0.23584660
H      -18.79933218      18.51874514       1.72723860      -0.48754754      -0.00827467       0.19432800
O       11.70155220      17.57486891       7.06815046       0.20643644       0.01252007      -0.50301540
H       12.53426173      17.34337391       6.68115409       0.16579609      -0.26562015       0.09848159
H       11.32795934      18.27738030       6.56632817      -0.44800122      -0.01537207       0.07814749
O       -7.22844088     -11.20240501       5.18892925      -0.10359057      -0.91597299      -0.55896589
H       -6.49825433     -11.30640185       4.57615724      -0.17880884       0.18985968       0.08179535
H       -7.33875723     -12.05707890       5.54580173      -0.16092420       0.19844801       0.33601280
O      -24.12721004       3.42167665      10.69920342      -0.61615044      -1.08831034       0.06845014
H      -24.77755740       4.06334657      10.48032091      -0.11905524      -0.24426455      -0.13542882
H      -23.38286056       3.70231800      10.34518183      -0.18930288      -0.02992319       0.04258530
O      -11.43145042      -8.20445891      18.46434458       0.20742058      -1.12118730      -0.42196044
H      -10.62874648      -8.52101018      18.89738739      -0.31488121       0.08772384       0.09208333
H      -11.36331262      -8.42022088      17.52197437      -0.16095257       0.35220526       0.44794181
O        8.61402673       7.33655309      16.92429030      -1.53963002       0.66003183      -0.49371066
H        9.53227681       7.33012146      16.77033549       0.33461807      -0.03113635       0.00571869
H        8.25655614       6.74093499      16.21919484      -0.22949863      -0.01683577       0.12155394
O      -11.64781118      -0.47805667      20.41714313       0.54367893       0.04712947       0.72803671
H      -12.54285564      -0.28058899      20.79098756       0.10187538       0.08373758      -0.19513490
H      -11.65678639      -0.54681054      19.51034218      -0.35389878      -0.10236591      -0.02921399
O       24.18001019       2.46916580      16.22618337      -0.74831082       0.46153295      -0.22609781
H       23.88183202       2.51707558      17.16047974       0.19287850       0.11002397      -0.04326430
H       23.99387414       1.73528242      15.78452263       0.14821711       0.03630550      -0.53349648
O       -5.67516418     -17.95567785      -5.01305151      -0.25169635       0.21226311      -1.24099110
H       -4.71206463     -17.74710755      -4.73390193       0.01590498      -0.34344486      -0.52056907
H       -5.76469881     -18.72144189      -5.67987215       0.30945211       0.15820193       0.16024292
O       29.48632759      -8.98807107      -6.14694823      -1.40372842       0.42457972       0.04043866
H       30.14569736      -9.04104750      -6.76590060       0.36402759       0.10506060      -0.01601801
H       29.19031555      -9.91229918      -5.98303336      -0.27568136       0.49801165       0.06483498
O        8.81638288      -0.67804298       3.40777815       0.46107390       0.67285496       0.76264191
H        8.23386308      -0.08075468       2.89266654       0.08993188       0.23155649      -0.22313512
H        8.27732693      -1.44779224       3.65592214      -0.04320076      -0.49089367      -0.00093533
O      -19.77293259      -3.16799008      24.77642322      -0.13158818       1.02624458      -0.05046198
H      -20.09917734      -3.84366301      24.30354478       0.14283161      -0.33518651      -0.09679476
H      -19.25966697      -3.37298424      25.49014629       0.26359186      -0.22477420       0.18664342
O        2.38114825      -5.80639581      -6.03743439       1.43708508       0.47893874       0.64112532
H        2.55675701      -5.52683241      -5.07138165      -0.34384178      -0.16443350      -0.27195459
H        1.86122075      -6.65031625      -6.25905741       0.28861157       0.28783163      -0.00510751
O        9.83847624       8.28626237       7.94653303       0.35683118      -0.28085757       0.18510843
H       10.55092417       8.50741337       7.32946888       0.02635192      -0.09522087      -0.29955452
H       10.22963570       7.52940549       8.41917647      -0.24536364      -0.27757441      -0.00002212
O        5.35548949       9.74643867      -4.81917904       0.40188760       0.09820832      -0.85402049
H        6.08270600       9.18000775      -4.77289539       0.46608447      -0.13040269      -0.05410414
H        4.82855430       9.67432122      -4.00233686      -0.10017359       0.05000646       0.14529055
O       13.76713450      29.46684011      15.87474267      -0.75816994      -0.24327693       0.20126106
H       12.92901800      28.96262319      16.08416188       0.08172354      -0.07329838      -0.12996501
H       14.42747800      28.76760094      15.89079779      -0.16501906      -0.17478368      -0.22681790
O       -2.80757784       3.97266936       1.69116467      -0.14274331      -0.04059222       0.94614435
H       -2.26424165       3.59324751       2.32851373      -0.60539913       0.04740162      -0.41382783
H       -2.66396086       4.95150816       1.87312625      -0.01366837       0.04814227       0.05768385
O        7.80222449     -14.02481611      10.95976875       0.50553173      -0.02975836      -0.44691002
H        7.04392019     -14.39285783      11.13066996      -0.38803574      -0.16451087      -0.16144044
H        8.13871952     -14.04450477      10.11885772       0.14118243      -0.31520797      -0.16459363
O       -2.44877712      10.55621839      24.36509394      -0.81725876      -0.24162049      -1.69575388
H       -2.03961034      10.06632244      23.54541088       0.00126121      -0.03264746       0.35807891
H       -3.22322133      11.10156361      24.22516781      -0.44241707       0.49662511       0.42062097
O       20.06493113      21.74198195       1.55256107      -0.44485110       0.69134811      -0.22051069
H       19.98499857      22.15470729       2.35503132       0.00201002       0.51766919       0.42244348
H       19.81483049      20.84789126       1.45181749      -0.27399151      -0.33518326      -0.43914574
O       12.15935729      10.00137931     -15.92636607       0.49204852       0.48269464       0.99446444
H       12.65124139       9.36206240     -15.42601577       0.18771202      -0.34161646      -0.08557927
H       12.45292385      10.04332470     -16.82149383       0.46458577       0.19575121      -0.53788776
O      -11.40303240      22.28287960       1.05747304       0.31229300      -0.23793312      -0.20570669
H      -11.63394001      21.45176377       1.10805662      -0.46313271      -0.15408843      -0.21112067
H      -10.84520364      22.55684937       1.80069460      -0.01717278       0.39997507      -0.01982857
O        2.95252857     -15.03158417      16.13536241       0.09424552      -0.13850050      -1.03020587
H        3.33457377     -15.72409792      16.62610375      -0.16725855       0.00625429       0.25189470
H        3.57687739     -14.33511310      15.97353017      -0.11293573      -0.32854145      -0.10989872
O        2.43375085      16.34515848       0.36986938      -1.03885337      -0.88022256       0.16534660
H        1.97732693      16.11590347      -0.57520991      -0.16456225       0.43851087       0.06678161
H        2.86673856      15.54361212       0.65247960       0.28129477       0.22425159       0.28294106
O       -5.67867016      -7.28892211       5.59540514      -1.50007850      -0.91004602       0.47263841
H       -5.38233283      -8.02638552       6.20041338       0.10844053       0.42833688       0.06626179
H       -5.06940601      -6.75963107       5.13174809      -0.01601509       0.19083686      -0.37291238
O       -2.16247598       2.39405443       6.64858873       0.31305055       0.15817408       0.46125694
H       -2.05577396       3.28787415       6.88061956      -0.13654474       0.66050492      -0.19673709
H       -1.81938134       1.77514439       7.48955170      -0.00962140      -0.26599175      -0.17687927
O       13.16724619      -5.47246347      -1.45408888       0.82884548      -0.84466531      -0.56340586
H       13.97827240      -5.22044472      -1.97785914      -0.17390238      -0.17851147       0.25844269
H       12.93861998      -6.28472418      -1.73754568      -0.00488003      -0.44933015       0.32824696
O       11.82510439       4.88933133      22.73498901       0.15506870       0.30041888       0.02767559
H       11.24745053       4.17921074      23.01100927      -0.18528181      -0.27823750       0.04418437
H       11.89893004       4.83239826      21.76175907       0.09594670      -0.39193386      -0.02638788
O        8.18289475      14.49320337      23.80036080      -1.21842682       0.38487743       1.10580532
H        9.03661165      14.92538845      23.92952533       0.20505974      -0.06807642      -0.23347649
H        8.09406546      13.65546828      24.09614020      -0.05495060      -0.58534885       0.16984137
O       -8.08447960       7.01545578      11.41001199       1.04596409      -1.02004516       0.26026006
H       -7.31780272       6.57340279      10.97559397      -0.14689754       0.30161119      -0.14135252
H       -8.35108668       6.26823473      12.05036442      -0.10662036       0.39663784       0.20711844
192
Lattice="12.748225348592202 0.0 0.0 -5.29123743216058e-07 12.748225348592202 0.0 -5.29123743216058e-07 -5.29123743216058e-07 12.748225348592202" Properties=species:S:1:pos:R:3:momenta:R:3 step=60 time_fs=6.0 phase=equilibration pbc="T T T"
O       11.62072047       0.72539010     -16.49435280       1.22426150      -0.07778022       0.46941535
H       12.07455142       1.00775362     -15.66931612       0.51696744       0.41036816      -0.02621930
H       10.85086556       0.13517609     -16.50227099       0.07358408      -0.16899155      -0.09881950
O       26.37237506      24.79018491       4.89945425       0.08667396       0.66988915       1.66288321
H       26.72985528      23.95366405       4.59660113       0.31247588      -0.40605615      -0.27860819
H       25.54968828      25.03068429       4.46808682       0.12958670       0.09357856      -0.06609326
O        4.55340153      -0.30646966       6.62852357       0.10159356      -0.90055772      -1.08665674
H        4.99759720      -1.08096353       7.00019622       0.24975530       0.22120340      -0.43975112
H        4.18475125       0.16319521       7.42370109       0.17017467       0.14465638      -0.09997390
O       -2.86046720      -4.40172482       1.02833222      -0.36248368       1.09209441       0.94500164
H       -2.62655718      -3.75448923       0.40013676      -0.08212092      -0.24483920       0.10405173
H       -3.68433073      -4.18640795       1.39898252      -0.00505248       0.06549877      -0.33040290
O        4.27677492      15.86320129      10.72183303       0.63284137       0.86876397      -0.05960396
H        4.27342038      16.74324891      11.20710094      -0.10226010      -0.05278467      -0.18150426
H        5.11712842      15.79329366      10.21114038       0.16391691       0.05251102      -0.45506803
O       -1.38145933       6.62120009       5.14335002       0.51951531      -1.02761365      -0.44637616
H       -1.42683865       6.30693760       4.21241226      -0.57586401       0.17513692       0.48799944
H       -0.54726358       7.07732966       5.21433344      -0.23915644       0.12061460       0.03244851
O       22.81844571      12.31820175       5.77761305       0.43428118       0.13716957       0.40344510
H       23.20889285      13.18427670       6.06626006       0.20477166       0.25729272       0.38149645
H       22.37076376      12.28079667       4.96238921      -0.69749515      -0.40371991      -0.30689356
O       -1.04216704     -15.75587613       6.80533886      -0.79015432      -0.26414487      -0.49623580
H       -0.54590389     -16.08504485       6.03230200      -0.25885488      -0.01246298       0.15403391
H       -1.38886989     -14.94480140       6.55750744      -0.18930601       0.65688178      -0.02361256
O       15.47494993     -17.90423814       9.67756736      -0.14264395      -0.43815703       0.04948199
H       16.14777771     -18.40379433      10.19742574       0.50016064      -0.49226495       0.24014859
H       15.64945213     -16.94979431       9.56636114      -0.02257403       0.11527666      -0.27442522
O        3.27202368     -14.65662398     -13.35168174       0.14359478       0.25099652      -0.47733052
H        4.14101634     -15.00534532     -13.18190558       0.55497335       0.22616398       0.15811261
H        2.67010179     -14.98659514     -12.70973199       0.19346433      -0.15870034      -0.03307499
O       -5.74970207       1.58758167       2.85168544      -0.42024580       0.67459978       0.12515912
H       -6.49584961       1.15838686       2.32614884      -0.11501595      -0.34954893       0.19896273
H       -5.42326922       2.40694417       2.49146406       0.17731340       0.47549384       0.14432410
O       -5.36352762      16.06560888      25.95702541       0.81720798       1.48967100      -0.95169021
H       -5.34382246      15.44932712      25.22091655      -0.03059485       0.36892686      -0.19907498
H       -4.47851166      16.30591636      26.01490072      -0.52848222      -0.63330917       0.07091545
O        7.46327990     -15.70489906      -8.50390967       0.45107984       0.49647481       2.03087373
H        7.89067341     -16.46585348      -8.21976475       0.42849593       0.05543091       0.00452808
H        6.62911587     -15.55007040      -7.98931684       0.42887684       0.22037031      -0.46668014
O       13.67181153       8.55131418      17.96471963      -0.64002177       0.30190203       0.95749231
H       14.09922512       8.66713961      17.06509155       0.20750322      -0.13155876      -0.30630863
H       14.27162474       7.96256589      18.41921758       0.25947678      -0.13002278       0.20886912
O       -0.15362115       1.20212353      -1.22049287      -0.14953285       0.90153493       0.74575036
H        0.81869057       1.39076400      -1.22676530       0.25628431       0.07276377      -0.16691130
H       -0.32793234       0.38961618      -0.76765069      -0.66386937      -0.36476819      -0.03766187
O      -14.17844818      12.66187788      15.78690397       1.16666300       0.04003077      -1.47210120
H      -13.96278530      12.35530866      14.89603117       0.24992253       0.15285855       0.41465615
H      -15.00936272      12.25758136      16.07335370      -0.43564619      -0.20357140       0.36287565
O      -16.43077693       5.91861281      12.33515755       1.55915929       0.02458177      -0.81149214
H      -16.98804676       5.99844171      11.54439269       0.37176307       0.05280518       0.19294342
H      -16.13535494       6.75337098      12.39621052      -0.21491981       0.72756877      -0.28472566
O       -9.95001200      32.92624255      -9.57787173      -0.27182429      -0.32165879      -0.08088669
H       -9.25030717      32.33510040      -9.31474199       0.52866131       0.08159761      -0.10158050
H      -10.61537591      32.35119485      -9.93553443      -0.63805351      -0.33614312      -0.11207619
O       34.75813887      11.50249094      21.39666082       0.94575057       0.00271532      -1.05119301
H       34.72360734      11.60642293      20.49985256      -0.27115859       0.37754300      -0.43865411
H       35.18280124      10.65114525      21.58174514       0.23788448      -0.47670703       0.51258991
O       30.39718733     -12.66847832       2.16576178       0.16575452       1.12309734      -0.59989743
H       29.67537656     -12.15097175       2.49026749      -0.20606577      -0.08783736      -0.31617664
H       30.22046520     -12.63343718       1.23545371      -0.11568470      -0.00926475       0.46518847
O       17.58569329       9.30990215      -7.43874355      -0.08770492      -0.11373742      -0.11662045
H       17.48704358       8.41375770      -7.63395619      -0.55227582      -0.65722944      -0.42453803
H       17.42649341       9.52365752      -6.50870294       0.00978800       0.00381648      -0.14041230
O       -5.17150115       2.59902060      32.18494590       0.51026953      -0.99233871       0.18649651
H       -5.79001179       2.08588294      31.71373692       0.24767797      -0.05889664       0.47212457
H       -4.40409975       2.07371517      32.43613017       0.15092203       0.36929165       0.32318934
O        3.77178549       0.85900079      -0.23476756       1.56489400       0.59380104      -0.45115171
H        3.49422269      -0.06128047      -0.30474057       0.02023890       0.09008694      -0.15033898
H        4.16346048       1.09884513      -1.08853001      -0.03895204      -0.45352726       0.43188333
O       23.23261508       3.22851316      11.66612805      -0.67665674      -0.03645252      -0.72979083
H       23.14074119       3.61976636      12.53499266       0.37971045       0.17691419       0.74178911
H       23.85237545       2.50714969      11.73575679      -0.16942830      -0.19544428       0.13497511
O       -1.43849753      31.82134711      15.01937557       0.70524085       0.53764050       0.76970389
H       -2.02318150      32.44232529      14.53236202      -0.42286293      -0.03147114       0.03287112
H       -0.59729717      31.87517817      14.50293788      -0.18536484      -0.38131328       0.27954785
O        4.82615286      19.39019366       5.21182524       0.37208059       0.23436452      -0.10942118
H        4.12766158      18.93179189       5.72884343      -0.59801403      -0.26285961       0.14425429
H        5.66547409      18.93927273       5.22793323      -0.25720490       0.10540300      -0.00350676
O      -10.15052914      10.49151198       9.47599111      -0.96598024       0.52620019       1.42766619
H      -10.69054090      10.87175895       8.82108600      -0.58230494       0.09299942      -0.21500641
H      -10.53830692      10.85502275      10.30947965       0.31449001      -0.25496333      -0.15094848
O       17.69784391      17.75582627      26.16893442      -0.58057393       0.02079430      -1.51250988
H       18.52642838      17.30129445      26.04103022       0.23996816      -0.21232945       0.18065938
H       16.87358222      17.29546324      26.10187363       0.06844580       0.08639262       0.16809193
O        6.93224468      18.70939316      10.13674041      -0.03388340       0.02237327       0.47625731
H        7.23042204      19.30923892       9.44902973       0.03307851      -0.30758305      -0.00455044
H        6.66986946      17.96105622       9.58574626      -0.25075320      -0.22854991      -0.15322811
O       -0.62956431     -13.80391355      13.26126807      -0.68769916       0.50870595      -0.15884460
H       -1.38485588     -14.06174504      12.75444571      -0.09387209      -0.36304101       0.24659256
H       -0.11931328     -14.53954954      13.62345954       0.22477933      -0.55209757      -0.11059383
O        1.14837841       6.13768790       1.10512265      -0.27642163      -1.93712254       0.43662491
H        1.54082814       5.36150785       1.11132707       0.22353229      -0.28418749       0.12835199
H        0.94390731       6.28878178       0.18246421       0.17916754       0.32940531       0.37207072
O        3.11596221       1.31741053       8.36497726       1.25264492      -0.44320462       0.27323664
H        2.31052785       1.01197026       8.23703641      -0.25304010       0.27683307      -0.06047311
H        3.30019629       1.53120881       9.29057906       0.28736769      -0.16858903       0.36782376
O      -18.83659185      28.81250909     -16.15886421      -0.00547485       1.06477575      -0.40178887
H      -18.73363279      28.92203624     -17.08398265      -0.16947314       0.50966741      -0.71673727
H      -18.15987795      28.30667370     -15.69450040       0.53055431      -0.24079378       0.82910086
O        2.89357832      26.87343782      -9.11462378       1.24757158      -0.26847121       1.26744746
H        3.64115318      27.00206323      -8.15735415      -0.65049064       0.09926976      -0.93396470
H        2.20688405      26.18930993      -8.87489717      -0.37848522       0.14239680      -0.00719904
O      -18.07814942      19.01853468       1.92138396      -1.08813077      -0.69351574       1.07321803
H      -17.44590812      18.86508873       1.22008651       0.54140934      -0.05298785      -0.54131629
H      -18.86164345      18.50899112       1.74486144      -0.74727723      -0.15739389       0.17293304
O       11.70257251      17.57439069       7.06513506       0.19186183      -0.07110023      -0.46069657
H       12.55301242      17.31707840       6.68964773       0.19633822      -0.25649910       0.08525756
H       11.28245466      18.27857440       6.57141805      -0.46453420       0.02579067       0.03964955
O       -7.22907435     -11.20726530       5.18520166      -0.15055826      -0.72351872      -0.61219710
H       -6.51373807     -11.28786261       4.57756291      -0.12572522       0.18213808      -0.06146932
H       -7.35698491     -12.04704144       5.58365225      -0.21139539       0.01389882       0.43695659
O      -24.13186548       3.41416151      10.70010176      -1.00655657      -1.32997930       0.26777960
H      -24.79825338       4.04591779      10.46487344      -0.30564808      -0.11924263      -0.17627635
H      -23.37378328       3.70724698      10.33523207       0.34748392       0.12554930      -0.23331358
O      -11.42995189      -8.21111403      18.46177841       0.18679354      -1.05977522      -0.27268644
H      -10.65794611      -8.51311443      18.90667537      -0.25185200       0.05998985       0.12326753
H      -11.37992098      -8.38618050      17.56148477      -0.17732084       0.33023646       0.29628783
O        8.60391215       7.34023146      16.92075068      -1.65786186       0.57879360      -0.57863197
H        9.56896081       7.32746792      16.77330913       0.36376237      -0.02420300       0.06576930
H        8.23541810       6.74336130      16.23418470      -0.19856859       0.06863863       0.18441011
O      -11.64452903      -0.47759177      20.42235544       0.47851183       0.09613879       1.03518862
H      -12.52941946      -0.27199401      20.76970135       0.15704489       0.09547069      -0.22660325
H      -11.69209293      -0.55802532      19.49045448      -0.37280337      -0.12677248      -0.34341280
O       24.17533409       2.47337818      16.22540894      -0.65728049       0.88921425       0.01239735
H       23.90116124       2.52633561      17.15172898       0.20431930       0.07527550      -0.11489320
H       24.00344059       1.71834751      15.72328462       0.06490655      -0.34462550      -0.69066402
O       -5.67558934     -17.95432252      -5.02066477       0.06679330       0.14698610      -1.26386513
H       -4.72689328     -17.78276306      -4.79187429      -0.30650495      -0.39014239      -0.66382198
H       -5.73298543     -18.69793620      -5.65799238       0.33941702       0.31272373       0.28089728
O       29.47641794      -8.98552537      -6.14612231      -1.62118231       0.40029555       0.14968375
H       30.19144462      -9.03071487      -6.77541401       0.53631312       0.10271806      -0.13772016
H       29.16339505      -9.85929668      -5.97583975      -0.27596849       0.54751869       0.08381736
O        8.81860721      -0.67396334       3.41207211       0.27944350       0.63551400       0.65023931
H        8.24609532      -0.06292921       2.87723657       0.17118433       0.12020774      -0.08097930
H        8.27551305      -1.49083713       3.65534178       0.02711445      -0.35903615      -0.02054205
O      -19.77358405      -3.16008544      24.77570866      -0.16820840       1.45164834      -0.04226909
H      -20.09264922      -3.89545625      24.28184288       0.02123288      -0.66348291      -0.29171880
H      -19.22419692      -3.39894523      25.52207562       0.41255654      -0.29304814       0.41217979
O        2.38985798      -5.80360735      -6.03296248       1.42253450       0.41494727       0.75228765
H        2.51965030      -5.54755142      -5.10846149      -0.41171237      -0.25431127      -0.45399487
H        1.89434735      -6.61401245      -6.25543935       0.37638131       0.42668385       0.07329481
O        9.84096671       8.28401887       7.94760767       0.51509774      -0.40926915       0.19637061
H       10.54989976       8.50019913       7.30180735      -0.05568300      -0.05717503      -0.25168788
H       10.20145088       7.50664291       8.41742780      -0.32859296      -0.17865687      -0.03863779
O        5.35726827       9.74705593      -4.82410844       0.24455819       0.11164569      -0.75806572
H        6.13450937       9.16158506      -4.77788594       0.54426606      -0.20643029      -0.05126651
H        4.82171462       9.67942979      -3.99373100      -0.02366458       0.05804612       0.01138519
O       13.76187847      29.46433264      15.87593545      -0.87168066      -0.41927669       0.26520025
H       12.94333376      28.96003002      16.06807567       0.20078028       0.02345035      -0.19063265
H       14.41105247      28.75221869      15.86733272      -0.16498311      -0.12979666      -0.24953819
O       -2.80897126       3.97371399       1.69630506      -0.35432355       0.42244993       0.69828891
H       -2.31238437       3.58455348       2.30051028      -0.35314759      -0.25192683      -0.12211199
H       -2.66749089       4.94659212       1.87588096      -0.05919152      -0.14042858      -0.00101094
O        7.80661534     -14.02383109      10.95756833       0.90098678       0.24260490      -0.24185623
H        6.97899900     -14.42195094      11.12001565      -0.85581243      -0.39587913      -0.07874065
H        8.15745677     -14.07578847      10.08523410       0.22074698      -0.33288696      -0.47113897
O       -2.45339287      10.55441813      24.35373173      -0.73429192      -0.25957425      -1.86310252
H       -2.04448512      10.06957684      23.59058893      -0.09403440       0.09224831       0.55413802
H       -3.26471048      11.14644992      24.26600998      -0.37933376       0.40605973       0.42628081
O       20.06204973      21.74572677       1.55030535      -0.41332806       0.62792629      -0.43563797
H       19.98217661      22.20837489       2.40707908      -0.04507456       0.55190280       0.57038701
H       19.78638275      20.81293748       1.41226101      -0.29037989      -0.33110525      -0.36659036
O       12.16208410      10.00422749     -15.91993078       0.50106308       0.47238494       0.96939759
H       12.66997036       9.32790740     -15.43393463       0.18036451      -0.33065874      -0.10083277
H       12.49767948      10.06200688     -16.87473187       0.43143424       0.18706673      -0.48944180
O      -11.40024687      22.28307151       1.05610356       0.52179152       0.34309367      -0.22718927
H      -11.68799593      21.40736474       1.08775707      -0.62477357      -0.66934380      -0.20383811
H      -10.84780110      22.59482495       1.79816326      -0.04747164       0.37394427      -0.03986488
O        2.95240703     -15.03206270      16.12852026      -0.12569349      -0.12724411      -1.10321871
H        3.32417242     -15.72986145      16.65634803      -0.05458629      -0.11329822       0.36271447
H        3.57218178     -14.36166078      15.96133818       0.03367537      -0.20578086      -0.14101396
O        2.42709017      16.33935159       0.37007284      -1.12122386      -0.92441573      -0.09574252
H        1.96863116      16.16121174      -0.54988541      -0.01068024       0.49201149       0.45145703
H        2.89179176      15.56532346       0.68087343       0.23226487       0.22544366       0.29626486
O       -5.68812506      -7.29506867       5.59883890      -1.57740246      -1.06904181       0.62601905
H       -5.37148503      -7.97721575       6.20069192       0.12002099       0.55211301      -0.04076178
H       -5.06345944      -6.73780721       5.09355883       0.09532551       0.22018682      -0.38045468
O       -2.16028650       2.39433950       6.65198077       0.39618238       0.00587323       0.69303290
H       -2.06704907       3.35439183       6.86152174      -0.10245762       0.64255736      -0.20868456
H       -1.82379186       1.75665647       7.46231958      -0.08301554      -0.11198856      -0.38065114
O       13.17292669      -5.47633109      -1.45717516       1.03636732      -0.51136396      -0.44845442
H       13.95756395      -5.23908516      -1.95083660      -0.21538675      -0.19887168       0.27262796
H       12.93040145      -6.34766397      -1.71298631      -0.13949922      -0.78106653       0.19458661
O       11.82597049       4.89082943      22.73443171       0.16619476       0.18637266      -0.09062992
H       11.22959643       4.15475195      23.01554159      -0.15869267      -0.19882980       0.04823712
H       11.90680170       4.79565536      21.76412464       0.06873259      -0.35872477       0.08514195
O        8.17526136      14.49655511      23.80642658      -1.22113002       0.69346567       1.02442308
H        9.05564491      14.91632347      23.90698234       0.17233956      -0.12077902      -0.22342981
H        8.08906296      13.58393937      24.11652254      -0.03514563      -0.78379682       0.22234666
O       -8.07793107       7.00814995      11.41181604       1.03190863      -1.29564637       0.38786681
H       -7.33345975       6.60581689      10.96083197      -0.15722271       0.35084974      -0.16854207
H       -8.35815473       6.31739128      12.06438806      -0.04332484       0.59828729       0.09313932
192
Lattice="12.748015609689421 0.0 0.0 -5.291150378605828e-07 12.748015609689421 0.0 -5.291150378605828e-07 -5.291150378605828e-07 12.748015609689421" Properties=species:S:1:pos:R:3:momenta:R:3 step=70 time_fs=7.0 phase=equilibration pbc="T T T"
O       11.62820503       0.72484082     -16.49104266       1.27966049      -0.09613901       0.52965566
H       12.11994940       1.04410522     -15.67701691       0.41167313       0.33055186      -0.14614732
H       10.86075599       0.12041934     -16.51065931       0.13615703      -0.13116527      -0.07801317
O       26.37260225      24.79365975       4.90973824       0.14491300       0.55440882       1.69604328
H       26.75708090      23.91960608       4.56974881       0.23840763      -0.24670354      -0.25472525
H       25.56278814      25.03774790       4.46103737       0.14681644       0.05943298      -0.07695144
O        4.55368111      -0.31188845       6.62232992       0.00051792      -0.84449913      -0.91080931
H        5.02230303      -1.05839778       6.95572472       0.27234693       0.21837107      -0.45802887
H        4.20287097       0.17516991       7.40738779       0.20127271       0.10229953      -0.22734807
O       -2.86192228      -4.39575497       1.03422602      -0.13531038       0.82180060       0.99425615
H       -2.63024462      -3.76973843       0.40120200       0.01079103      -0.05983336      -0.09291173
H       -3.70114331      -4.17474709       1.37346173      -0.33814549       0.17053906      -0.19464700
O        4.28121964      15.86890892      10.72126424       0.84577558       1.05279016      -0.08792708
H        4.26447304      16.72744010      11.18282465      -0.07932812      -0.24412571      -0.30096818
H        5.12364146      15.79865639      10.17276975      -0.03824655       0.06419387      -0.32068637
O       -1.37836554       6.61457365       5.14039649       0.47251451      -1.08163920      -0.42798065
H       -1.48310163       6.32526340       4.26110565      -0.58406737       0.18299479       0.45133749
H       -0.56638017       7.09298121       5.21770818      -0.14136754       0.20897778       0.03920674
O       22.82117632      12.31932575       5.78035511       0.55237237       0.30713605       0.47196111
H       23.22315920      13.20160993       6.10025522       0.08908461       0.08903682       0.31371055
H       22.30065336      12.24189107       4.93342431      -0.70196309      -0.38834250      -0.22556339
O       -1.04669313     -15.75774937       6.80221590      -0.73487228      -0.34149516      -0.49010961
H       -0.57067742     -16.08733803       6.04900280      -0.24246187      -0.04169297       0.17585754
H       -1.41150277     -14.87059729       6.55322974      -0.23814060       0.77583572      -0.04054340
O       15.47411655     -17.90667223       9.67808127      -0.02443782      -0.45466615       0.18226039
H       16.18947307     -18.44331409      10.21398362       0.34013717      -0.31245159       0.08920447
H       15.64710878     -16.94399259       9.54086566      -0.02429015      -0.00850671      -0.24405804
O        3.27305179     -14.65474041     -13.35436777       0.24504457       0.27258671      -0.46190327
H        4.19439173     -14.98307502     -13.16747459       0.50063180       0.23764784       0.12760176
H        2.68579935     -15.00348533     -12.71006005       0.13289446      -0.19491532       0.02108957
O       -5.75259564       1.59141476       2.85227190      -0.53876407       0.61876802       0.06821100
H       -6.49825666       1.13054453       2.34981331       0.06497119      -0.21952506       0.28648967
H       -5.40853758       2.45063466       2.50480286       0.10944209       0.38568853       0.14549058
O       -5.35970720      16.07435630      25.95068966       0.35952440       1.44070366      -0.97782151
H       -5.34807341      15.48235648      25.19729773      -0.06214133       0.31173461      -0.27918612
H       -4.50923207      16.24938531      26.02563338      -0.06143644      -0.51390845       0.16606876
O        7.46537954     -15.70070317      -8.49162189       0.35428213       0.74825537       1.89567389
H        7.93917581     -16.47467506      -8.21404820       0.54851889      -0.21321344       0.09973260
H        6.67182107     -15.53030901      -8.03588779       0.38932786       0.18903461      -0.45153845
O       13.66815471       8.55295779      17.96933063      -0.45163614       0.26139503       0.64331161
H       14.11068291       8.65224573      17.05094289       0.02759693      -0.17273073       0.03626288
H       14.29427395       7.95148367      18.44031479       0.18949219      -0.07378617       0.21144179
O       -0.15399095       1.20771462      -1.21590542       0.02763575       0.88710593       0.76276416
H        0.83253312       1.39404712      -1.24273254       0.01328173      -0.01059796      -0.15829226
H       -0.39095903       0.35363580      -0.77093111      -0.61374838      -0.33066526      -0.05162866
O      -14.17144956      12.66174868      15.77780222       0.99507799      -0.01181618      -1.34573332
H      -13.93741908      12.36898115      14.93356111       0.27636013       0.11436921       0.31296579
H      -15.04299427      12.24143355      16.10448487      -0.22274405      -0.10911097       0.26384944
O      -16.42124200       5.91770332      12.32988434       1.50518538      -0.20045154      -0.80908432
H      -16.95387647       6.00167944      11.56085855       0.30548790       0.01331572       0.12091877
H      -16.14869042       6.84125253      12.37090800      -0.09087778       0.99138003      -0.23451760
O       -9.95159495      32.92338848      -9.57821721      -0.31391420      -0.48490172      -0.09562854
H       -9.19907685      32.34471853      -9.32499564       0.48378517       0.14614421      -0.12417350
H      -10.67538676      32.31981533      -9.94621624      -0.54528120      -0.26277905      -0.08579860
O       34.76374534      11.50180832      21.39086498       1.07954921      -0.19073379      -0.78242846
H       34.69503632      11.64459865      20.44445538      -0.29399355       0.39276457      -0.61206199
H       35.20116660      10.61094403      21.62707140       0.13085498      -0.29980423       0.40402844
O       30.39780845     -12.66139743       2.16246696       0.19819188       1.11739026      -0.41493211
H       29.64968001     -12.15558974       2.46580064      -0.30543209      -0.01443170      -0.18328184
H       30.20952403     -12.63497041       1.26817437      -0.10478409      -0.02711607       0.15807607
O       17.58486648       9.30938456      -7.43921499      -0.09971625      -0.08006682      -0.10490771
H       17.43263633       8.34605452      -7.67369244      -0.54722347      -0.65192112      -0.37564304
H       17.42925633       9.52179084      -6.52457090       0.05064523      -0.03665204      -0.17775022
O       -5.16768081       2.59338765      32.18612533       0.71997590      -0.80246212       0.38251754
H       -5.77497363       2.07130804      31.75273460       0.02995219      -0.25961588       0.31820042
H       -4.39092653       2.11181339      32.46651253       0.12754992       0.40483357       0.31432805
O        3.78130189       0.86238814      -0.23744853       1.52623002       0.50033906      -0.36182007
H        3.49568763      -0.05439346      -0.31945497       0.00612388       0.04458620      -0.14727671
H        4.16175983       1.05609690      -1.04785817       0.03848641      -0.40204819       0.33622939
O       23.22803643       3.22838921      11.66176726      -0.68379310       0.02451485      -0.57397675
H       23.17766110       3.63477044      12.60224540       0.38838548       0.10862748       0.59141941
H       23.83471265       2.48783271      11.74926049      -0.19470631      -0.18778896       0.14585663
O       -1.43415338      31.82440859      15.02341330       0.66402501       0.63334192       0.64020810
H       -2.06012334      32.43582648      14.53834197      -0.32428846      -0.09813658       0.09968766
H       -0.61686652      31.83634137      14.53250882      -0.19010027      -0.40077002       0.31329090
O        4.82756212      19.39113896       5.21139111       0.06340306       0.17308875       0.00977158
H        4.07820640      18.91157032       5.73743703      -0.39201000      -0.13162100       0.01848948
H        5.64162792      18.94868242       5.22734536      -0.20387871       0.07869402      -0.00617399
O      -10.15632754      10.49448234       9.48504628      -0.99914798       0.50648614       1.48126372
H      -10.75019471      10.88298061       8.79390000      -0.60469929       0.11484950      -0.28917252
H      -10.50344683      10.82843649      10.29308409       0.37843345      -0.26874605      -0.14217874
O       17.69441220      17.75612591      26.15902076      -0.40962248       0.16048362      -1.57788032
H       18.54809432      17.27769053      26.06058659       0.18692038      -0.25137732       0.23183930
H       16.87516744      17.29866760      26.11886578      -0.03626490      -0.01852762       0.18975372
O        6.93166928      18.70896415      10.13935467      -0.12955035      -0.09406890       0.42212541
H        7.23487526      19.28286656       9.44839287       0.06535375      -0.21944640      -0.01465168
H        6.64627169      17.93726802       9.57515770      -0.22136032      -0.23164592      -0.04366021
O       -0.63334193     -13.80069196      13.26044803      -0.53417052       0.42944861      -0.03220741
H       -1.39694403     -14.10078675      12.77549513      -0.14503206      -0.43677033       0.19635434
H       -0.10170054     -14.58714257      13.60760046       0.11674552      -0.39568958      -0.22301321
O        1.14592949       6.12699521       1.10807630      -0.48610660      -1.56333545       0.55816905
H        1.57496300       5.30956070       1.12676303       0.45072757      -0.72890978       0.18283249
H        0.95810463       6.32501806       0.21160901       0.11046245       0.41565471       0.20697520
O        3.12511972       1.31525656       8.36698958       1.70570027      -0.26705378       0.44515916
H        2.26166462       1.02890003       8.22608120      -0.69401560       0.09444852      -0.14764402
H        3.32832638       1.51330792       9.32076971       0.27900795      -0.20629331       0.22213542
O      -18.83626023      28.81849322     -16.16071983       0.06147688       1.01785409      -0.33424300
H      -18.74646952      28.96883250     -17.15318547      -0.10910383       0.45280316      -0.64012654
H      -18.11113296      28.28587879     -15.61807982       0.42384734      -0.14612768       0.70799930
O        2.90146182      26.87072090      -9.10540988       1.31311781      -0.46658378       1.64067936
H        3.56494378      27.00831322      -8.26551487      -0.88591150       0.04288146      -1.24925861
H        2.18117961      26.21502611      -8.87830205      -0.15547021       0.38319371      -0.06361402
O      -18.08437575      19.01394545       1.92770605      -1.04825634      -0.73554380       0.94663919
H      -17.39852104      18.85932448       1.17027515       0.38494764      -0.05199869      -0.43754869
H      -18.93208740      18.49463111       1.76223934      -0.65438184      -0.10072959       0.19141237
O       11.70359308      17.57356145       7.06208969       0.20478445      -0.09634652      -0.50411082
H       12.56818910      17.29466872       6.69873807       0.10709547      -0.19144637       0.10729824
H       11.24008921      18.27852043       6.57591595      -0.38929514      -0.03296900       0.06314624
O       -7.23008443     -11.21108318       5.18146017      -0.21268773      -0.60039367      -0.56364655
H       -6.52133497     -11.27135888       4.56387202      -0.03497368       0.14964765      -0.21169924
H       -7.37814989     -12.04998319       5.62851466      -0.21486473      -0.05106019       0.46884357
O      -24.13838406       3.40562269      10.70185615      -1.19156672      -1.38507409       0.32282224
H      -24.83276279       4.03706198      10.44657826      -0.38196612      -0.08259128      -0.18850712
H      -23.32434444       3.72335174      10.30419204       0.57792376       0.17912422      -0.36137083
O      -11.42912876      -8.21698816      18.46075209       0.00755209      -0.89074450       0.04696519
H      -10.67223555      -8.51074003      18.92348020      -0.03348261      -0.01799205       0.23178175
H      -11.39660704      -8.35686311      17.57051779      -0.16558142       0.26745785      -0.12017368
O        8.59389596       7.34350421      16.91667868      -1.53261827       0.53560648      -0.64791426
H        9.59496976       7.32470066      16.78299183       0.15033705      -0.03155367       0.13772847
H        8.21772084       6.75349563      16.25244554      -0.16378511       0.13493222       0.18156435
O      -11.64143726      -0.47696930      20.42857114       0.47536700       0.09341201       1.04104330
H      -12.51463109      -0.26126413      20.74788321       0.12714581       0.12911771      -0.20531377
H      -11.72835722      -0.57096304      19.45157334      -0.36947322      -0.13532296      -0.39627749
O       24.17108872       2.47942468      16.22519902      -0.60526552       1.03767383      -0.04669564
H       23.91965035       2.53106888      17.14063141       0.17800920       0.02335620      -0.09240479
H       24.00806508       1.67811488      15.65627576       0.05080839      -0.42247497      -0.64165366
O       -5.67463390     -17.95305608      -5.02827271       0.15673994       0.20445324      -1.21715883
H       -4.76313021     -17.81998724      -4.85973692      -0.36651616      -0.35682902      -0.70406264
H       -5.69983709     -18.66578171      -5.63013374       0.32306045       0.28444834       0.24081681
O       29.46619772      -8.98237309      -6.14549135      -1.49987947       0.61356098      -0.01500623
H       30.23986584      -9.02093381      -6.78449053       0.42785855       0.09391936      -0.01861871
H       29.13369966      -9.81296525      -5.96552314      -0.33331737       0.36627723       0.13172327
O        8.81938453      -0.67037111       3.41563465       0.02065073       0.51943942       0.52990918
H        8.26692279      -0.05805351       2.87746167       0.25207134      -0.01560013       0.08242760
H        8.28406677      -1.51420531       3.65085523       0.15387675      -0.11382332      -0.07187931
O      -19.77424030      -3.15120071      24.77523103      -0.14320425       1.34914679       0.02136356
H      -20.08763668      -3.95848277      24.25605792       0.09671094      -0.57188800      -0.19174619
H      -19.18731828      -3.42636678      25.55793946       0.30755501      -0.25348089       0.29362730
O        2.39877231      -5.80083479      -6.02859222       1.52045745       0.48802738       0.58803964
H        2.47757733      -5.57368508      -5.14889996      -0.44417098      -0.26537263      -0.31104476
H        1.92981495      -6.57505001      -6.24624766       0.32035082       0.31734054       0.09710334
O        9.84453134       8.28102155       7.94860235       0.69408009      -0.51336395       0.16336956
H       10.53857216       8.49506086       7.28202010      -0.17405174      -0.04849953      -0.14738201
H       10.16604344       7.49477628       8.41109191      -0.38771284      -0.06731728      -0.08580332
O        5.35875745       9.74713413      -4.82822659       0.29499212      -0.05054248      -0.61016367
H        6.18039300       9.14517855      -4.78311277       0.37425084      -0.11014425      -0.05945892
H        4.82518136       9.68540896      -4.00160117       0.09601697       0.06826764      -0.17236922
O       13.75623715      29.46091890      15.87744880      -0.86601791      -0.51613335       0.30658481
H       12.96304736      28.96420730      16.04760284       0.17569342       0.05637947      -0.21714316
H       14.39561050      28.74148341      15.84162276      -0.14229069      -0.08176214      -0.27309162
O       -2.81194136       3.97772011       1.69950257      -0.61788163       0.87634528       0.35989769
H       -2.33131783       3.54192763       2.30705841      -0.04820842      -0.61398171       0.24473258
H       -2.67496710       4.92619173       1.87325478      -0.09025504      -0.25869749      -0.04785890
O        7.81207089     -14.02202808      10.95601022       0.84379228       0.21954651      -0.24113021
H        6.89753488     -14.45967391      11.11042307      -0.72058934      -0.33818838      -0.12777569
H        8.17612231     -14.10846294      10.03835919       0.14626403      -0.33637926      -0.43857876
O       -2.45810385      10.55309559      24.34193605      -0.84550079      -0.07921176      -1.79178917
H       -2.05488619      10.08004625      23.64536175      -0.09611678       0.09581122       0.52576844
H       -3.29384353      11.17786137      24.30689774      -0.21325366       0.23638737       0.41497185
O       20.05904192      21.74900976       1.54787082      -0.46879747       0.55987979      -0.31482154
H       19.97708656      22.25597583       2.45479309      -0.04767867       0.41263655       0.37388084
H       19.75925918      20.78746761       1.38063958      -0.25414809      -0.16942104      -0.27905187
O       12.16546824      10.00664939     -15.91423788       0.68061912       0.35791927       0.79784847
H       12.68308448       9.30098027     -15.44760875       0.08296640      -0.20641825      -0.19178959
H       12.53364164      10.07903367     -16.90999406       0.30467294       0.16497376      -0.23319036
O      -11.39661622      22.28525044       1.05472466       0.56675513       0.39569743      -0.21385006
H      -11.74856347      21.34041837       1.06828399      -0.58840734      -0.60445264      -0.19714662
H      -10.85500174      22.62733737       1.79180822      -0.10301014       0.29922477      -0.09019074
O        2.95097903     -15.03304987      16.12154026      -0.30531772      -0.29716031      -1.06372022
H        3.32142809     -15.74102010      16.69276861      -0.01387927      -0.09379860       0.36882780
H        3.58437142     -14.37408862      15.94512146       0.21207137      -0.06155330      -0.18482475
O        2.41993571      16.33338251       0.36883239      -1.18336354      -0.91996487      -0.27153079
H        1.97454913      16.20996082      -0.49009948       0.11785592       0.50271808       0.73652294
H        2.91164925      15.58690461       0.70944132       0.17511717       0.22134622       0.28627468
O       -5.69760853      -7.30110604       5.60229457      -1.53474970      -0.88587679       0.48144380
H       -5.35670291      -7.92423628       6.19695078       0.19496271       0.50130413      -0.00548317
H       -5.05739678      -6.72231176       5.06263348       0.00256204       0.07367548      -0.23121605
O       -2.15747644       2.39449727       6.65704254       0.51046885       0.07282716       0.99695662
H       -2.07648247       3.40456639       6.83807156      -0.09312811       0.36563234      -0.27163843
H       -1.83604819       1.75404440       7.41436424      -0.17165265       0.06534853      -0.60443210
O       13.17885054      -5.47957865      -1.45952588       0.91276407      -0.64877706      -0.32090197
H       13.94257659      -5.25748697      -1.92935863      -0.05658872      -0.17346951       0.14660581
H       12.91547890      -6.42214817      -1.69572795      -0.14265855      -0.68409615       0.17368326
O       11.82660832       4.89126961      22.73325458       0.09689908      -0.02456129      -0.15909267
H       11.21848315       4.14322014      23.01886197      -0.05966083      -0.02850567       0.02631188
H       11.91204617       4.76263936      21.77712266       0.04461899      -0.31620457       0.17958994
O        8.16772090      14.50031712      23.81254915      -1.18452357       0.56326301       1.11466158
H        9.06771009      14.90080404      23.88487636       0.07185921      -0.19222556      -0.22366154
H        8.08794518      13.51785767      24.13322892       0.01515957      -0.52280221       0.11271739
O       -8.07168298       6.99981559      11.41432488       0.95696474      -1.33210307       0.46942343
H       -7.34433560       6.63872044      10.94028077      -0.05138019       0.31340067      -0.25828191
H       -8.36060714       6.37957083      12.07196460      -0.02119118       0.64394566       0.09774633
192
Lattice="12.747720241243202 0.0 0.0 -5.291027783928046e-07 12.747720241243202 0.0 -5.291027783928046e-07 -5.291027783928046e-07 12.747720241243202" Properties=species:S:1:pos:R:3:momenta:R:3 step=80 time_fs=8.0 phase=equilibration pbc="T T T"
O       11.63601621       0.72419328     -16.48715858       1.35664398      -0.10812799       0.60883705
H       12.15338575       1.07136201     -15.69777262       0.27794157       0.22694672      -0.28535493
H       10.87717275       0.10985873     -16.51658597       0.20460913      -0.08584045      -0.05040993
O       26.37322984      24.79572158       4.91994101       0.26362811       0.29271171       1.65720244
H       26.77357816      23.90854191       4.54876191       0.10955684       0.03901228      -0.16799118
H       25.57688543      25.04144069       4.45291552       0.15225248       0.02988131      -0.08780135
O        4.55309793      -0.31664430       6.61685796      -0.16159039      -0.70225905      -0.84120353
H        5.05282331      -1.04218710       6.91269760       0.36481768       0.10127045      -0.41452919
H        4.22308103       0.18387792       7.38096964       0.21017867       0.08288324      -0.29734520
O       -2.86236910      -4.39132417       1.04062190      -0.07409507       0.61652228       1.09843895
H       -2.62447082      -3.76675972       0.38266448       0.09901278       0.10108266      -0.26874902
H       -3.74398693      -4.15452099       1.35849468      -0.49021354       0.23016183      -0.13203005
O        4.28700735      15.87508267      10.72006572       1.06841544       1.03501930      -0.24408659
H        4.25767751      16.70163875      11.15149356      -0.06024190      -0.23317267      -0.31391031
H        5.10843695      15.80521561      10.14927692      -0.27194904       0.07733236      -0.15476109
O       -1.37556686       6.60783349       5.13851496       0.44167516      -1.05182658      -0.11487008
H       -1.54179492       6.33924606       4.29037788      -0.62622979       0.09933041       0.12290114
H       -0.57446060       7.11779478       5.22158411      -0.03376310       0.29728033       0.03982531
O       22.82411350      12.32153305       5.78283724       0.56660209       0.50351982       0.36856159
H       23.22440215      13.19956241       6.12611249      -0.05666514      -0.12835868       0.21273824
H       22.23764529      12.20545525       4.92573331      -0.56312465      -0.34729509       0.09151036
O       -1.05155741     -15.75866026       6.79909762      -0.87650551      -0.04211316      -0.46152164
H       -0.59129973     -16.09307497       6.06302615      -0.17109061      -0.08752919       0.09756877
H       -1.43044095     -14.80451114       6.55170798      -0.14152063       0.54706121       0.01474087
O       15.47414674     -17.90912598       9.67946826       0.15306190      -0.48182297       0.34232618
H       16.21171650     -18.46298408      10.21349983       0.12194330      -0.09864233      -0.09392397
H       15.64369191     -16.95129366       9.51867189      -0.03861285      -0.14813841      -0.20585882
O        3.27519000     -14.65281714     -13.35671662       0.48467521       0.23537438      -0.39372961
H        4.23262804     -14.95707684     -13.15743495       0.26854560       0.29110112       0.06954137
H        2.69656608     -15.02407714     -12.70567414       0.09136786      -0.23530400       0.06005781
O       -5.75592465       1.59543600       2.85235837      -0.57510112       0.72029371      -0.01418262
H       -6.48363176       1.11535440       2.38111747       0.22301121      -0.09569631       0.34962907
H       -5.40351198       2.47738259       2.52147297      -0.01422504       0.15197902       0.20107665
O       -5.35908303      16.08264450      25.94390000      -0.18343142       1.38252279      -1.04629795
H       -5.35609746      15.50994123      25.16611220      -0.10569105       0.26779042      -0.34159671
H       -4.48704818      16.20511858      26.04721125       0.50208265      -0.39374369       0.29037929
O        7.46830070     -15.69574951      -8.48048189       0.71987930       0.69259296       1.66581574
H        7.99120996     -16.49775597      -8.20309290       0.48975538      -0.21968998       0.10494810
H        6.69554428     -15.51071940      -8.07109614       0.06822039       0.21360864      -0.25570707
O       13.66588868       8.55405071      17.97203274      -0.18041600       0.15263072       0.38980214
H       14.10408993       8.63347010      17.07156237      -0.15170185      -0.20451344       0.38324563
H       14.30534677       7.95052335      18.45744646       0.03650128       0.06554145       0.14338524
O       -0.15339124       1.21264895      -1.21093276       0.14897225       0.71470865       0.85262511
H        0.82115383       1.38837733      -1.25731647      -0.23528396      -0.10423130      -0.14103394
H       -0.44537712       0.33010628      -0.77999852      -0.49515217      -0.13982471      -0.13958144
O      -14.16595390      12.66132310      15.77030938       0.67772651      -0.02545699      -0.95245939
H      -13.90654106      12.37437422      14.94918909       0.35637392      -0.00564957      -0.00415054
H      -15.04873977      12.23701873      16.12225366       0.10380367       0.02609451       0.10453816
O      -16.41122044       5.91690939      12.32503332       1.65285183       0.03132937      -0.66350241
H      -16.93054724       6.00022116      11.56329873       0.15645083      -0.04329612      -0.07934842
H      -16.15652935       6.93076659      12.34972945      -0.08677496       0.80521111      -0.19265571
O       -9.95352248      32.91863782      -9.57872714      -0.38665324      -0.82357490      -0.14347180
H       -9.16032374      32.36457938      -9.33993680       0.29546248       0.28173122      -0.18924402
H      -10.71596945      32.30187989      -9.94976850      -0.28425753      -0.08565305       0.00934905
O       34.77004374      11.49960006      21.38547888       1.23094886      -0.43880234      -0.85539908
H       34.66630587      11.68053825      20.39245090      -0.27363199       0.34518531      -0.40223503
H       35.20561454      10.59574815      21.65811369      -0.02192980      -0.00509130       0.24306677
O       30.39827857     -12.65417324       2.16086888       0.16396890       1.15019549      -0.09128559
H       29.61722354     -12.15484622       2.45390548      -0.32906138       0.01425689      -0.06401009
H       30.19846209     -12.63827748       1.26229552      -0.10447790      -0.04708411      -0.27035377
O       17.58368115       9.30801847      -7.44006122      -0.15607845      -0.31231795      -0.25061990
H       17.38138844       8.29435897      -7.70513834      -0.49110869      -0.39211713      -0.27125115
H       17.43496942       9.51728032      -6.53974788       0.07089663      -0.04428721      -0.11568009
O       -5.16254598       2.58916984      32.18833204       0.88877734      -0.56174151       0.56409535
H       -5.78447445       2.03473981      31.77429143      -0.20682914      -0.47469931       0.15452410
H       -4.37784328       2.15127848      32.49647645       0.14053735       0.40155456       0.31623483
O        3.79007954       0.86495575      -0.23864061       1.34696751       0.33288286      -0.00676920
H        3.49477644      -0.05269610      -0.33271567      -0.02356040      -0.00516104      -0.12195922
H        4.17577275       1.02321908      -1.03259110       0.26495987      -0.26624555      -0.04759813
O       23.22338389       3.22867021      11.65887881      -0.65127041       0.08399911      -0.27780327
H       23.21507382       3.63933099      12.64635502       0.38584196      -0.01104908       0.32281580
H       23.81217539       2.47216716      11.76359338      -0.26009521      -0.12771093       0.15305835
O       -1.43072302      31.82786681      15.02685706       0.41407682       0.73193735       0.61215752
H       -2.08490856      32.42136881      14.55151165      -0.18199575      -0.18277239       0.17636823
H       -0.62889859      31.79620404      14.55973013      -0.03422727      -0.40798100       0.23674648
O        4.82638198      19.39157516       5.21179267      -0.42486664       0.11809696       0.16058940
H        4.05310060      18.90638597       5.73118512      -0.11754134       0.03504062      -0.14443807
H        5.62930952      18.95155687       5.22661930      -0.03591872      -0.01750306      -0.00588581
O      -10.16251624      10.49731337       9.49286751      -1.09326377       0.48795941       1.08552460
H      -10.80251358      10.89049750       8.77097822      -0.46065010       0.03829529      -0.15980606
H      -10.46768512      10.80574327      10.28951596       0.33637621      -0.17689241       0.10911776
O       17.69234098      17.75693005      26.14851896      -0.12734467       0.22053102      -1.64513530
H       18.55867576      17.25389368      26.08525053       0.02734201      -0.22032301       0.28550780
H       16.86617105      17.29139836      26.13795144      -0.13087815      -0.11628544       0.21493309
O        6.93027806      18.70724918      10.14145776      -0.27496075      -0.33262844       0.33465715
H        7.24339953      19.26642787       9.44473102       0.11326052      -0.10971746      -0.05684044
H        6.62793721      17.91777712       9.57883591      -0.14654880      -0.15374689       0.12804862
O       -0.63609955     -13.79839091      13.26030046      -0.37822312       0.20092556       0.07472261
H       -1.41072771     -14.14475160      12.79372765      -0.12573045      -0.46241913       0.19176385
H       -0.09849894     -14.61220697      13.57845928      -0.05427512      -0.11437473      -0.36848479
O        1.14282001       6.11739843       1.11203571      -0.48010465      -1.58807315       0.73336444
H        1.62081111       5.23377977       1.14531563       0.44673109      -0.74286204       0.18927182
H        0.96605277       6.36852083       0.22310006       0.06030800       0.47083533       0.04634037
O        3.13593128       1.31377838       8.37014886       1.76296875      -0.22974928       0.64032567
H        2.19049416       1.03577029       8.21116669      -0.68545650       0.07143112      -0.14045211
H        3.35276127       1.49008120       9.32955734       0.22060616      -0.27047491      -0.04503225
O      -18.83496267      28.82390101     -16.16284347       0.21539070       0.97193332      -0.51201858
H      -18.75417528      29.00755030     -17.19846339      -0.05231814       0.34663429      -0.25864549
H      -18.07818211      28.27889560     -15.55818361       0.24411143       0.02099313       0.50188567
O        2.90955442      26.86681798      -9.09450264       1.28515159      -0.59663366       1.72529784
H        3.46999598      27.00933313      -8.39636861      -0.98232204       0.00840598      -1.33354589
H        2.17485351      26.26022384      -8.88539437       0.00766815       0.53437123      -0.07626172
O      -18.09048881      19.00853576       1.93268483      -1.09132963      -0.88853239       0.68487512
H      -17.37210832      18.85471445       1.13744891       0.14976660      -0.03349834      -0.23414394
H      -18.98361563      18.49151379       1.78285030      -0.40098839       0.05100502       0.23325502
O       11.70460920      17.57256603       7.05861010       0.21128969      -0.09473944      -0.57489464
H       12.57254007      17.27967071       6.71041742      -0.00956422      -0.10705028       0.13309503
H       11.20754833      18.27028552       6.58426043      -0.26945170      -0.12769588       0.11139125
O       -7.23131341     -11.21443753       5.17816617      -0.23294380      -0.59410824      -0.47114117
H       -6.52209514     -11.25865247       4.53815888       0.00171538       0.10484929      -0.30001325
H       -7.39672102     -12.05178565       5.67161433      -0.16252701       0.02722469       0.40448559
O      -24.14493790       3.39756033      10.70321683      -1.09756820      -1.18598653       0.18011075
H      -24.86589873       4.02583891      10.42905780      -0.28563539      -0.16013209      -0.16040952
H      -23.27485995       3.73722031      10.27139518       0.37939305       0.09185013      -0.28317459
O      -11.42934221      -8.22176870      18.46163263      -0.14189111      -0.74112976       0.36864732
H      -10.66553719      -8.51585205      18.94922915       0.14114304      -0.08317575       0.28466669
H      -11.41109452      -8.33345418      17.53907281      -0.13449741       0.21278369      -0.48325231
O        8.58494088       7.34664315      16.91228721      -1.31136606       0.55328456      -0.63952391
H        9.59597672       7.32090226      16.79905334      -0.12654939      -0.04319684       0.19664510
H        8.20242673       6.76754775      16.26613722      -0.15145513       0.14531459       0.09347556
O      -11.63815563      -0.47653166      20.43380882       0.50840913       0.03980526       0.79513404
H      -12.50655617      -0.24597271      20.73025743       0.02462080       0.18828748      -0.14166227
H      -11.76246711      -0.58384015      19.41988480      -0.33096164      -0.12742179      -0.22212065
O       24.16689329       2.48557037      16.22372910      -0.57821252       0.96770899      -0.33106560
H       23.93390601       2.53106567      17.13601788       0.12087873      -0.02240618       0.01981180
H       24.01372337       1.64285702      15.60208308       0.07749382      -0.28772311      -0.45397007
O       -5.67415915     -17.95072460      -5.03513795      -0.09033749       0.43691153      -1.04410510
H       -4.78439065     -17.84781912      -4.92480134      -0.02218986      -0.21267369      -0.62345209
H       -5.67224395     -18.65130223      -5.61874162       0.23530524      -0.02299699      -0.03085743
O       29.45719822      -8.97740628      -6.14631901      -1.19859713       0.93686713      -0.30755505
H       30.26893181      -9.01232457      -6.77529454       0.17118761       0.07689848       0.21107411
H       29.09631683      -9.79080520      -5.94930179      -0.41874919       0.08526287       0.19824230
O        8.81862528      -0.66771505       3.41852423      -0.18197794       0.32757263       0.44947650
H        8.29246991      -0.06379696       2.89114301       0.25875401      -0.08475878       0.18317575
H        8.30483919      -1.51297262       3.64127414       0.27088842       0.13219138      -0.12124405
O      -19.77447886      -3.14389371      24.77498660      -0.07782947       0.98931703       0.08599525
H      -20.07165217      -4.00083314      24.24668564       0.22115255      -0.28650056       0.01572609
H      -19.16618807      -3.44587968      25.57503664       0.11126453      -0.14070040       0.06307740
O        2.40869797      -5.79708498      -6.02588495       1.74277841       0.70043391       0.23413075
H        2.43392916      -5.59590932      -5.15947074      -0.44884536      -0.18344391       0.11767066
H        1.95189010      -6.56008550      -6.23948676       0.12212124      -0.03368428       0.02808288
O        9.84894976       8.27756386       7.94923014       0.80036117      -0.53185450       0.09763946
H       10.51637442       8.49020721       7.27262301      -0.26691683      -0.04624158      -0.04858262
H       10.12717483       7.49090633       8.40166347      -0.39528475      -0.02672179      -0.09385045
O        5.36089546       9.74598182      -4.83154144       0.45818985      -0.25044227      -0.52712939
H        6.20505714       9.14108104      -4.78945136       0.13135924       0.03165458      -0.07290558
H        4.83889879       9.69224295      -4.02496019       0.17480715       0.07486025      -0.28806601
O       13.75100643      29.45704850      15.87898158      -0.71494098      -0.50820576       0.30482888
H       12.97151177      28.96706031      16.02636993      -0.01499547       0.00621037      -0.20613196
H       14.38353208      28.73486454      15.81346318      -0.09584877      -0.04207841      -0.29685029
O       -2.81615777       3.98364030       1.70097088      -0.74134496       1.00066446       0.17421683
H       -2.32727299       3.46993398       2.34155758       0.08655073      -0.81650900       0.41099430
H       -2.68353358       4.90136433       1.86771272      -0.07770662      -0.21215581      -0.05656427
O        7.81632042     -14.02085341      10.95387136       0.60257496       0.05307772      -0.39242173
H        6.84531774     -14.48391950      11.09451384      -0.34714637      -0.16637744      -0.18892179
H        8.18397332     -14.13967068      10.00463485       0.01381893      -0.30607177      -0.23212579
O       -2.46403508      10.55342375      24.33143109      -1.12743833       0.28962493      -1.40671307
H       -2.05833213      10.08203552      23.68251542       0.04312373      -0.07225550       0.21245161
H       -3.30551878      11.19151445      24.34464211      -0.02542620       0.04718530       0.36489082
O       20.05540999      21.75171353       1.54653774      -0.56916758       0.48119831      -0.10614487
H       19.97245301      22.28565914       2.47653226      -0.03801438       0.20136872       0.06779831
H       19.73691641      20.78152345       1.35883961      -0.19118104       0.06648593      -0.16181616
O       12.17001692      10.00815383     -15.90946246       0.89120977       0.20875153       0.63879897
H       12.68468246       9.28848285     -15.47112539      -0.04377906      -0.04609302      -0.29632714
H       12.55625790      10.09369991     -16.91985796       0.16576259       0.14041475       0.01971108
O      -11.39311294      22.28641588       1.05338257       0.47479442       0.12506037      -0.22696917
H      -11.79792740      21.29879194       1.04928986      -0.41252537      -0.21089589      -0.18974046
H      -10.86659858      22.65249574       1.78127605      -0.13412071       0.22887406      -0.11921875
O        2.94883444     -15.03518971      16.11499803      -0.34316133      -0.50480168      -0.93825862
H        3.31931785     -15.74337820      16.72402729      -0.03476240       0.05207681       0.26675074
H        3.61039488     -14.37625524      15.92549638       0.30069447      -0.01281556      -0.20471293
O        2.41280963      16.32760077       0.36751070      -1.08180686      -0.82592739      -0.07536547
H        1.98545024      16.25588918      -0.41961693       0.06502035       0.43553535       0.62418411
H        2.92574197      15.60739936       0.73599707       0.11657851       0.20339155       0.25681927
O       -5.70674592      -7.30526461       5.60412763      -1.48697357      -0.51185030       0.14367193
H       -5.33116754      -7.88363885       6.20368234       0.33180817       0.31770528       0.15804763
H       -5.06538739      -6.72548584       5.05061774      -0.17384590      -0.14541024      -0.00985104
O       -2.15400123       2.39531703       6.66378205       0.58925841       0.24356338       1.21064461
H       -2.08495428       3.42314183       6.80880114      -0.07937593       0.00374101      -0.32191012
H       -1.85627930       1.76850067       7.34664677      -0.22994826       0.21104686      -0.74757082
O       13.18325302      -5.48458809      -1.46101675       0.61342763      -1.03988983      -0.17635179
H       13.94920627      -5.27216971      -1.92444672       0.19993354      -0.13255297      -0.04839123
H       12.90445117      -6.47327899      -1.67784838      -0.07112741      -0.35129537       0.19280804
O       11.82663964       4.89031765      22.73175622       0.00140412      -0.24456079      -0.14067135
H       11.21769361       4.14953975      23.01990222       0.04542081       0.15845854       0.00868873
H       11.91552394       4.73390472      21.79539108       0.03576769      -0.27164571       0.18642346
O        8.16046319      14.50270456      23.81924472      -1.11489739       0.32151300       1.24762126
H        9.06880892      14.87861776      23.86234825      -0.04380745      -0.25326959      -0.22677159
H        8.09139523      13.48377998      24.13661743       0.05772498      -0.17384123      -0.03102229
O       -8.06580265       6.99205236      11.41677262       0.90811549      -1.11358502       0.38368642
H       -7.34166678       6.66480440      10.90966438       0.09945945       0.21989488      -0.35876468
H       -8.36405561       6.43599153      12.08908250      -0.06026639       0.49149152       0.28314336
192
Lattice="12.74730717484704 0.0 0.0 -5.290856337917516e-07 12.74730717484704 0.0 -5.290856337917516e-07 -5.290856337917516e-07 12.74730717484704" Properties=species:S:1:pos:R:3:momenta:R:3 step=90 time_fs=9.0 phase=equilibration pbc="T T T"
O       11.64426137       0.72348673     -16.48273772       1.45440429      -0.11362123       0.64424387
H       12.17362038       1.08826038     -15.73034053       0.15040915       0.12343784      -0.37998452
H       10.89926720       0.10317768     -16.51935041       0.24967749      -0.05596177      -0.01610823
O       26.37440058      24.79582419       4.92975709       0.39632899       0.00343693       1.58974025
H       26.77679794      23.92636194       4.53740000      -0.02461332       0.34152275      -0.06067532
H       25.59077652      25.04249437       4.44359654       0.14977835       0.00990629      -0.10100693
O        4.55147057      -0.32059316       6.61142122      -0.31047860      -0.60734362      -0.87440332
H        5.09331068      -1.03881045       6.87508027       0.46202000      -0.02204854      -0.35427819
H        4.24255607       0.19274600       7.35203579       0.18778128       0.10675664      -0.27604990
O       -2.86309902      -4.38750477       1.04751127      -0.21511725       0.61759524       1.13486454
H       -2.61314594      -3.75511579       0.35444698       0.11825349       0.10477143      -0.27643449
H       -3.78671554      -4.13194519       1.34419025      -0.35056492       0.22121976      -0.17307650
O        4.29398479      15.88025544      10.71748311       1.23099275       0.78847638      -0.48669816
H        4.25183598      16.68919241      11.12518429      -0.06077792       0.02203295      -0.20194594
H        5.07195762      15.81250522      10.14110450      -0.45204382       0.07971917      -0.02084659
O       -1.37266719       6.60138760       5.13878439       0.50295692      -0.97538837       0.24071863
H       -1.60509801       6.34460842       4.28447028      -0.66806814       0.02470906      -0.21862378
H       -0.57610888       7.14830919       5.22426836      -0.02079200       0.31927139       0.01306814
O       22.82677753      12.32471589       5.78451214       0.53351726       0.64397489       0.23579655
H       23.21062676      13.17614747       6.14032917      -0.20603179      -0.33261118       0.08344476
H       22.19187343      12.17460863       4.95236586      -0.35546328      -0.27375133       0.45408467
O       -1.05748903     -15.75727212       6.79631659      -1.06664261       0.32556373      -0.36720740
H       -0.60281973     -16.10401521       6.06552628      -0.06489962      -0.14804087      -0.04491356
H       -1.43884487     -14.76422724       6.55526092      -0.03479568       0.27337705       0.05883437
O       15.47513036     -17.91167300       9.68173956       0.32877852      -0.54883278       0.49952689
H       16.21235491     -18.46139295      10.19547552      -0.09668070       0.11941986      -0.26652285
H       15.63898993     -16.97066397       9.50028057      -0.04446866      -0.24884288      -0.16597645
O        3.27879872     -14.65110842     -13.35833491       0.71767966       0.16218492      -0.26450329
H        4.24489178     -14.92563812     -13.15338598      -0.01573524       0.34211767       0.00439212
H        2.70391576     -15.04843274     -12.69847533       0.06901018      -0.26930856       0.06939295
O       -5.75914722       1.60028096       2.85208827      -0.51717359       0.87667221      -0.02334354
H       -6.45746919       1.11035553       2.41564048       0.28657519      -0.01827054       0.34500463
H       -5.41129339       2.47985590       2.54346374      -0.14658797      -0.08975913       0.24503035
O       -5.36117708      16.09047267      25.93632573      -0.48269163       1.33980987      -1.14952305
H       -5.36816916      15.53532787      25.13146028      -0.14250601       0.27460617      -0.33731093
H       -4.41905953      16.16977965      26.07996168       0.81441950      -0.33271024       0.38741918
O        7.47422390     -15.69171520      -8.47065622       1.28910542       0.44569357       1.45611555
H        8.02994649     -16.51082856      -8.19508261       0.29992784      -0.04686374       0.04950462
H        6.68215136     -15.48716921      -8.08403578      -0.33013487       0.25747327      -0.02177489
O       13.66505487       8.55430927      17.97348207       0.02651875       0.02024849       0.32149925
H       14.08269750       8.61304354      17.11873148      -0.25479523      -0.20070374       0.53869268
H       14.30021020       7.96396844      18.46744965      -0.12852152       0.20988404       0.08204534
O       -0.15248151       1.21632631      -1.20535857       0.10731208       0.49113792       0.94987262
H        0.79091627       1.37406874      -1.27013358      -0.35035569      -0.18509245      -0.12379625
H       -0.48613821       0.32738041      -0.79834555      -0.33591477       0.08563225      -0.23721900
O      -14.16232650      12.66072387      15.76519368       0.36856322      -0.04297695      -0.57661689
H      -13.86740669      12.36737707      14.93296681       0.42891803      -0.12042399      -0.29003765
H      -15.02224854      12.24572195      16.12404640       0.42060578       0.15741004      -0.05269704
O      -16.40003750       5.91784562      12.32106442       1.80319791       0.32532645      -0.51222257
H      -16.92240870       5.99252354      11.54464223       0.00988419      -0.11188179      -0.28086420
H      -16.16471024       6.99654390      12.33306331      -0.08886237       0.56018295      -0.14041397
O       -9.95578531      32.91145833      -9.57945431      -0.46116681      -1.15959656      -0.19658407
H       -9.14147209      32.39764776      -9.36129152       0.09028311       0.41196757      -0.25308487
H      -10.72982366      32.30131395      -9.94413952      -0.00678117       0.09427707       0.09784760
O       34.77687016      11.49584425      21.37889639       1.35363857      -0.65514368      -1.07006190
H       34.64074010      11.71032608      20.36929188      -0.22383934       0.26940381      -0.05130380
H       35.19528352      10.60912526      21.67312809      -0.16396268       0.28203804       0.07881034
O       30.39784923     -12.64644729       2.16088712      -0.00631210       1.24222077       0.07004408
H       29.58728493     -12.15389825       2.45214942      -0.25073924      -0.01056573       0.02382675
H       30.18899288     -12.64347711       1.22209716      -0.05924983      -0.06719971      -0.49540717
O       17.58196868       9.30499732      -7.44206196      -0.21685357      -0.57103674      -0.48468409
H       17.33637967       8.26899935      -7.72633956      -0.42004045      -0.12752751      -0.17076602
H       17.44163253       9.51363661      -6.54371251       0.07687761      -0.02168065       0.03632870
O       -5.15691131       2.58603108      32.19098927       0.85381388      -0.46806466       0.61649796
H       -5.80783693       1.98432730      31.78586717      -0.23365352      -0.52261043       0.13149633
H       -4.36381633       2.18958578      32.52603146       0.13984599       0.38620012       0.30959621
O        3.79762852       0.86637092      -0.23762907       1.16728986       0.13708362       0.29445603
H        3.49111958      -0.05400718      -0.34276639      -0.04659523      -0.01251951      -0.08311564
H        4.21277531       1.00377149      -1.05560322       0.47906434      -0.14078815      -0.38656505
O       23.21876663       3.22917630      11.65765289      -0.61011095       0.11411163      -0.00302732
H       23.25069153       3.63343711      12.66603695       0.35633261      -0.10132859       0.09761143
H       23.78278045       2.46275450      11.77826505      -0.32293149      -0.06940957       0.15470249
O       -1.42914328      31.83158929      15.03023817       0.09058275       0.81078264       0.65445967
H       -2.09551029      32.39908035      14.57120623      -0.04082469      -0.24595686       0.23103702
H       -0.62165661      31.75491552      14.57636774       0.17827126      -0.41788352       0.11459609
O        4.82208052      19.39150594       5.21306285      -0.91101009       0.06112937       0.30553866
H        4.05526501      18.91723060       5.70921616       0.16179857       0.19730175      -0.29913413
H        5.63409064      18.94414420       5.22592469       0.12518684      -0.11619810      -0.00527602
O      -10.16918144      10.49982593       9.49756318      -1.18928837       0.44157394       0.54806321
H      -10.83840728      10.88970140       8.76396252      -0.28217739      -0.04576351       0.02663401
H      -10.43847454      10.79473956      10.31665061       0.25851618      -0.04313893       0.44581756
O       17.69176155      17.75766400      26.13738430       0.10692349       0.19117564      -1.70390040
H       18.55132315      17.23480943      26.11439463      -0.16624163      -0.15701795       0.32763013
H       16.85158777      17.27688112      26.15929595      -0.13851429      -0.15822169       0.23969805
O        6.92791594      18.70384252      10.14282823      -0.41697897      -0.57177659       0.21185177
H        7.25602873      19.25934928       9.43765932       0.14553205      -0.03183093      -0.07301683
H        6.61787023      17.90683500       9.59965461      -0.05521027      -0.05765104       0.30324973
O       -0.63812433     -13.79754681      13.26049288      -0.30543431      -0.07195910       0.11639076
H       -1.41945769     -14.18818057      12.81321993      -0.04866201      -0.42874277       0.21934147
H       -0.11185478     -14.60793645      13.53573717      -0.20998181       0.18477855      -0.49128810
O        1.14018183       6.10678409       1.11683465      -0.36747372      -1.80286081       0.82216943
H        1.65771062       5.17209821       1.16270850       0.30988903      -0.51613380       0.16834887
H        0.97100418       6.41491018       0.22450584       0.04575853       0.48111430       0.00109768
O        3.14604791       1.31219197       8.37424881       1.55038377      -0.27834218       0.76477918
H        2.13621398       1.04480057       8.19940273      -0.41742375       0.11463971      -0.09534315
H        3.37139868       1.46092531       9.31248735       0.16899363      -0.32249161      -0.28054216
O      -18.83259417      28.82891782     -16.16631481       0.35718143       0.97119064      -0.79310413
H      -18.75486222      29.03358548     -17.19827979       0.02565962       0.20407257       0.25751293
H      -18.06278662      28.28915349     -15.52141630       0.05827106       0.20928903       0.23720166
O        2.91582609      26.86175960      -9.08576770       0.71095225      -0.78178413       0.88552102
H        3.40016892      27.01648611      -8.49332257      -0.32711774       0.20392823      -0.52867779
H        2.17569239      26.31209537      -8.89171243      -0.03539112       0.51455991      -0.05503360
O      -18.09685182      19.00197606       1.93600563      -1.17504795      -1.04594708       0.41824632
H      -17.36820323      18.85156636       1.12449261      -0.08098753      -0.01985778      -0.03136621
H      -19.00790755      18.50376930       1.80734409      -0.10644797       0.21125829       0.26821958
O       11.70547748      17.57138289       7.05471007       0.18894865      -0.11181051      -0.61070499
H       12.56698687      17.27284105       6.72331048      -0.08542738      -0.02265690       0.12901981
H       11.18705989      18.25329421       6.59660675      -0.14617234      -0.20192591       0.13983080
O       -7.23241783     -11.21789281       5.17530897      -0.18866999      -0.65545445      -0.41229164
H       -6.52361627     -11.25017718       4.50782130      -0.05198077       0.06311398      -0.30701519
H       -7.40869260     -12.04179692       5.70532258      -0.08606973       0.17435558       0.28749405
O      -24.15044004       3.39102424      10.70339349      -0.95247619      -0.90570278      -0.00814816
H      -24.88441358       4.00423232      10.41546586      -0.10569054      -0.28227631      -0.10972424
H      -23.25213794       3.73995130      10.25035987       0.07245665      -0.03368267      -0.13933163
O      -11.42989379      -8.22583583      18.46386259      -0.13115085      -0.68725907       0.50436033
H      -10.64981926      -8.52459751      18.97384543       0.14863941      -0.09287079       0.21851559
H      -11.42229998      -8.31380449      17.48633000      -0.10673208       0.19183397      -0.51933093
O        8.57733227       7.34999379      16.90805096      -1.08421484       0.62061323      -0.55167076
H        9.57068228       7.31586703      16.81967940      -0.37450160      -0.05518911       0.23383319
H        8.18681209       6.77951961      16.26792691      -0.16693377       0.09775806      -0.04983778
O      -11.63458262      -0.47647855      20.43708919       0.52321107      -0.02612988       0.48960800
H      -12.50920982      -0.22428315      20.71947692      -0.07974639       0.25557265      -0.06683412
H      -11.79141891      -0.59552499      19.40917312      -0.26753416      -0.11172452       0.01784961
O       24.16266471       2.49112294      16.22015527      -0.54417013       0.86797759      -0.65448576
H       23.94136336       2.52623972      17.14440371       0.04875529      -0.07729715       0.15599989
H       24.02149336       1.62245785      15.56761803       0.09587643      -0.13008643      -0.24112626
O       -5.67558611     -17.94673106      -5.04084434      -0.41368190       0.64996021      -0.88768962
H       -4.76483479     -17.86024557      -4.98091136       0.39919171      -0.05724544      -0.53517058
H       -5.65367407     -18.66872940      -5.63520873       0.14166089      -0.31923004      -0.28701070
O       29.44977744      -8.97059303      -6.14887288      -0.92745609       1.15422071      -0.57568341
H       30.27098784      -9.00574084      -6.74298644      -0.10440407       0.05042716       0.44190541
H       29.05202911      -9.79218074      -5.92742615      -0.45639241      -0.08712625       0.23784187
O        8.81701777      -0.66637958       3.42113571      -0.20841722       0.10905484       0.44947212
H        8.31323131      -0.07058160       2.90929322       0.15391974      -0.03275684       0.17180193
H        8.33436290      -1.49142631       3.62778965       0.32239788       0.27871898      -0.14498368
O      -19.77404330      -3.13897062      24.77491581       0.01356602       0.57908033       0.15289761
H      -20.04388880      -4.01314009      24.25795276       0.33266018       0.03230242       0.23088466
H      -19.16511346      -3.45271836      25.56822570      -0.10301094      -0.00023856      -0.18696464
O        2.42000807      -5.79200121      -6.02536755       1.94873143       0.86880943      -0.10906683
H        2.38975680      -5.60888091      -5.12568633      -0.45784394      -0.09351101       0.54321619
H        1.95439345      -6.57990532      -6.24054628      -0.04915862      -0.34391126      -0.04530962
O        9.85353340       8.27424250       7.94937626       0.77171045      -0.44971149       0.04167613
H       10.48876236       8.48606941       7.26987119      -0.27395952      -0.02896240      -0.01959762
H       10.09014517       7.48545326       8.39424076      -0.35122515      -0.09698077      -0.04504820
O        5.36429806       9.74355561      -4.83476672       0.72448762      -0.43233191      -0.60592417
H        6.20551001       9.15067647      -4.79692247      -0.11625661       0.16897457      -0.08241994
H        4.85569676       9.69897398      -4.05229538       0.15352632       0.06692767      -0.24493047
O       13.74677799      29.45310313      15.88023159      -0.52295492      -0.47097958       0.26516613
H       12.95837174      28.96332192      16.00690242      -0.23819281      -0.05949158      -0.18363324
H       14.37643205      28.73145540      15.78321347      -0.04096613      -0.00840566      -0.31106791
O       -2.82048459       3.98885973       1.70206612      -0.67921986       0.68931358       0.22694314
H       -2.32220293       3.39193008       2.37699639      -0.00959237      -0.74528831       0.28405781
H       -2.68852139       4.88995527       1.86363093      -0.02118635      -0.00320990      -0.02006595
O        7.81913645     -14.02060231      10.95042116       0.40324714      -0.11989037      -0.62273098
H        6.82848630     -14.49185103      11.07368730       0.00248820      -0.00788929      -0.22903041
H        8.17774735     -14.16661281       9.99462662      -0.13681151      -0.25340257       0.03782205
O       -2.47189078      10.55614579      24.32349042      -1.44604265       0.69624174      -0.93138333
H       -2.04538750      10.06423669      23.68329405       0.21235592      -0.27608435      -0.16900952
H       -3.29854780      11.18631499      24.37553931       0.16256055      -0.14430426       0.27992382
O       20.05087913      21.75370347       1.54647470      -0.69802704       0.40133732       0.10166625
H       19.96845628      22.29348396       2.46770192      -0.03136878      -0.02624004      -0.24568462
H       19.72133841      20.79989280       1.34977645      -0.11536200       0.32103662      -0.02217366
O       12.17565220      10.00876919     -15.90557830       1.06122467       0.11554962       0.44556988
H       12.67507358       9.28987151     -15.50326949      -0.13245589       0.06344344      -0.36217772
H       12.56530778      10.10571949     -16.90528342       0.02810994       0.11246835       0.27038366
O      -11.39022925      22.28541676       1.05172894       0.34008782      -0.21271004      -0.31018957
H      -11.82587717      21.30040601       1.03171939      -0.16618447       0.25268020      -0.16809180
H      -10.87945882      22.67068681       1.76954493      -0.13268772       0.15998375      -0.11402600
O        2.94690885     -15.03822385      16.10913981      -0.23270699      -0.62427733      -0.80281900
H        3.31385501     -15.72867238      16.74227217      -0.07556129       0.24043901       0.11610238
H        3.63830019     -14.38006310      15.90549119       0.25430004      -0.09258016      -0.18913064
O        2.40682788      16.32241259       0.36852502      -0.82766774      -0.69018394       0.43651540
H        1.98159866      16.29297206      -0.37956020      -0.15823708       0.33595363       0.16635495
H        2.93459590      15.62510401       0.75921655       0.06900794       0.16806577       0.21929835
O       -5.71553629      -7.30709679       5.60383827      -1.43193917      -0.19190025      -0.14880293
H       -5.29243608      -7.86106094       6.22675811       0.44623002       0.15780936       0.30144285
H       -5.09052855      -6.74943672       5.05942795      -0.33510985      -0.33800257       0.17992521
O       -2.15040981       2.39788452       6.67085620       0.52943208       0.66111827       1.09779457
H       -2.09116610       3.40415334       6.77601185      -0.04486514      -0.37966051      -0.33880270
H       -1.87646716       1.78791474       7.27814071      -0.15911456       0.14003520      -0.59406313
O       13.18580371      -5.49204196      -1.46170599       0.38557664      -1.43832012      -0.07915756
H       13.97774508      -5.28414734      -1.93693284       0.36472922      -0.12544606      -0.19034304
H       12.90147745      -6.48908639      -1.65837377       0.02009071       0.02443286       0.20419607
O       11.82600365       4.88810589      22.73043553      -0.07519443      -0.40938013      -0.04135732
H       11.22529776       4.17263697      23.02013771       0.10590682       0.30593809       0.01787574
H       11.91898187       4.70924804      21.80861215       0.04575206      -0.23259446       0.08389734
O        8.15355371      14.50341156      23.82655128      -1.05785658       0.05354094       1.38377200
H        9.05973156      14.85129175      23.83966411      -0.12632429      -0.29345746      -0.22051073
H        8.09855294      13.48270054      24.12607622       0.09443880       0.16259629      -0.16846772
O       -8.05994268       6.98586706      11.41814508       0.92516993      -0.83709070       0.17563405
H       -7.32700656       6.68114271      10.87227529       0.17848752       0.12346250      -0.38469533
H       -8.37177330       6.47310836      12.12787229      -0.09652485       0.27950964       0.51161077
