192
Lattice="12.746764094543508 0.0 0.0 -5.290630928752543e-07 12.746764094543508 0.0 -5.290630928752543e-07 -5.290630928752543e-07 12.746764094543508" Properties=species:S:1:pos:R:3:momenta:R:3 step=100 time_fs=10.0 phase=production pbc="T T T"
O       11.65298711       0.72273717     -16.47824302       1.54462310      -0.12297664       0.56662193
H       12.18359596       1.09652000     -15.76696172       0.07847475       0.05623103      -0.36162301
H       10.92354213       0.09783704     -16.51823262       0.24986411      -0.05982190       0.02606961
O       26.37608634      24.79399229       4.93909693       0.51121078      -0.23827278       1.52729803
H       26.76752434      23.97182964       4.53632647      -0.13334260       0.59264947       0.03652863
H       25.60417513      25.04177491       4.43284377       0.14634972      -0.00076889      -0.11563668
O        4.54913544      -0.32438095       6.60552819      -0.36771433      -0.65655680      -0.95487214
H        5.13968902      -1.04280374       6.84234673       0.47510989      -0.03770502      -0.31693037
H        4.25892559       0.20562796       7.32883991       0.15213483       0.15948229      -0.18732865
O       -2.86489824      -4.38309425       1.05422182      -0.41168407       0.77372214       1.04937355
H       -2.60311762      -3.75058598       0.33391063       0.07956469      -0.02989872      -0.12711692
H       -3.80776688      -4.11219562       1.32350267      -0.07515438       0.17730849      -0.25185343
O        4.30143597      15.88345941      10.71348697       1.21713738       0.48758336      -0.63164968
H        4.24502557      16.70734083      11.11252340      -0.07560403       0.35714608      -0.05301678
H        5.02660657      15.81885011      10.13968162      -0.43172832       0.06049476      -0.03125342
O       -1.36922312       6.59531446       5.14063792       0.59508537      -0.92074638       0.38264692
H       -1.66950109       6.34631501       4.25549892      -0.63762297       0.03132351      -0.31794901
H       -0.58171173       7.17708618       5.22296729      -0.10559766       0.26886479      -0.03639698
O       22.82879304      12.32813499       5.78522581       0.42271090       0.59624672       0.06701634
H       23.18486563      13.13878851       6.14396015      -0.28231197      -0.37855377       0.01784097
H       22.16678225      12.15158683       5.01155916      -0.14580102      -0.18757504       0.74685112
O       -1.06450830     -15.75356494       6.79401717      -1.22469419       0.65383200      -0.30278544
H       -0.60481705     -16.12016409       6.05518803       0.01364619      -0.19120371      -0.14583587
H       -1.43760140     -14.74950873       6.56224476       0.05759979       0.01698754       0.08961045
O       15.47696075     -17.91469056       9.68485843       0.46943419      -0.69474753       0.64519546
H       16.19252829     -18.43854114      10.16162899      -0.28403617       0.32780223      -0.41034442
H       15.63469644     -16.99570584       9.48528191      -0.02431749      -0.26367829      -0.13606776
O        3.28362496     -14.64974806     -13.35887342       0.88421406       0.07951608      -0.09330469
H        4.23002680     -14.88984955     -13.15555732      -0.27368031       0.37469843      -0.05882425
H        2.71194594     -15.07368290     -12.69350353       0.10792908      -0.25302968       0.01172739
O       -5.76162985       1.60598704       2.85217075      -0.35786224       0.98500567       0.11858956
H       -6.43233625       1.10886462       2.44489021       0.19801436      -0.02646373       0.24091138
H       -5.43044536       2.46389818       2.56690097      -0.24086269      -0.20155554       0.22346144
O       -5.36361691      16.09788333      25.92785987      -0.33108791       1.29373041      -1.24598475
H       -5.38255582      15.56440224      25.10171484      -0.15209067       0.34425978      -0.23688301
H       -4.34452283      16.13739258      26.11762987       0.65235562      -0.32069464       0.39439990
O        7.48320062     -15.68902463      -8.46174549       1.68135248       0.23144543       1.35475991
H        8.04849291     -16.50520448      -8.19293832       0.08985945       0.14462139      -0.01067100
H        6.63682504     -15.46095416      -8.07812340      -0.53973006       0.25271628       0.10905536
O       13.66473018       8.55368460      17.97535502       0.01579118      -0.09703608       0.59118250
H       14.05907314       8.59538422      17.16115478      -0.18947830      -0.14744170       0.27659297
H       14.28097431       7.98872949      18.47453639      -0.23947475       0.28977580       0.09635448
O       -0.15259575       1.21855957      -1.19918451      -0.18857782       0.25654197       1.04325188
H        0.76073908       1.35294309      -1.28181318      -0.22681996      -0.24398222      -0.12060069
H       -0.51002076       0.34651825      -0.82593781      -0.15337371       0.30122470      -0.32664891
O      -14.15999655      12.65976112      15.76147443       0.24499912      -0.09457780      -0.47405956
H      -13.82474946      12.35266993      14.89963437       0.41600622      -0.15539471      -0.33576562
H      -14.96941744      12.26520196      16.11239213       0.61457543       0.23658836      -0.15808880
O      -16.38809727       5.92035114      12.31753161       1.83545802       0.56949440      -0.49796407
H      -16.92373866       5.97793498      11.51301409      -0.02826467      -0.18106247      -0.32274438
H      -16.17239681       7.04095104      12.32127854      -0.08419371       0.35831393      -0.09268680
O       -9.95859247      32.90210631      -9.58046276      -0.60877290      -1.40690592      -0.26797955
H       -9.13970772      32.44018577      -9.38783855      -0.04200627       0.47258225      -0.29463954
H      -10.71651818      32.31739212      -9.93015733       0.26682716       0.25784255       0.17844008
O       34.78392775      11.49090687      21.37072329       1.41084632      -0.76132854      -1.29621609
H       34.62061827      11.73145281      20.38101273      -0.15705440       0.17129596       0.30541890
H       35.17233078      10.64705640      21.67239435      -0.26316755       0.47588726      -0.06668882
O       30.39569900     -12.63790333       2.16094330      -0.28386708       1.36746960      -0.06191705
H       29.56828319     -12.15719520       2.45713327      -0.10379024      -0.07263200       0.07188653
H       30.18639051     -12.64989244       1.17733782       0.03799658      -0.07119894      -0.37358863
O       17.57967279       9.30035278      -7.44537154      -0.29047165      -0.80785277      -0.67889123
H       17.29846575       8.26823438      -7.73803687      -0.34135579       0.11666646      -0.07650666
H       17.44889573       9.51218775      -6.53332464       0.09018972      -0.00329660       0.15382986
O       -5.15200147       2.58289339      32.19327570       0.65878212      -0.53680030       0.56536804
H       -5.82376953       1.93804342      31.80094893      -0.08172450      -0.40777573       0.21403606
H       -4.35083270       2.22648074      32.55401119       0.12175323       0.37331737       0.29180917
O        3.80444612       0.86660635      -0.23572169       1.13737017      -0.04430749       0.25851493
H        3.48612878      -0.05326452      -0.34883268      -0.04864136       0.03650749      -0.04258217
H        4.26304728       0.99343121      -1.09645950       0.52105514      -0.08286213      -0.38699312
O       23.21408722       3.22987505      11.65794674      -0.59903857       0.16550397       0.26215448
H       23.28194641       3.62044729      12.66544139       0.30073276      -0.15653883      -0.09652219
H       23.74886661       2.45652920      11.79251621      -0.34316818      -0.06959817       0.14558961
O       -1.42922383      31.83530794      15.03379494      -0.09718577       0.82635453       0.71233675
H       -2.09429581      32.37304267      14.59362247       0.05052699      -0.24608334       0.22912050
H       -0.59704374      31.71281229      14.58226677       0.30144653      -0.41456715       0.03155183
O        4.81522419      19.39087287       5.21504199      -1.20144934       0.01070465       0.39070416
H        4.08175074      18.94161577       5.67440657       0.35442172       0.29922533      -0.38897925
H        5.64923938      18.92952447       5.22505946       0.16433245      -0.15368120      -0.00868563
O      -10.17648298      10.50204606       9.49921069      -1.34576523       0.44213397       0.16451971
H      -10.85654539      10.88102949       8.77616386      -0.09789440      -0.12222700       0.23388857
H      -10.41470944      10.79474866      10.36965205       0.23410981       0.03767760       0.60357506
O       17.69205272      17.75780490      26.12566564       0.20842411       0.09448672      -1.74846572
H       18.52562526      17.22214709      26.14672051      -0.33686323      -0.08963105       0.35673467
H       16.84145256      17.26150173      26.18239728      -0.03867417      -0.13228308       0.25526794
O        6.92472567      18.69898869      10.14323587      -0.51619993      -0.73066626       0.06090399
H        7.27002110      19.25686639       9.43183298       0.14170839      -0.01161281      -0.02803360
H        6.61630961      17.90498718       9.63631488       0.02446881       0.02924355       0.44941715
O       -0.64004293     -13.79810320      13.26059658      -0.35475639      -0.27154337       0.08830032
H       -1.42010127     -14.22575066      12.83537330       0.02901150      -0.34881118       0.24322355
H       -0.13541780     -14.57938849      13.48422689      -0.24072246       0.34863739      -0.53605115
O        1.13814278       6.09494823       1.12182116      -0.28929940      -1.95286230       0.79997665
H        1.68186149       5.13143282       1.17828476       0.19170539      -0.32235830       0.15327935
H        0.97529788       6.46108071       0.22642056       0.04518915       0.46630382       0.05414203
O        3.15468398       1.31023308       8.37853391       1.30338342      -0.34360314       0.70339263
H        2.10817215       1.05738273       8.19179860      -0.16393575       0.14062590      -0.05390765
H        3.38690837       1.42824162       9.28040778       0.16256597      -0.34047951      -0.32456762
O      -18.82918013      28.83367742     -16.17120693       0.48877204       0.97540584      -0.98720503
H      -18.74829920      29.04538695     -17.14975882       0.09041430       0.07060532       0.68137919
H      -18.06532422      28.31689199     -15.51038536      -0.12188320       0.37771627      -0.01663415
O        2.91801157      26.85520149      -9.08350285       0.06927988      -0.97651566      -0.26057431
H        3.41425080      27.05258787      -8.49121873       0.60110876       0.56118241       0.54641154
H        2.15976850      26.35286207      -8.89471198      -0.29749346       0.33991096      -0.00659977
O      -18.10353835      18.99430380       1.93769169      -1.24494903      -1.18357822       0.16005199
H      -17.38642377      18.84921416       1.13115809      -0.30663433      -0.01286388       0.16850080
H      -19.00309461      18.53047383       1.83448557       0.17991241       0.34452971       0.28738591
O       11.70597870      17.56976641       7.05074647       0.13170986      -0.18175545      -0.56641597
H       12.55723420      17.27355821       6.73363538      -0.09087577       0.04947858       0.08106506
H       11.17717277      18.23146358       6.60931295      -0.05510186      -0.21735251       0.11586850
O       -7.23292172     -11.22164122       5.17264297      -0.07184885      -0.71502183      -0.39259550
H       -6.53376009     -11.24535225       4.47983265      -0.16708117       0.02622113      -0.25653176
H       -7.41283625     -12.01711225       5.72713267      -0.00710387       0.31630414       0.16709581
O      -24.15481356       3.38612516      10.70234589      -0.79882567      -0.65407940      -0.18226508
H      -24.88501739       3.97125648      10.40676685       0.06185070      -0.38113937      -0.06339030
H      -23.25841535       3.73054250      10.24351943      -0.22058691      -0.15523595       0.00774993
O      -11.42987158      -8.22972097      18.46598351      -0.01000826      -0.69754479       0.42236469
H      -10.63887527      -8.53211336      18.98907302       0.05806485      -0.06579637       0.10749071
H      -11.43168743      -8.29432213      17.44639491      -0.09722811       0.20444282      -0.25522862
O        8.57073350       7.35371279      16.90430418      -0.98433847       0.68897611      -0.43496069
H        9.52633674       7.30961402      16.84255957      -0.49314129      -0.06679900       0.24613256
H        8.16919392       6.78561166      16.25572775      -0.18467268       0.03551617      -0.17763669
O      -11.63104231      -0.47676980      20.43833986       0.44924481      -0.06950979       0.20762457
H      -12.51852501      -0.19676663      20.71512845      -0.10487074       0.30425601      -0.00810837
H      -11.81310978      -0.60544373      19.42188600      -0.18521021      -0.09233213       0.25873000
O       24.15837128       2.49604415      16.21469997      -0.52325622       0.76909726      -0.87034663
H       23.94233578       2.51548570      17.16169589      -0.00170549      -0.14154430       0.18874171
H       24.03038312       1.61742537      15.55422574       0.10715406       0.02824300      -0.01964829
O       -5.67823079     -17.94187462      -5.04606308      -0.45846376       0.63898284      -0.92165570
H       -4.71480596     -17.85819865      -5.02922495       0.56138420       0.08082945      -0.46152739
H       -5.64498682     -18.70397257      -5.66746617       0.02560933      -0.37370480      -0.34122031
O       29.44321619      -8.96299110      -6.15266296      -0.84604436       1.16765017      -0.71366591
H       30.24900856      -9.00221158      -6.69101256      -0.29312366       0.01119003       0.59721898
H       29.00852994      -9.80021874      -5.90440826      -0.39356226      -0.05488524       0.21978309
O        8.81591231      -0.66601700       3.42383702       0.00639277       0.03604096       0.47427892
H        8.31917720      -0.06699230       2.92183831      -0.03126906       0.11504698       0.08303622
H        8.36246929      -1.46650450       3.61509606       0.23666350       0.18662436      -0.09818232
O      -19.77282861      -3.13651603      24.77500076       0.10428705       0.18868144       0.21631224
H      -20.00585670      -3.99467219      24.28932183       0.42501102       0.33382483       0.42520893
H      -19.18452487      -3.44587967      25.53709072      -0.30454282       0.13376510      -0.41959728
O        2.43205698      -5.78641780      -6.02619799       1.97108493       0.83358911      -0.17732997
H        2.34486690      -5.61634956      -5.06520011      -0.45462507      -0.08091071       0.61025802
H        1.94796321      -6.61688308      -6.24514211      -0.04957583      -0.36673215      -0.03997564
O        9.85742607       8.27147518       7.94930317       0.61800036      -0.34134787       0.06033133
H       10.46573994       8.48469050       7.26503806      -0.17475716       0.01055197      -0.08650732
H       10.05862071       7.46981546       8.39274952      -0.28681797      -0.21584325       0.01814646
O        5.36950200       9.74003214      -4.83893806       1.03866702      -0.56696859      -0.83718122
H        6.18330166       9.17221483      -4.80492698      -0.31666801       0.26829320      -0.08479451
H        4.86519907       9.70414339      -4.06745478       0.03443526       0.04636644      -0.05341733
O       13.74336354      29.44890499      15.88099887      -0.42162058      -0.50537824       0.20173441
H       12.92763788      28.95520058      15.98892389      -0.35431937      -0.06760654      -0.17420908
H       14.37384820      28.73133262      15.75203168      -0.00485356       0.03280523      -0.31323701
O       -2.82425510       3.99155243       1.70370863      -0.59298298       0.24875219       0.32858456
H       -2.33051708       3.32771761       2.39458359      -0.16170619      -0.56589057       0.08056225
H       -2.68694169       4.90125636       1.86416730       0.05089736       0.23166048       0.03146084
O        7.82069622     -14.02129183      10.94540434       0.20815411      -0.30128191      -0.85138947
H        6.84529576     -14.48431460      11.04915005       0.35303493       0.15223760      -0.26605642
H        8.15709336     -14.18767679      10.01081466      -0.27560553      -0.19154354       0.29359026
O       -2.48123762      10.56081187      24.31785505      -1.58549824       0.92407616      -0.60528665
H       -2.02068945      10.03209168      23.65337316       0.26494521      -0.34132875      -0.38435924
H       -3.27558084      11.16391228      24.39651770       0.28667105      -0.29195558       0.16911326
O       20.04534355      21.75513517       1.54766362      -0.82140420       0.38147080       0.30224420
H       19.96470055      22.27936163       2.42933557      -0.02959888      -0.23691052      -0.52880594
H       19.71240073      20.84047807       1.35398971      -0.05682566       0.51174356       0.10460674
O       12.18195536      10.00912082     -15.90301563       1.14385488       0.16628367       0.15056222
H       12.66108609       9.29540705     -15.53751635      -0.12505556       0.02849494      -0.33529358
H       12.56060576      10.11491630     -16.86528692      -0.11434645       0.08682298       0.53622996
O      -11.38816339      22.28218450       1.04940250       0.17123841      -0.52172425      -0.43918265
H      -11.83015793      21.34443260       1.01690830       0.05961916       0.65295416      -0.13305633
H      -10.89096318      22.68247284       1.76047325      -0.11028060       0.10534695      -0.06254984
O        2.94589635     -15.04153198      16.10386319      -0.05400009      -0.64741975      -0.70210788
H        3.30466627     -15.69615338      16.74586034      -0.10585732       0.40189218      -0.01917843
H        3.65712639     -14.39512992      15.88832813       0.12936491      -0.23255112      -0.14731728
O        2.40249042      16.31791125       0.37291064      -0.56371942      -0.54849488       0.98005692
H        1.95389800      16.32037253      -0.38856144      -0.39750720       0.24288386      -0.33284923
H        2.93935896      15.63841412       0.77843841       0.03412819       0.11463136       0.17466200
O       -5.72385602      -7.30761511       5.60246227      -1.36099383      -0.13389654      -0.16015470
H       -5.24769073      -7.84774505       6.25677318       0.44390209       0.13282585       0.29084460
H       -5.12641373      -6.78661286       5.08075290      -0.37407624      -0.39828995       0.22808666
O       -2.14758586       2.40328817       6.67620471       0.34698356       1.09211412       0.70943387
H       -2.09252962       3.35589068       6.74404094       0.02110987      -0.54573442      -0.30111388
H       -1.88388314       1.78919474       7.23730978       0.01362945      -0.13155523      -0.22189597
O       13.18741497      -5.50171579      -1.46210178       0.35640551      -1.77464044      -0.08646574
H       14.01242096      -5.29796167      -1.95719040       0.32532633      -0.17060497      -0.20628211
H       12.90748186      -6.46804023      -1.63811509       0.11298074       0.39577817       0.20871479
O       11.82501514       4.88516588      22.72951410      -0.06089337      -0.45691017       0.04261058
H       11.23416934       4.20525524      23.02323725       0.06409116       0.34310511       0.07571106
H       11.92377479       4.68806067      21.80869677       0.06270655      -0.19791798      -0.06100046
O        8.14669648      14.50214902      23.83442698      -1.08120296      -0.26922399       1.50752496
H        9.04617783      14.82129123      23.81804467      -0.12596738      -0.30208686      -0.20068584
H        8.10925986      13.51549698      24.10213244       0.13213652       0.52381896      -0.29902566
O       -8.05381561       6.98097858      11.41817943       0.95304743      -0.68855789       0.01763962
H       -7.30925980       6.68938909      10.83643531       0.16835169       0.05769838      -0.33245535
H       -8.38004475       6.49302139      12.18341558      -0.06648307       0.15742408       0.60539499
192
Lattice="12.746103164491426 0.0 0.0 -5.290356605249782e-07 12.746103164491426 0.0 -5.290356605249782e-07 -5.290356605249782e-07 12.746103164491426" Properties=species:S:1:pos:R:3:momenta:R:3 step=110 time_fs=11.0 phase=production pbc="T T T"
O       11.66203995       0.72186295     -16.47451700       1.59360014      -0.15370422       0.34841402
H       12.19046669       1.10100102     -15.79495956       0.08788836       0.04592449      -0.21060471
H       10.94558111       0.09041600     -16.51246257       0.20893590      -0.09693098       0.07571869
O       26.37799336      24.79096646       4.94822825       0.53052390      -0.27795248       1.55534426
H       26.75180842      24.03232776       4.54131247      -0.13206751       0.61904177       0.04649210
H       25.61627549      25.04058680       4.42081490       0.12534463       0.00708479      -0.12451968
O        4.54673831      -0.32885001       6.59911864      -0.32287223      -0.81431074      -1.01450356
H        5.18189253      -1.04213243       6.81175021       0.38135327       0.06576837      -0.30731014
H        4.27223960       0.22337920       7.31493040       0.12928229       0.19938527      -0.09490450
O       -2.86785363      -4.37752068       1.06018439      -0.59333480       0.96524392       0.90779228
H       -2.59776984      -3.76177826       0.33114072       0.02901760      -0.20249023       0.06940668
H       -3.80091367      -4.09728434       1.29524427       0.20274924       0.12462036      -0.32246799
O        4.30811058      15.88511813      10.70921249       1.00577359       0.36762818      -0.53902474
H        4.23715106      16.75166929      11.11098773      -0.07646510       0.52363906       0.01099312
H        4.99380336      15.82229079      10.12888695      -0.21671526       0.02613958      -0.19717890
O       -1.36535534       6.58934965       5.14244745       0.62979077      -0.91741220       0.26285550
H       -1.72593326       6.35221639       4.23099549      -0.50825935       0.10221813      -0.14903904
H       -0.59742222       7.19921101       5.21691140      -0.21629057       0.19221073      -0.08004040
O       22.82969252      12.33033693       5.78473539       0.26281626       0.29634066      -0.11935633
H       23.15710365      13.10988939       6.14739676      -0.25019007      -0.16444932       0.07532863
H       22.15891350      12.13680895       5.09293838      -0.01456457      -0.10457873       0.89784267
O       -1.07228882     -15.74786404       6.79170363      -1.31704871       0.93053101      -0.35912430
H       -0.60242908     -16.13810003       6.04049254       0.02209327      -0.18420158      -0.12759625
H       -1.42748644     -14.75983141       6.57226656       0.15003180      -0.24924927       0.12512355
O       15.47907688     -17.91852492       9.68855467       0.43010388      -0.84175863       0.69262525
H       16.16098803     -18.39911445      10.11825863      -0.29440589       0.42704650      -0.43526905
H       15.63389670     -17.01722672       9.47230103       0.02947920      -0.17824233      -0.12383313
O        3.28903410     -14.64867108     -13.35826825       0.89471399       0.03479432       0.05254519
H        4.19608510     -14.85260666     -13.16272388      -0.37518921       0.36363629      -0.09418123
H        2.72533537     -15.09532739     -12.69564085       0.16688637      -0.20552129      -0.06660913
O       -5.76293933       1.61188556       2.85356921      -0.17047515       0.93180823       0.40161972
H       -6.42169572       1.10300448       2.46019189       0.00572045      -0.09754927       0.07104519
H       -5.45537803       2.44777996       2.58392776      -0.26441166      -0.08986875       0.11596337
O       -5.36456227      16.10480378      25.91860052      -0.07750473       1.23376904      -1.32818226
H       -5.39640510      15.60162256      25.08429452      -0.13455067       0.43409700      -0.09534634
H       -4.29460035      16.10601378      26.15313453       0.37797311      -0.30297426       0.36174905
O        7.49339240     -15.68711850      -8.45292048       1.71124623       0.14780184       1.39415566
H        8.04768892     -16.48215951      -8.19583623      -0.08985492       0.30111113      -0.05335708
H        6.58759486     -15.43938843      -8.06722833      -0.41751153       0.16081872       0.08573563
O       13.66356483       8.55247736      17.97931448      -0.18515408      -0.13373784       0.99127848
H       14.04742915       8.58393747      17.16342845      -0.03311537      -0.08022088      -0.21652704
H       14.25562380       8.01626462      18.48789773      -0.24579074       0.26543938       0.21460739
O       -0.15505594       1.21956856      -1.19250837      -0.61341455       0.12842923       1.09848055
H        0.75197376       1.32664360      -1.29415213       0.05847693      -0.29501673      -0.13645868
H       -0.51685886       0.38269851      -0.86042887      -0.00012724       0.40849162      -0.36813130
O      -14.15715727      12.65854063      15.75722702       0.51365502      -0.06604954      -0.68889219
H      -13.78821632      12.33816910      14.87263295       0.30575080      -0.12081877      -0.18070726
H      -14.91137526      12.28573019      16.09568653       0.49969066       0.16810710      -0.14441780
O      -16.37618706       5.92428332      12.31345650       1.75422981       0.81299410      -0.64239028
H      -16.92225584       5.95720486      11.48678335       0.05642156      -0.23420518      -0.17924014
H      -16.18009412       7.06482743      12.31337879      -0.09396860       0.13227272      -0.05856579
O       -9.96244659      32.89151614      -9.58181492      -0.80899825      -1.43444627      -0.32330823
H       -9.14370310      32.48291823      -9.41664440      -0.01862776       0.41854305      -0.30007553
H      -10.68001071      32.34527441      -9.90992245       0.43348135       0.31597102       0.20915217
O       34.79063762      11.48597437      21.36097944       1.33801268      -0.59446182      -1.50532198
H       34.60701619      11.74219879      20.42466546      -0.08675901       0.06254245       0.58547670
H       35.14444124      10.69229181      21.66062787      -0.24678016       0.40631779      -0.13443868
O       30.39144162     -12.62847918       2.15965370      -0.58649000       1.48476656      -0.33137598
H       29.56533568     -12.16743608       2.46442220       0.07278389      -0.14878806       0.07744084
H       30.19390778     -12.65533049       1.15457631       0.14748187      -0.05041029      -0.07960815
O       17.57669778       9.29426603      -7.44941601      -0.38516341      -1.01365133      -0.74062205
H       17.26858116       8.29062805      -7.74050286      -0.25089274       0.35170784       0.01863137
H       17.45809512       9.51117887      -6.51754541       0.11936946      -0.01257343       0.13833562
O       -5.14842371       2.57906388      32.19484217       0.41815464      -0.67232973       0.48864796
H       -5.82175807       1.90657770      31.82502302       0.11855653      -0.23205477       0.31249863
H       -4.33975317       2.26217765      32.57962031       0.10063413       0.36171510       0.26706396
O        3.81151346       0.86579387      -0.23497843       1.24232060      -0.20084078      -0.04207863
H        3.48192538      -0.04595729      -0.35132775      -0.03230903       0.11338326      -0.01084226
H        4.30878843       0.98590691      -1.12202334       0.40674483      -0.07478756      -0.11558726
O       23.20914461       3.23100425      11.65985752      -0.62186695       0.26639734       0.57226475
H       23.30614224       3.60322837      12.64535267       0.21573584      -0.19345358      -0.31477012
H       23.71522951       2.44646529      11.80497409      -0.31591296      -0.14478105       0.11961965
O       -1.42963637      31.83850088      15.03754873      -0.01358147       0.73310199       0.76334841
H       -2.08865548      32.35109582      14.61178064       0.04556462      -0.15313648       0.14485885
H       -0.56825130      31.67206616      14.58386651       0.26206540      -0.38261260       0.03028677
O        4.80770410      19.39005475       5.21697273      -1.09556585       0.07716578       0.28874022
H        4.11467163      18.96779899       5.63905109       0.26899600       0.22303694      -0.29397415
H        5.66103801      18.91478461       5.22365573       0.06568287      -0.11855943      -0.01491057
O      -10.18490906      10.50444586       9.49923536      -1.57786000       0.52820815       0.04497648
H      -10.85613681      10.86483393       8.80890905       0.09379868      -0.19772869       0.44532307
H      -10.38945296      10.79819058      10.42436542       0.28186912       0.03254343       0.49237698
O       17.69234722      17.75715903      26.11346840       0.16127478       0.00464994      -1.78285599
H       18.48646743      17.21454366      26.18118067      -0.42753245      -0.05948045       0.37771407
H       16.84457394      17.25081682      26.20620976       0.12574581      -0.06475304       0.25998208
O        6.92106925      18.69340620      10.14269909      -0.54400802      -0.74086782      -0.04960055
H        7.28203451      19.25408950       9.43254889       0.10948563      -0.02735382       0.05477846
H        6.62063275      17.90787098       9.68378036       0.06117968       0.02300539       0.51645178
O       -0.64281088     -13.79903923      13.26016034      -0.58939975      -0.21883839      -0.01681932
H       -1.41515326     -14.25401283      12.85860943       0.06289131      -0.24388325       0.24353026
H       -0.15096398     -14.54843936      13.43358790      -0.03831075       0.21988251      -0.47361926
O        1.13645438       6.08236919       1.12637959      -0.24391861      -2.03446594       0.69435996
H        1.69521026       5.10810966       1.19228545       0.08367151      -0.15156387       0.13250233
H        0.98019560       6.50362715       0.23763614       0.05887841       0.40443694       0.18631644
O        3.16167120       1.30782883       8.38154264       1.01772704      -0.41791865       0.38092347
H        2.10320889       1.07156720       8.18828167       0.06331459       0.14976588      -0.00832330
H        3.40478783       1.39546037       9.25721065       0.21672520      -0.32768644      -0.10440441
O      -18.82491592      28.83802769     -16.17609298       0.57492303       0.90824268      -0.78508506
H      -18.73499173      29.04744689     -17.07758555       0.16942459       0.02409199       0.68905465
H      -18.08368740      28.35879193     -15.52165823      -0.27142283       0.50885897      -0.22664609
O        2.91706274      26.84739450      -9.08724890      -0.21381231      -1.07515612      -0.95275931
H        3.50326283      27.11818378      -8.39993069       1.08053896       0.75287010       1.15588661
H        2.12166330      26.37849829      -8.89110775      -0.44756421       0.23591466       0.07161876
O      -18.11013428      18.98580007       1.93782232      -1.16748105      -1.24523277      -0.08015843
H      -17.42638810      18.84711334       1.15736125      -0.53524857      -0.01152820       0.37240341
H      -18.97523717      18.56630580       1.86237978       0.33463479       0.38857006       0.28129104
O       11.70595037      17.56735880       7.04728121       0.05536592      -0.31605461      -0.42942589
H       12.55044116      17.28024459       6.73713382      -0.02475047       0.10314129      -0.00778123
H       11.17348037      18.21184979       6.61648176      -0.01806945      -0.15276001       0.02866858
O       -7.23264903     -11.22546924       5.16987977       0.03852060      -0.70426549      -0.42902287
H       -6.55559494     -11.24412691       4.45814099      -0.28464579      -0.01424971      -0.18309820
H       -7.40995933     -11.98101933       5.73831819       0.05498404       0.39511147       0.07860547
O      -24.15775887       3.38247364      10.70018548      -0.54726374      -0.50085803      -0.33392311
H      -24.87351049       3.93263711      10.40081530       0.12038269      -0.38588472      -0.05731558
H      -23.29302661       3.70947746      10.25087205      -0.51157211      -0.27154885       0.15219826
O      -11.42889257      -8.23363445      18.46720376       0.13431922      -0.71439986       0.28429023
H      -10.63822633      -8.53645065      18.99273538      -0.05578167      -0.03304773      -0.01160326
H      -11.44020123      -8.27290196      17.43746037      -0.08976087       0.22554987       0.09219006
O        8.56381066       7.35768799      16.90104123      -1.18104575       0.72309112      -0.35285017
H        9.48224767       7.30207128      16.86537256      -0.35570394      -0.08093308       0.23798816
H        8.15110206       6.78706546      16.23402695      -0.17097948       0.01151310      -0.23720922
O      -11.62819449      -0.47720336      20.43779954       0.26651422      -0.07185769      -0.02709337
H      -12.52534025      -0.16592255      20.71530931      -0.03514694       0.32393960       0.03178542
H      -11.82602213      -0.61362132      19.45703001      -0.09128500      -0.07798570       0.47351168
O       24.15389856       2.50031532      16.20827967      -0.53094561       0.66213450      -0.92237961
H       23.94005201       2.49867267      17.17471807      -0.01353539      -0.19828712       0.07533681
H       24.04009485       1.62755594      15.56201968       0.11809440       0.17913856       0.19297403
O       -5.67993194     -17.93753410      -5.05200151      -0.15179367       0.45726538      -1.11138580
H       -4.66602513     -17.84350075      -5.07033299       0.39496672       0.19686344      -0.38741664
H       -5.64873257     -18.73382986      -5.69622883      -0.10671088      -0.24030028      -0.24018688
O       29.43594602      -8.95563282      -6.15660717      -1.08558832       1.06909383      -0.63581357
H       30.21907434      -9.00330308      -6.63172948      -0.23594456      -0.04626640       0.57794027
H       28.97520139      -9.79780383      -5.88531762      -0.25032130       0.10668307       0.16154405
O        8.81648633      -0.66551144       3.42655822       0.32813393       0.13667329       0.46282571
H        8.30660671      -0.04831440       2.92573228      -0.20874049       0.25704974       0.00999818
H        8.37639862      -1.46077430       3.61020674       0.05157653      -0.08018372       0.00419350
O      -19.77101264      -3.13592026      24.77515537       0.13329708       0.02785502       0.23954961
H      -19.96181081      -3.95353315      24.33363927       0.43392188       0.44360503       0.46379960
H      -19.21831592      -3.42773844      25.48987534      -0.36631794       0.22048126      -0.46421718
O        2.44361541      -5.78152193      -6.02638102       1.81565684       0.64821806       0.03951515
H        2.30253242      -5.62594295      -5.01777130      -0.40418271      -0.12472515       0.32782591
H        1.94855102      -6.64362728      -6.24608361       0.07471986      -0.16834260       0.01754129
O        9.86012401       8.26913639       7.94951403       0.43124443      -0.29595048       0.14927067
H       10.45489572       8.48720157       7.25147506      -0.03952186       0.04617770      -0.17874164
H       10.03285914       7.44483564       8.39525758      -0.23493124      -0.27024739       0.02963185
O        5.37617782       9.73595255      -4.84463090       1.17388048      -0.56541821      -1.08847684
H        6.14951281       9.19763075      -4.81260401      -0.32344010       0.23003986      -0.07507818
H        4.86150441       9.70700271      -4.06183413      -0.09802535       0.02269907       0.15299542
O       13.74002501      29.44392420      15.88118348      -0.45315559      -0.63034900       0.12680789
H       12.89346833      28.95006558      15.97099893      -0.30824230       0.00351475      -0.17853678
H       14.37295539      28.73543290      15.72095388      -0.00404188       0.08328744      -0.30704619
O       -2.82753346       3.99187971       1.70591950      -0.52157989      -0.02789509       0.42293779
H       -2.35304203       3.28127769       2.39308889      -0.30211896      -0.38333273      -0.10776453
H       -2.67922947       4.92926725       1.86861213       0.09532388       0.29747721       0.05458621
O        7.82081156     -14.02298458      10.93917403      -0.05084590      -0.48165694      -0.95809844
H        6.89787771     -14.46022409      11.02054925       0.72991226       0.32627512      -0.30601571
H        8.12483065     -14.20318193      10.04693507      -0.36028190      -0.14765678       0.41909317
O       -2.49047119      10.56588280      24.31330311      -1.40842999       0.85533486      -0.50029470
H       -1.99849003      10.00285735      23.61327276       0.16734293      -0.22141061      -0.38309619
H       -3.24766164      11.13224300      24.40603195       0.24857789      -0.32047275       0.05289392
O       20.03905286      21.75649350       1.54978027      -0.86683237       0.44056653       0.36725709
H       19.96013287      22.24823609       2.36960358      -0.04969111      -0.35128029      -0.64415351
H       19.70661918      20.89279521       1.36888628      -0.05517636       0.54884513       0.19680236
O       12.18830219      10.01014265     -15.90222561       1.10339476       0.34726768      -0.12833431
H       12.65243927       9.28948766     -15.56398888      -0.02951544      -0.15793393      -0.21429882
H       12.54276378      10.12243222     -16.80196632      -0.22266389       0.08508417       0.70395723
O      -11.38694095      22.27724362       1.04618248       0.06079471      -0.65271532      -0.59536808
H      -11.81600835      21.41930114       1.00591751       0.19080352       0.84573079      -0.09043712
H      -10.89969630      22.68945874       1.75826517      -0.08107532       0.06167204       0.02294224
O        2.94586215     -15.04456503      16.09880737       0.07237884      -0.57712573      -0.69566589
H        3.29442196     -15.65277806      16.74030931      -0.08911523       0.44200035      -0.04939898
H        3.66349635     -14.42324630      15.87498652       0.01428632      -0.34799289      -0.11437619
O        2.39944652      16.31415173       0.38017642      -0.41903183      -0.40007462       1.34126573
H        1.90750886      16.33921630      -0.43822874      -0.52087564       0.16364626      -0.63066549
H        2.94138485      15.64526086       0.79301746       0.01041257       0.04141635       0.12571961
O       -5.73184470      -7.30869229       5.60206715      -1.35035548      -0.38189174       0.17436131
H       -5.20944292      -7.83110669       6.27859130       0.31903164       0.20998461       0.14933301
H       -5.15599830      -6.81952545       5.09621279      -0.20751230      -0.25393427       0.06203814
O       -2.14604164       2.41028498       6.67880637       0.11825485       1.15766638       0.25692854
H       -2.08562627       3.31083216       6.71844763       0.12428080      -0.31664406      -0.21067219
H       -1.87326050       1.76130343       7.23440554       0.19838221      -0.42795786       0.15810234
O       13.18928243      -5.51295183      -1.46271333       0.50135609      -1.92313954      -0.13338977
H       14.03537235      -5.31784615      -1.97415385       0.14858355      -0.24498143      -0.13563904
H       12.92097422      -6.41610520      -1.61838034       0.16198609       0.60903157       0.18576351
O       11.82441120       4.88228057      22.72854772       0.08259155      -0.38775782       0.00125990
H       11.23269891       4.23473280      23.03446940      -0.09821867       0.24909556       0.18612328
H       11.92973745       4.67052528      21.79670973       0.06923288      -0.15447557      -0.14452154
O        8.13928446      14.49900953      23.84266051      -1.20997953      -0.44064356       1.55489858
H        9.03842304      14.79317162      23.79826958      -0.00160414      -0.24445736      -0.18210488
H        8.12287205      13.57802764      24.06759483       0.14823822       0.69749498      -0.36225033
O       -8.04757840       6.97642750      11.41759363       0.93567470      -0.69592558       0.00540503
H       -7.29505418       6.69279180      10.80767072       0.10854517       0.02348363      -0.24085999
H       -8.38146460       6.50706522      12.23836008       0.03895545       0.15257733       0.50734345
192
Lattice="12.745375599921623 0.0 0.0 -5.290054624638302e-07 12.745375599921623 0.0 -5.290054624638302e-07 -5.290054624638302e-07 12.745375599921623" Properties=species:S:1:pos:R:3:momenta:R:3 step=120 time_fs=12.0 phase=production pbc="T T T"
O       11.67121038       0.72073253     -16.47231823       1.60652879      -0.20316942       0.05775418
H       12.20085884       1.10654877     -15.80391605       0.14193751       0.07198755       0.01266865
H       10.96264245       0.07850908     -16.50158191       0.15487921      -0.14698795       0.12827238
O       26.37939030      24.78850946       4.95795919       0.39018584      -0.02204591       1.72453387
H       26.74457303      24.07933286       4.53977167       0.03803408       0.33457753      -0.09437740
H       25.62557777      25.04100219       4.40873346       0.09865932       0.03194250      -0.11344885
O        4.54475823      -0.33433914       6.59244795      -0.23730750      -0.97076882      -1.02808747
H        5.21168625      -1.02832737       6.78141463       0.23294898       0.21752087      -0.30698161
H        4.28441823       0.24300385       7.30805564       0.12954615       0.19477724      -0.04755387
O       -2.87171370      -4.37091362       1.06529378      -0.69402495       1.08122693       0.78708382
H       -2.59601040      -3.78794391       0.34533689       0.01560465      -0.32170618       0.20057352
H       -3.77209617      -4.08687019       1.26205987       0.34511964       0.09155804      -0.34468438
O        4.31319568      15.88681723      10.70606149       0.73572545       0.52119397      -0.27474880
H        4.23092550      16.79794673      11.10908416      -0.03940635       0.40146854      -0.05631069
H        4.98497020      15.82253811      10.09888830       0.03375103       0.00145643      -0.40116476
O       -1.36148290       6.58327382       5.14311192       0.59393084      -0.94451763       0.04290645
H       -1.76639514       6.36593028       4.22924793      -0.31689676       0.18624545       0.12477018
H       -0.62284438       7.21421210       5.20718354      -0.29768822       0.12956281      -0.11213273
O       22.82986142      12.33026233       5.78343031       0.25779664      -0.08772543      -0.16581748
H       23.13430101      13.10909302       6.15948038      -0.19401604       0.16676935       0.18063010
H       22.15534992      12.12904338       5.17903395      -0.07045113      -0.04794093       0.83904107
O       -1.08045921     -15.74049495       6.78864976      -1.35627070       1.16516146      -0.51903968
H       -0.60236076     -16.15261876       6.03294592      -0.02798229      -0.12573775      -0.00924355
H       -1.40784783     -14.79727932       6.58625290       0.25088704      -0.53287034       0.16893182
O       15.47986866     -17.92275453       9.69190178       0.07295727      -0.84115226       0.55231834
H       16.14487897     -18.36144822      10.08302463       0.03095150       0.28964917      -0.24635482
H       15.63908728     -17.02571239       9.45937301       0.09373964      -0.00957096      -0.13300498
O        3.29366921     -14.64755140     -13.35699948       0.62696600       0.07263825       0.09151312
H        4.16733917     -14.81966380     -13.17047846      -0.15075670       0.28403458      -0.06966404
H        2.74285822     -15.11231257     -12.70395803       0.18667914      -0.16447296      -0.11120044
O       -5.76324068       1.61692223       2.85684765      -0.05313886       0.71797327       0.71212423
H       -6.42970214       1.09035616       2.45891422      -0.16145758      -0.14922572      -0.08557822
H       -5.47970856       2.45074089       2.58766725      -0.23726708       0.16279061      -0.03931761
O       -5.36411896      16.11135872      25.90886665       0.11576839       1.21251404      -1.34062966
H       -5.40800523      15.64577287      25.07832861      -0.11090571       0.47694667      -0.01728971
H       -4.26806827      16.07721529      26.18552507       0.16887873      -0.26613695       0.33453732
O        7.50294010     -15.68518701      -8.44366126       1.50796572       0.22339238       1.45745717
H        8.03256351     -16.44839331      -8.20104242      -0.19072363       0.34002180      -0.05163384
H        6.55938359     -15.42948136      -8.06237435      -0.14524351       0.01976331       0.00247627
O       13.66092731       8.55130018      17.98509473      -0.40405004      -0.08124945       1.16378276
H       14.04881552       8.57785946      17.12277017       0.05413587      -0.04196028      -0.53473979
H       14.23448973       8.03708336      18.51632853      -0.16375974       0.16684900       0.39041865
O       -0.15980586       1.22058374      -1.18578049      -0.89197994       0.27426884       1.05185054
H        0.77076754       1.29507659      -1.30841690       0.30400588      -0.35182610      -0.15609076
H       -0.51369708       0.41769656      -0.89424506       0.04240453       0.26564336      -0.30978639
O      -14.15155240      12.65776995      15.75094659       1.07207773       0.05856460      -1.07731957
H      -13.76539115      12.32889521      14.86533637       0.14166934      -0.05194213       0.05434778
H      -14.87862696      12.29265408      16.08558007       0.13207692      -0.02245969      -0.03605051
O      -16.36484683       5.92968863      12.30816429       1.63596183       1.05607869      -0.85434453
H      -16.90939270       5.93236660      11.47930823       0.18793586      -0.26540607       0.04120798
H      -16.18927774       7.06505791      12.30832052      -0.11361775      -0.12026059      -0.03056349
O       -9.96713641      32.88161974      -9.58316225      -0.87008760      -1.12528187      -0.27299157
H       -9.13698756      32.51513372      -9.44423500       0.16641642       0.27063571      -0.27315253
H      -10.64113823      32.36708154      -9.89285217       0.29692042       0.12591089       0.10575077
O       34.79638856      11.48288646      21.35033216       1.18221392      -0.17910940      -1.51010121
H       34.59866353      11.74380969      20.48350926      -0.05656239      -0.00069981       0.58002213
H       35.12456026      10.71521349      21.64678915      -0.10652579       0.04232061      -0.11346469
O       30.38532390     -12.61838809       2.15659378      -0.82178514       1.55592405      -0.62425818
H       29.57729935     -12.18372338       2.47200599       0.18958259      -0.18974878       0.08483450
H       30.21131463     -12.65793968       1.16219111       0.24104116      -0.01726509       0.23057695
O       17.57299191       9.28688966      -7.45344617      -0.49760482      -1.21982151      -0.70158106
H       17.24849445       8.33662944      -7.73308075      -0.13617312       0.60816468       0.12842843
H       17.47047151       9.50777084      -6.50942063       0.15507805      -0.05055147       0.00808787
O       -5.14626568       2.57435689      32.19580295       0.19776328      -0.80669316       0.42882631
H       -5.80047581       1.89234960      31.85774036       0.30511571      -0.06458211       0.39186340
H       -4.33092533       2.29665859      32.60217247       0.07391239       0.34801986       0.23220407
O        3.81937255       0.86413993      -0.23628779       1.39380887      -0.31008078      -0.38654383
H        3.47929929      -0.03217578      -0.35121279      -0.02086763       0.15877416       0.01138760
H        4.34044851       0.97852233      -1.11731226       0.24571959      -0.07488816       0.21095059
O       23.20396194       3.23288111      11.66384947      -0.62739805       0.40097444       0.93536937
H       23.32100087       3.58213848      12.60031755       0.11862334      -0.22952373      -0.58771914
H       23.68527116       2.42707162      11.81399726      -0.27190079      -0.24884291       0.07671631
O       -1.42879794      31.84068906      15.04151590       0.27979249       0.56546366       0.80610451
H       -2.08768816      32.34216419      14.61815488      -0.03462922       0.01318296      -0.00239710
H       -0.54965477      31.63570805      14.58839786       0.10682176      -0.32253829       0.08544049
O        4.80186108      19.38994153       5.21770647      -0.69335452       0.25645275       0.03595750
H        4.12570482      18.97818007       5.62146066      -0.05917275       0.00003296      -0.04824104
H        5.65919883      18.90579184       5.22140596      -0.10199032      -0.03968212      -0.02628567
O      -10.19465076      10.50739864       9.49916524      -1.75664902       0.61682893       0.14820793
H      -10.83905761      10.84240827       8.85989961       0.21788616      -0.23583303       0.58607200
H      -10.35793532      10.79864364      10.45991416       0.35237210      -0.01285049       0.23751055
O       17.69184697      17.75612781      26.10092080      -0.00963198       0.01091129      -1.82151951
H       18.44493787      17.20577757      26.21758326      -0.37663439      -0.11664348       0.40179130
H       16.86338896      17.24691920      26.23008154       0.26648922       0.00025762       0.26033798
O        6.91744493      18.68822694      10.14174730      -0.49910220      -0.57426877      -0.05338200
H        7.29027666      19.24947001       9.44119341       0.06817247      -0.04352536       0.12965305
H        6.62537330      17.90214987       9.73231457       0.03412412      -0.14276221       0.47547825
O       -0.64740670     -13.79893629      13.25891810      -0.91613789       0.00108921      -0.13549470
H       -1.40906921     -14.27176691      12.88089906       0.05255098      -0.14048971       0.22615834
H       -0.13828611     -14.54069658      13.39172397       0.30264658      -0.08159305      -0.37137219
O        1.13502433       6.06935430       1.13018098      -0.19906276      -2.09080084       0.56756109
H        1.69779731       5.10137973       1.20343710      -0.03012403       0.02086214       0.09593551
H        0.98694223       6.53772881       0.26348595       0.08075977       0.29915061       0.34197062
O        3.16678082       1.30497584       8.38211537       0.70649411      -0.48448057      -0.02902257
H        2.12048117       1.08622239       8.18939450       0.29625674       0.15161082       0.04064591
H        3.42950236       1.36430029       9.26187747       0.29232795      -0.31198060       0.20086502
O      -18.82007935      28.84144239     -16.17811984       0.64886347       0.72885742      -0.12762382
H      -18.71214928      29.05027397     -17.02791194       0.28164546       0.07762297       0.26686983
H      -18.11719171      28.41287411     -15.55299844      -0.44242231       0.63221055      -0.43632561
O        2.91611352      26.83946833      -9.09248855      -0.02424073      -0.99863666      -0.85706008
H        3.60217478      27.18629600      -8.29109393       0.91482989       0.65543524       1.01409824
H        2.07807044      26.39965642      -8.88105177      -0.42160881       0.24107285       0.11484495
O      -18.11537697      18.97726685       1.93669233      -0.85506667      -1.15172577      -0.21167988
H      -17.48810078      18.84424126       1.20208798      -0.72643788      -0.03268120       0.51433548
H      -18.94452575      18.59941401       1.88790418       0.22777092       0.28963423       0.23979339
O       11.70538474      17.56388519       7.04480825      -0.02050043      -0.49177067      -0.24329302
H       12.55214876      17.29139070       6.73076617       0.07445941       0.14520080      -0.11532423
H       11.17118855      18.20137916       6.61300564      -0.01833973      -0.03798030      -0.09392647
O       -7.23168871     -11.22879459       5.16669074       0.13228365      -0.56125762      -0.52521216
H       -6.58727358     -11.24715429       4.44322541      -0.36391615      -0.06272583      -0.12386840
H       -7.40217403     -11.94283068       5.74471249       0.09021624       0.35050229       0.07821131
O      -24.15881622       3.37926023      10.69726556      -0.26865638      -0.51876858      -0.39019535
H      -24.86503261       3.89985395      10.39252111      -0.00686356      -0.26294547      -0.10983176
H      -23.35162404       3.67854416      10.27012836      -0.66984497      -0.34246948       0.23106057
O      -11.42704799      -8.23755149      18.46745657       0.24366551      -0.70927979       0.14521539
H      -10.64771236      -8.53801350      18.98520229      -0.14247710      -0.01214893      -0.11635351
H      -11.44793724      -8.25006999      17.46118583      -0.08196788       0.22864808       0.39943459
O        8.55483357       7.36170691      16.89798402      -1.60292731       0.71701034      -0.34101117
H        9.46156874       7.29297748      16.88704950      -0.04797385      -0.09720167       0.22728885
H        8.13623758       6.78910133      16.21010376      -0.11833597       0.04739448      -0.22384775
O      -11.62660226      -0.47749516      20.43604321       0.03605822      -0.02213312      -0.12675922
H      -12.52239135      -0.13431853      20.71899080       0.08529664       0.32181646       0.06899590
H      -11.82981067      -0.62126707      19.50770806      -0.00492520      -0.08601066       0.54824530
O       24.14916366       2.50385640      16.20178985      -0.56647773       0.53359070      -0.88565655
H       23.93794234       2.47715690      17.17209825       0.00102967      -0.23691546      -0.11258904
H       24.05100816       1.65193835      15.58952598       0.13564693       0.32364619       0.38699302
O       -5.67926329     -17.93441581      -5.05926883       0.26983086       0.22155566      -1.35607002
H       -4.64150008     -17.81903572      -5.10431379       0.09092821       0.27770509      -0.31710843
H       -5.66421847     -18.74563132      -5.71133479      -0.21152512      -0.01124853      -0.06792917
O       29.42609871      -8.94890938      -6.15945546      -1.60159756       0.95952219      -0.39362385
H       30.20839368      -9.01076191      -6.58266290       0.08021148      -0.11923149       0.40851263
H       28.95737751      -9.77749557      -5.87274309      -0.08243113       0.29513480       0.08966734
O        8.81871763      -0.66413047       3.42903382       0.52241918       0.30396674       0.39637063
H        8.28108999      -0.02133724       2.92674811      -0.27845589       0.26399910       0.03663850
H        8.37252872      -1.47970451       3.61450793      -0.10461926      -0.27896867       0.07687843
O      -19.76936606      -3.13470223      24.77501921       0.01083422       0.38907299       0.15902874
H      -19.92355624      -3.92224348      24.36761298       0.31350639       0.13209367       0.22700217
H      -19.24438075      -3.40620811      25.45655471      -0.15332573       0.20036430      -0.13887693
O        2.45394640      -5.77793711      -6.02495889       1.58960351       0.40855909       0.31266141
H        2.26691743      -5.64000720      -5.00301872      -0.32003595      -0.16915083      -0.03329789
H        1.96332209      -6.64692866      -6.24086339       0.23189805       0.09565437       0.08146539
O        9.86177860       8.26677123       7.95026128       0.30652038      -0.33145574       0.23451017
H       10.45502796       8.49166573       7.23192224       0.04022381       0.04878172      -0.19606472
H       10.01109097       7.42015642       8.39527897      -0.20258942      -0.20965356      -0.02915548
O        5.38263132       9.73238553      -4.85150236       0.97718972      -0.39562400      -1.20787222
H        6.12806130       9.20992468      -4.81859854      -0.07913585       0.01042291      -0.05234260
H        4.84844866       9.70762612      -4.04167188      -0.14271297       0.00273881       0.22304382
O       13.73614413      29.43792788      15.88086165      -0.56348776      -0.76986288       0.06886707
H       12.86958123      28.95360812      15.95212388      -0.15680505       0.10281563      -0.19063501
H       14.37089847      28.74424375      15.69059814      -0.02131460       0.12710077      -0.29713605
O       -2.83032423       3.99124149       1.70876733      -0.43883894      -0.08880259       0.54122479
H       -2.38913537       3.25312281       2.37299385      -0.44090549      -0.18700395      -0.30400909
H       -2.66991675       4.94967625       1.87382536       0.08688313       0.10312841       0.05375081
O        7.81943326     -14.02535911      10.93303555      -0.18123213      -0.49716924      -0.78792046
H        6.97792650     -14.42272197      10.99065628       0.82081506       0.38184598      -0.27923076
H        8.09157282     -14.21658472      10.07973039      -0.28472107      -0.15546425       0.20051996
O       -2.49767633      10.56965816      24.30878585      -0.94915971       0.54274327      -0.53184950
H       -1.99049229       9.99097698      23.57979188      -0.01244827      -0.00437574      -0.26692476
H       -3.23354331      11.10534741      24.40457831       0.00709976      -0.19591698      -0.05087931
O       20.03287440      21.75831810       1.55128475      -0.74345486       0.56868995       0.09774083
H       19.95133566      22.21525536       2.31600248      -0.11324379      -0.26186494      -0.39036043
H       19.69597291      20.93654373       1.39086560      -0.15900624       0.32612358       0.24593509
O       12.19381806      10.01223051     -15.90200350       0.89579706       0.49902947      -0.00930414
H       12.65416066       9.26278221     -15.57729356       0.07274568      -0.37040618      -0.08312267
H       12.52124303      10.13236647     -16.73995824      -0.17241258       0.14212880       0.46860792
O      -11.38569366      22.27272177       1.04198634       0.17864071      -0.32543628      -0.74476390
H      -11.79912948      21.49154208       0.99912297       0.10130879       0.58395640      -0.05032701
H      -10.90606804      22.69155770       1.76495251      -0.06775198       0.00416541       0.11167044
O        2.94613731     -15.04681243      16.09328706       0.04315698      -0.42951263      -0.82046132
H        3.28932183     -15.61409934      16.74021217      -0.00168377       0.31001191       0.09277513
H        3.66233351     -14.45812281      15.86295858      -0.01506694      -0.36469064      -0.12220183
O        2.39659125      16.31122151       0.38848998      -0.49825416      -0.25189759       1.31837206
H        1.86018939      16.35071689      -0.49705137      -0.41320205       0.09116913      -0.51483080
H        2.94080493      15.64494967       0.80309811      -0.02084858      -0.02815665       0.08122806
O       -5.73985629      -7.31174688       5.60429881      -1.35948065      -0.74794736       0.65953718
H       -5.18688393      -7.80544107       6.28389034       0.13378775       0.30524639      -0.03356246
H       -5.16347480      -6.83243100       5.08886979       0.04585195      -0.01891226      -0.20921176
O       -2.14579812       2.41648965       6.67895240      -0.05743053       0.84102169      -0.03401586
H       -2.06733320       3.29999376       6.70265886       0.25052663       0.11285302      -0.10689569
H       -1.84735095       1.71138118       7.26205954       0.30827652      -0.53965028       0.37059303
O       13.19246826      -5.52377208      -1.46343428       0.80758055      -1.62065073      -0.11346062
H       14.03930813      -5.34478525      -1.98276349      -0.04782239      -0.30927798      -0.04368821
H       12.93272765      -6.36436629      -1.60404813       0.06438415       0.35623285       0.09443822
O       11.82484270       4.87987854      22.72681224       0.27425897      -0.31573860      -0.15522368
H       11.21298123       4.25212513      23.05737787      -0.28384236       0.11950437       0.30612182
H       11.93519647       4.65791876      21.78181066       0.05210024      -0.09691441      -0.11733458
O        8.13096628      14.49628609      23.85062803      -1.32812987      -0.09115407       1.46604462
H        9.04622264      14.77387728      23.77934657       0.15675480      -0.13455009      -0.18077709
H        8.13553627      13.63084851      24.03357864       0.11345461       0.31583782      -0.29003507
O       -8.04150803       6.97153172      11.41716288       0.88897923      -0.77446821       0.07408483
H       -7.28845151       6.69372642      10.78927372       0.01388298       0.00458491      -0.12010019
H       -8.37012244       6.52369247      12.27712072       0.18847655       0.19993132       0.28926217
192
Lattice="12.74463554471888 0.0 0.0 -5.289747459704866e-07 12.74463554471888 0.0 -5.289747459704866e-07 -5.289747459704866e-07 12.74463554471888" Properties=species:S:1:pos:R:3:momenta:R:3 step=130 time_fs=13.0 phase=production pbc="T T T"
O       11.68040754       0.71928156     -16.47185308       1.61243330      -0.25414301      -0.20435311
H       12.21599794       1.11458698     -15.79163551       0.17365106       0.08817415       0.20670393
H       10.97513771       0.06236444     -16.48564587       0.12006604      -0.17851070       0.17846527
O       26.37957291      24.78802729       4.96888604       0.16646727       0.32659348       1.91976454
H       26.75809944      24.09224293       4.52067795       0.26895480      -0.02938180      -0.28765581
H       25.63375862      25.04394752       4.39922754       0.10749193       0.05781807      -0.07124779
O        4.54322792      -0.34054567       6.58580394      -0.18773715      -1.03719326      -1.00868446
H        5.22725305      -1.00070298       6.75161636       0.10244147       0.33587229      -0.29185283
H        4.29749490       0.25959792       7.30305247       0.14502763       0.13753599      -0.05363780
O       -2.87565511      -4.36416063       1.06994321      -0.61007786       0.99691768       0.77118268
H       -2.59146704      -3.81947432       0.36427743       0.09128820      -0.30327981       0.15330146
H       -3.74317557      -4.07669558       1.23062272       0.18927810       0.12680801      -0.28647872
O        4.31688222      15.88998657      10.70452254       0.57823757       0.82225057      -0.04932886
H        4.22996542      16.82237310      11.09648023       0.02741133       0.10534265      -0.19355721
H        4.99551226      15.82167839      10.05330384       0.15316734       0.00433848      -0.48978680
O       -1.35805427       6.57691601       5.14238641       0.48664315      -1.00928946      -0.17379956
H       -1.78664931       6.38737261       4.25457942      -0.10005789       0.25757507       0.39023005
H       -0.65330892       7.22521575       5.19456325      -0.31619694       0.11551135      -0.14103368
O       22.83072223      12.32807970       5.78238250       0.49114296      -0.35385287      -0.04092278
H       23.11502696      13.13832215       6.18077887      -0.18707667       0.41822862       0.25043512
H       22.13638424      12.12449608       5.25084951      -0.31694857      -0.03844456       0.62607190
O       -1.08866055     -15.73216764       6.78459748      -1.31431040       1.18067436      -0.65259879
H       -0.60826271     -16.16001903       6.03859774      -0.09145082      -0.04601913       0.12714165
H       -1.38017448     -14.85623614       6.60299135       0.29346403      -0.62618447       0.16630725
O       15.47797789     -17.92650532       9.69406896      -0.39004511      -0.70241425       0.33620375
H       16.16958461     -18.34360252      10.07153788       0.49312304       0.05730912       0.01931343
H       15.64964147     -17.01863584       9.44551167       0.13653370       0.11467967      -0.13520083
O        3.29603093     -14.64597360     -13.35578784       0.20642130       0.16850824       0.04255972
H        4.17284413     -14.79653995     -13.17361536       0.27259516       0.17332194      -0.01003242
H        2.75980739     -15.12658413     -12.71445085       0.15881378      -0.15153316      -0.11296709
O       -5.76316391       1.62040938       2.86178110      -0.04788530       0.45605033       0.92486735
H       -6.44814155       1.07689901       2.44577847      -0.20061551      -0.10852831      -0.16517977
H       -5.50122705       2.47779386       2.57654844      -0.21695150       0.37045180      -0.17564533
O       -5.36253959      16.11799412      25.89945863       0.29879386       1.26587366      -1.20795442
H       -5.41769109      15.68982337      25.07346326      -0.09593008       0.43094751      -0.07717511
H       -4.26077557      16.05279947      26.21521120      -0.02538373      -0.21367167       0.30427989
O        7.51067374     -15.68208598      -8.43419901       1.12510593       0.52756122       1.45395639
H        8.01457517     -16.42206405      -8.20228018      -0.14433706       0.14025426       0.02940501
H        6.55923892     -15.43430394      -8.06573643       0.15366219      -0.13876446      -0.08064683
O       13.65736972       8.55050734      17.99075795      -0.46615793      -0.02152111       0.97283353
H       14.05116780       8.57328108      17.07189878      -0.01129093      -0.04827017      -0.42075339
H       14.22168767       8.04882420      18.55964794      -0.09151009       0.09552735       0.50120274
O       -0.16531716       1.22320528      -1.17964865      -0.84890072       0.61937357       0.91132578
H        0.80350588       1.25803025      -1.32342072       0.32061733      -0.40531023      -0.14564730
H       -0.51182290       0.42851285      -0.91848441      -0.01518586      -0.05841308      -0.18356766
O      -14.14234657      12.65783960      15.74222005       1.63983248       0.20302772      -1.44697701
H      -13.75909235      12.32645107      14.88084301      -0.02397632       0.01062719       0.26686924
H      -14.88504959      12.27944431      16.08698710      -0.27019186      -0.22840555       0.07789393
O      -16.35413421       5.93654521      12.30165109       1.55755755       1.29135694      -1.01567581
H      -16.88511149       5.90506665      11.49166575       0.27505169      -0.28865344       0.20464337
H      -16.20019945       7.04088145      12.30620973      -0.12855466      -0.36652296       0.00360234
O       -9.97167172      32.87424395      -9.58389530      -0.77442105      -0.65417042      -0.13960187
H       -9.10917557      32.53151873      -9.46855310       0.37846770       0.11102321      -0.23977821
H      -10.62694067      32.36110882      -9.89086585      -0.02471326      -0.21771714      -0.08060236
O       34.80126521      11.48241225      21.34060458       1.08164795       0.21850593      -1.21349462
H       34.58944931      11.74374999      20.52452116      -0.10259947       0.02571835       0.24864810
H       35.12037723      10.69678025      21.63699534       0.05597320      -0.39727045      -0.06509264
O       30.37817304     -12.60809213       2.15187671      -0.90032239       1.54531875      -0.84285665
H       29.59432050     -12.20043732       2.48212774       0.16738111      -0.15293334       0.13603599
H       30.23633635     -12.65737413       1.19552298       0.30027293       0.01145116       0.41576240
O       17.56860077       9.27833399      -7.45711234      -0.58664799      -1.35658675      -0.62923524
H       17.23996632       8.40657349      -7.71450118      -0.02947679       0.80094738       0.23631215
H       17.48612481       9.49949455      -6.51606313       0.18543320      -0.11063758      -0.14734089
O       -5.14521984       2.56904865      32.19650884       0.06876393      -0.84684032       0.42243050
H       -5.76343724       1.89118456      31.89672789       0.43204706       0.01951194       0.43721884
H       -4.32503489       2.32952633      32.62090858       0.04216330       0.32734178       0.19071048
O        3.82823225       0.86206015      -0.23960594       1.56398370      -0.33635329      -0.68270961
H        3.47643802      -0.01774023      -0.34931560      -0.04031222       0.12150090       0.02589890
H        4.35644632       0.97150208      -1.08177167       0.09496341      -0.06548869       0.50346319
O       23.19882131       3.23526160      11.66947607      -0.60958991       0.39342961       1.04378544
H       23.32794519       3.56140971      12.53727203       0.06412922      -0.16347046      -0.61800317
H       23.65869158       2.39918529      11.81805548      -0.25167836      -0.30842012       0.01771636
O       -1.42601475      31.84178972      15.04565153       0.58629527       0.40343479       0.81723278
H       -2.09462835      32.34925888      14.61009109      -0.09832170       0.15922135      -0.13558245
H       -0.54841078      31.60609921      14.59938146      -0.08205389      -0.24589984       0.15812644
O        4.79861148      19.39100575       5.21682511      -0.30319329       0.45321838      -0.21170607
H        4.10262370      18.96577374       5.62889717      -0.38896501      -0.21834906       0.19489552
H        5.64099503      18.90473539       5.21787227      -0.25490014       0.03505290      -0.03948862
O      -10.20472451      10.51052236       9.50053340      -1.66271281       0.57131080       0.52271557
H      -10.82082015      10.82192354       8.91414454       0.09320068      -0.14676028       0.49078503
H      -10.32013015      10.79449639      10.46874855       0.40739563      -0.05752739      -0.04036908
O       17.69017769      17.75548584      26.08805621      -0.18595945       0.12972275      -1.87866422
H       18.41494989      17.18759119      26.25680066      -0.20632445      -0.23989986       0.43492243
H       16.89054068      17.24734101      26.25401838       0.28614557       0.01879043       0.26379638
O        6.91416808      18.68432952      10.14103877      -0.44287894      -0.34703967       0.02243425
H        7.29478008      19.24373632       9.45561738       0.03603966      -0.04917904       0.17044508
H        6.62571792      17.87580476       9.77370994      -0.01669800      -0.37403337       0.38480838
O       -0.65369283     -13.79767566      13.25710132      -1.10212499       0.10585589      -0.19209062
H       -1.40656237     -14.28077195      12.90045287      -0.01240321      -0.06736214       0.18600024
H       -0.09491500     -14.55816303      13.35846549       0.55382236      -0.24743861      -0.30395056
O        1.13391409       6.05597553       1.13332667      -0.13687045      -2.15904833       0.49360833
H        1.68884765       5.11191692       1.21067010      -0.15313595       0.20352761       0.05336817
H        0.99558587       6.56140457       0.30259630       0.09564314       0.20022007       0.44717183
O        3.17005341       1.30175724       8.38059114       0.43025581      -0.53804750      -0.26409395
H        2.16150449       1.10098035       8.19522110       0.55252835       0.15277894       0.08869335
H        3.45970854       1.33399686       9.28927387       0.31770628      -0.31100997       0.32702289
O      -18.81509737      28.84377206     -16.17581665       0.55656349       0.61191051       0.50810306
H      -18.67704044      29.05983034     -17.02624234       0.42011130       0.15068894      -0.23853141
H      -18.16402358      28.47600341     -15.60184460      -0.48138963       0.66448863      -0.53688591
O        2.91633247      26.83201611      -9.09639232       0.18137277      -0.90218262      -0.51889871
H        3.67785854      27.24012347      -8.20529455       0.58357891       0.44688823       0.67142067
H        2.04525012      26.42509697      -8.86819750      -0.21455577       0.32605096       0.13920279
O      -18.11882879      18.96977610       1.93580924      -0.66919126      -0.91219270       0.03887546
H      -17.55526167      18.83640636       1.24505199      -0.60042874      -0.11874677       0.28747880
H      -18.93473700      18.61795621       1.90877365      -0.06491137       0.10890532       0.19427750
O       11.70438360      17.55932908       7.04341886      -0.08018038      -0.65199359      -0.08785958
H       12.56232277      17.30670825       6.71446169       0.13735560       0.19178691      -0.20499336
H       11.16907877      18.20160309       6.59811883      -0.00497997       0.05411604      -0.19500912
O       -7.23040927     -11.23081928       5.16275319       0.12369645      -0.30042301      -0.65519844
H       -6.62339925     -11.25542430       4.43107839      -0.36906682      -0.12225993      -0.13936897
H       -7.39253045     -11.91507138       5.75578292       0.09630216       0.19358251       0.16377489
O      -24.15891117       3.37528329      10.69458717      -0.28427118      -0.73879104      -0.24904774
H      -24.87570618       3.88313481      10.37718378      -0.24619846      -0.07415919      -0.19289356
H      -23.40778942       3.64694327      10.28796017      -0.44353106      -0.27793499       0.11120943
O      -11.42476976      -8.24131080      18.46705086       0.26173926      -0.66302232       0.10499910
H      -10.66226868      -8.53858561      18.96904835      -0.15127318      -0.01446959      -0.18456283
H      -11.45458207      -8.22831498      17.50760279      -0.06569028       0.20394947       0.52576229
O        8.54316144       7.36559156      16.89479171      -2.01559741       0.68418724      -0.38564552
H        9.47000175       7.28240607      16.90782501       0.20409015      -0.10920190       0.21914992
H        8.12821762       6.79676075      16.19021581      -0.03151436       0.12169242      -0.15859469
O      -11.62632555      -0.47729235      20.43449088      -0.15423583       0.08859530       0.05612484
H      -12.50708816      -0.10348907      20.72660535       0.21210913       0.31014919       0.11280718
H      -11.82717468      -0.63194202      19.55135810       0.03571041      -0.14244693       0.31838269
O       24.14413676       2.50659374      16.19551301      -0.61260911       0.42029600      -0.85709323
H       23.93766824       2.45269884      17.15143196       0.02053257      -0.26195659      -0.28181122
H       24.06377713       1.69007258      15.63483035       0.15233600       0.44972755       0.55225207
O       -5.67597454     -17.93272646      -5.06810246       0.68770082      -0.00323862      -1.61626327
H       -4.64866453     -17.78839652      -5.13163654      -0.24147395       0.32585456      -0.24919574
H       -5.68831796     -18.73274199      -5.70813680      -0.28635735       0.25168430       0.12479077
O       29.41290725      -8.94267186      -6.16078253      -2.10880763       0.92333095      -0.17563715
H       30.23214816      -9.02563356      -6.55121410       0.42470198      -0.19590595       0.24151812
H       28.95452069      -9.74152237      -5.86659643       0.04490928       0.40953387       0.03572008
O        8.82134687      -0.66181844       3.43094902       0.46217613       0.41801841       0.29123259
H        8.25620962      -0.00215087       2.93611396      -0.20457643       0.11317729       0.17048679
H        8.35961453      -1.50720165       3.62232225      -0.12641993      -0.24774533       0.07700936
O      -19.76876255      -3.13035019      24.77413076      -0.18884034       0.95896488       0.01875469
H      -19.89901761      -3.93260893      24.37269637       0.17011848      -0.34200650      -0.08907867
H      -19.24289123      -3.38988656      25.46402593       0.15825918       0.13388948       0.31921524
O        2.46284798      -5.77579680      -6.02183973       1.36255520       0.19208265       0.59131724
H        2.24051908      -5.65781823      -5.02335352      -0.21620802      -0.19875320      -0.38363496
H        1.99290139      -6.62543221      -6.23015508       0.36851033       0.31878282       0.12259568
O        9.86293119       8.26404861       7.95134640       0.26746810      -0.39923072       0.25723319
H       10.45879546       8.49457784       7.21572900       0.03712773       0.01604574      -0.11380025
H        9.99197229       7.40540022       8.38755714      -0.17805321      -0.07939053      -0.12051996
O        5.38718492       9.73004505      -4.85851785       0.60160458      -0.19077834      -1.14314874
H        6.13516098       9.19717254      -4.82215877       0.22024685      -0.25339329      -0.02658890
H        4.83733841       9.70663919      -4.02426580      -0.06101897      -0.01084329       0.10168185
O       13.73147927      29.43121212      15.88027047      -0.69574738      -0.84689345       0.04464741
H       12.86193318      28.96611966      15.93212408       0.01092988       0.18236823      -0.19941205
H       14.36746818      28.75574404      15.66115814      -0.02882018       0.13567251      -0.28945825
O       -2.83258891       3.99034221       1.71243927      -0.35305897      -0.13712762       0.69214917
H       -2.43841841       3.24549214       2.33338159      -0.57032042       0.03998159      -0.50427642
H       -2.66229135       4.94742456       1.87877476       0.06791291      -0.14003023       0.04978440
O        7.81882113     -14.02677011      10.92856768       0.21041606      -0.18814388      -0.46129416
H        7.03629540     -14.39386093      10.96674881       0.30415606       0.15455618      -0.19401960
H        8.07097802     -14.23342561      10.07775249      -0.12787778      -0.20889035      -0.23361990
O       -2.50162940      10.57119429      24.30390194      -0.38731971       0.16195131      -0.60086410
H       -2.00098946      10.00097569      23.55931849      -0.20300944       0.21919618      -0.12413825
H       -3.24884610      11.09479895      24.39387822      -0.32371806      -0.00984690      -0.13763649
O       20.02786687      21.76102607       1.55040635      -0.49932729       0.71960667      -0.37102196
H       19.93530383      22.19996413       2.30110633      -0.19286775      -0.01129910       0.10645771
H       19.67085870      20.94764002       1.41485325      -0.33755005      -0.08317195       0.24401708
O       12.19785447      10.01475605     -15.89980989       0.66560778       0.47359491       0.45284885
H       12.66233938       9.22050075     -15.58057986       0.08851634      -0.45096710      -0.01829853
H       12.51130444      10.15040931     -16.71773229      -0.01114929       0.24395674      -0.04617504
O      -11.38299667      22.27138044       1.03705041       0.50847800       0.34366047      -0.83366309
H      -11.80075468      21.52005039       0.99531719      -0.16809772      -0.00503876      -0.02934450
H      -10.91283348      22.68688069       1.77819257      -0.08893170      -0.07629490       0.15450783
O        2.94578994     -15.04817846      16.08682404      -0.11123710      -0.31524983      -0.97195128
H        3.29437494     -15.59244238      16.75879190       0.10495570       0.12037177       0.30477814
H        3.66354670     -14.48920427      15.84785125       0.05770471      -0.27658585      -0.17501399
O        2.39288147      16.30917381       0.39600975      -0.66728372      -0.10755591       1.13244317
H        1.83041772      16.35485496      -0.53183252      -0.18817930       0.01197512      -0.18360838
H        2.93652781      15.63815531       0.80805338      -0.06580493      -0.09135943       0.01703565
O       -5.74767132      -7.31678760       5.60928124      -1.26969529      -0.99375742       1.02690574
H       -5.18240146      -7.77179523       6.27233170      -0.03926084       0.36680671      -0.18472012
H       -5.15007477      -6.82523486       5.05748531       0.18861525       0.13026577      -0.39918313
O       -2.14621168       2.41977531       6.67824501      -0.09696669       0.26518419      -0.02964195
H       -2.03678833       3.33165091       6.69611629       0.36935668       0.51279761      -0.02419829
H       -1.81729539       1.66608283       7.29725284       0.28951895      -0.34836326       0.32852397
O       13.19784845      -5.53160020      -1.46380284       1.19286662      -1.02066194      -0.02695210
H       14.02570915      -5.37649849      -1.98295250      -0.20349363      -0.34328638       0.03160777
H       12.92802236      -6.35667033      -1.60117020      -0.15439701      -0.22253058      -0.03945072
O       11.82624412       4.87759972      22.72401364       0.38446927      -0.35820711      -0.31909950
H       11.18000068       4.26093791      23.08901490      -0.35302360       0.09004859       0.35238519
H       11.93759767       4.65126181      21.77413401       0.00685099      -0.03444837      -0.00427267
O        8.12239345      14.49682954      23.85782624      -1.28098136       0.55438647       1.33113781
H        9.06276498      14.76413404      23.76035919       0.16419399      -0.05604431      -0.17806466
H        8.14322748      13.62909304      24.00961846       0.05320816      -0.34031868      -0.17545518
O       -8.03575919       6.96611266      11.41722960       0.83109601      -0.85471513       0.16339102
H       -7.29176410       6.69284478      10.78335817      -0.08788253      -0.01645907       0.01075896
H       -8.34353412       6.54525575      12.29213619       0.34519467       0.24695037       0.03479326
192
Lattice="12.743903200858226 0.0 0.0 -5.289443495416289e-07 12.743903200858226 0.0 -5.289443495416289e-07 -5.289443495416289e-07 12.743903200858226" Properties=species:S:1:pos:R:3:momenta:R:3 step=140 time_fs=14.0 phase=production pbc="T T T"
O       11.68972107       0.71757150     -16.47268366       1.64700318      -0.28485339      -0.35060265
H       12.23069849       1.12180818     -15.76561304       0.12694139       0.05017835       0.28500932
H       10.98606048       0.04511814     -16.46512332       0.12452010      -0.16714580       0.22149278
O       26.37853675      24.78930644       4.98068216       0.01455680       0.50620685       1.98054046
H       26.79095951      24.07735765       4.48683171       0.40956396      -0.19568574      -0.36924212
H       25.64480152      25.04924455       4.39505011       0.15345807       0.07952687      -0.00716635
O        4.54171682      -0.34676780       6.57929930      -0.24071227      -0.97322970      -0.98970297
H        5.23401306      -0.96594276       6.72482993       0.06276445       0.35688133      -0.24383587
H        4.31217655       0.26852869       7.29585469       0.16084803       0.04249894      -0.08760861
O       -2.87861912      -4.35850645       1.07489347      -0.40612140       0.75236981       0.87504512
H       -2.57554017      -3.84284339       0.37003247       0.23855788      -0.17219287      -0.04732951
H       -3.74161500      -4.05969312       1.20735040      -0.17132496       0.22093308      -0.18943718
O        4.32019453      15.89505238      10.70382155       0.60914231       1.11004401      -0.01216548
H        4.23580354      16.81634395      11.07040438       0.09536343      -0.19657641      -0.32149971
H        5.00715075      15.82224373      10.00894592       0.06378483       0.02873036      -0.38119818
O       -1.35539064       6.57005789       5.14064008       0.36382174      -1.10312416      -0.25952506
H       -1.78686231       6.41419421       4.30028304       0.07672881       0.29103639       0.51046156
H       -0.68217521       7.23804678       5.17890900      -0.26668357       0.16744720      -0.17492022
O       22.83354698      12.32502208       5.78248518       0.86092116      -0.36960289       0.19035834
H       23.09244738      13.18143047       6.20392833      -0.26121895       0.44061720       0.21107643
H       22.08888393      12.11926869       5.29988772      -0.62465886      -0.05489269       0.39684777
O       -1.09621241     -15.72512352       6.78020071      -1.15550237       0.76502843      -0.62487664
H       -0.61867715     -16.16099855       6.05461368      -0.11145673      -0.00473687       0.19163885
H       -1.35566657     -14.90147734       6.61443466       0.18709886      -0.25360116       0.06338714
O       15.47367354     -17.92924205       9.69505732      -0.66155146      -0.53358537       0.19366961
H       16.23326606     -18.34427211      10.08200162       0.77156358      -0.05580186       0.17307719
H       15.66287434     -17.00624084       9.43335635       0.14797798       0.09232960      -0.09451724
O        3.29617250     -14.64380732     -13.35492994      -0.04660407       0.25613176      -0.00425615
H        4.21476367     -14.78334136     -13.17187998       0.53767499       0.08722104       0.02055375
H        2.77331516     -15.14070254     -12.72381213       0.12560795      -0.15656289      -0.09416578
O       -5.76329311       1.62261408       2.86754678      -0.10779363       0.32557603       0.97970953
H       -6.46424418       1.07153182       2.42920122      -0.12270708       0.00769215      -0.16034449
H       -5.52291654       2.51552376       2.55604701      -0.24325521       0.36401863      -0.22434522
O       -5.35981347      16.12512520      25.89127130       0.48910087       1.35965523      -0.96615955
H       -5.42635505      15.72603335      25.05699044      -0.08941690       0.32689322      -0.23896887
H       -4.27290264      16.03399392      26.24139212      -0.23046355      -0.15263217       0.26151086
O        7.51575731     -15.67668740      -8.42491033       0.68498312       0.93319910       1.40939505
H        8.00568707     -16.42297943      -8.19321934      -0.03088620      -0.17729533       0.14586767
H        6.58874098     -15.45454617      -8.07697259       0.45154815      -0.29001553      -0.15546622
O       13.65389437       8.54992900      17.99471455      -0.39615612      -0.01738941       0.65367524
H       14.04279237       8.56678622      17.04639197      -0.14701990      -0.07560740      -0.06741158
H       14.21265647       8.05728227      18.60807060      -0.08930048       0.09945704       0.49737748
O       -0.16972561       1.22800185      -1.17451681      -0.57229926       0.94004099       0.74084062
H        0.82551751       1.21650069      -1.33524399       0.10473282      -0.44153096      -0.09273877
H       -0.51693672       0.40695959      -0.93024430      -0.08263373      -0.35869432      -0.06735915
O      -14.13032147      12.65872150      15.73182725       1.93650173       0.30380134      -1.58757504
H      -13.76637323      12.32754061      14.91086154      -0.12476468       0.01322428       0.33455255
H      -14.92319590      12.24987881      16.09615929      -0.46985875      -0.33294447       0.10479040
O      -16.34360990       5.94497778      12.29459883       1.58595089       1.58250679      -1.01975432
H      -16.85779628       5.87484080      11.51205972       0.24238292      -0.32936880       0.19271766
H      -16.21229771       6.99194555      12.30796270      -0.13838023      -0.63845938       0.04828197
O       -9.97524321      32.86954795      -9.58375009      -0.56229308      -0.29897525       0.00141600
H       -9.06863926      32.53555497      -9.49091250       0.39935961       0.02741738      -0.23615218
H      -10.64221354      32.32233181      -9.90646819      -0.27072123      -0.51710864      -0.23772690
O       34.80593347      11.48370914      21.33338909       1.11629586       0.36043780      -0.71358695
H       34.57317644      11.74884586      20.52561345      -0.19399812       0.09472617      -0.20519944
H       35.12818794      10.64365675      21.62886218       0.12221386      -0.62357108      -0.09773575
O       30.37112761     -12.59807255       2.14656856      -0.80344798       1.47896967      -0.78871191
H       29.60204875     -12.20999417       2.49980965       0.01197664      -0.05204604       0.23361495
H       30.26436614     -12.65494937       1.23237562       0.30052890       0.01911117       0.27979521
O       17.56409823       9.26996701      -7.46023082      -0.51898151      -1.12033805      -0.52126434
H       17.23564485       8.47764166      -7.69016530      -0.07339574       0.57885112       0.22401154
H       17.50431581       9.48560177      -6.53426518       0.20806526      -0.15415578      -0.20751432
O       -5.14448195       2.56409965      32.19743284       0.10400954      -0.67785440       0.49306541
H       -5.72047429       1.88956046      31.93673328       0.41338197      -0.08757488       0.40811026
H       -4.32182826       2.35970547      32.63564551       0.02210785       0.29248373       0.15171019
O        3.83798198       0.86002405      -0.24424879       1.65474164      -0.30985411      -0.78187400
H        3.46993487      -0.01100757      -0.34635917      -0.09254439       0.00894982       0.03326162
H        4.36197330       0.96649786      -1.02496385       0.05643601      -0.02896344       0.60947475
O       23.19375333       3.23679848      11.67441127      -0.61021431       0.12987720       0.72641415
H       23.33349959       3.55525491      12.49267599       0.08958234       0.06244108      -0.22725364
H       23.63231856       2.36942883      11.81551631      -0.26695091      -0.28469876      -0.05850634
O       -1.42172669      31.84210604      15.04969489       0.75203726       0.30937081       0.77295379
H       -2.10339988      32.36617086      14.59280755      -0.06644796       0.20678466      -0.18648722
H       -0.56476785      31.58413536      14.61726583      -0.24484326      -0.16938530       0.22174115
O        4.79694781      19.39311380       5.21480759      -0.22051858       0.57613779      -0.31309777
H        4.05717292      18.93849486       5.65408464      -0.48395741      -0.28297667       0.29478612
H        5.61176328      18.90882618       5.21322382      -0.31890820       0.06042837      -0.04927404
O      -10.21342166      10.51294509       9.50475201      -1.34079313       0.40058241       1.02469894
H      -10.82628320      10.81573650       8.94841523      -0.23528591       0.04028475       0.20807887
H      -10.27799370      10.78679526      10.45288278       0.44221106      -0.08252547      -0.25314376
O       17.68781854      17.75569415      26.07483503      -0.21959727       0.25885005      -1.93588265
H       18.40188443      17.15835662      26.29882475      -0.05690859      -0.32247027       0.45202911
H       16.91317941      17.24691670      26.27883855       0.18387059      -0.01251914       0.27809940
O        6.91106817      18.68155474      10.14088407      -0.45410598      -0.24298900       0.11519268
H        7.29719323      19.23803009       9.47186767       0.02625415      -0.04238305       0.16625146
H        6.62295726      17.83053959       9.80718216      -0.02058625      -0.49704242       0.32481154
O       -0.66034636     -13.79663110      13.25516122      -1.04351260      -0.06434250      -0.18448219
H       -1.41225315     -14.28411526      12.91504501      -0.10562527      -0.02112326       0.12735005
H       -0.03798728     -14.57757583      13.32955142       0.57806757      -0.12813412      -0.27820148
O        1.13328072       6.04200757       1.13633442      -0.04279610      -2.29087855       0.52727037
H        1.66734196       5.14105227       1.21352157      -0.28812662       0.40295434       0.00523589
H        1.00496905       6.57747009       0.34744950       0.09544107       0.14581652       0.45636158
O        3.17194453       1.29824137       8.37841985       0.28508174      -0.57732996      -0.25120915
H        2.22698672       1.11559952       8.20562832       0.76813973       0.14335395       0.13183883
H        3.48818913       1.30320188       9.31638711       0.25809987      -0.31995312       0.20794594
O      -18.81188941      28.84613501     -16.17111521       0.10190572       0.72695775       0.63496895
H      -18.62847586      29.07556867     -17.06722941       0.54406845       0.19682459      -0.57967545
H      -18.19497942      28.53196563     -15.64393536      -0.12853846       0.49357821      -0.30415015
O        2.91858756      26.82564353      -9.09689195       0.64407540      -0.64855577       0.22653439
H        3.70288316      27.26364605      -8.17371414      -0.10201614       0.04884818      -0.07509878
H        2.03989221      26.46100749      -8.85279422       0.10874085       0.43825477       0.16921745
O      -18.12210203      18.96396510       1.93759274      -0.76516561      -0.62658448       0.59998774
H      -17.59351704      18.81708361       1.24699029      -0.18837297      -0.26029751      -0.26917914
H      -18.95509290      18.61898332       1.92620986      -0.36403895      -0.05904101       0.16690273
O       11.70311147      17.55400503       7.04272791      -0.10852786      -0.73711656      -0.02268349
H       12.57459895      17.32721674       6.69165835       0.11398123       0.25150669      -0.24567795
H       11.17059389      18.20725040       6.57647957       0.05840336       0.06860665      -0.22801210
O       -7.22954221     -11.23116257       5.15819752       0.01363518      -0.02736887      -0.71855445
H       -6.65582478     -11.26997998       4.41226036      -0.29722071      -0.19030414      -0.25184201
H       -7.38259716     -11.90445688       5.77623861       0.09988941       0.01469601       0.25785314
O      -24.16018964       3.36976213      10.69312685      -0.63142092      -0.97913056      -0.03008610
H      -24.90748599       3.88274427      10.35506144      -0.40451768       0.04791857      -0.23505839
H      -23.42750118       3.62654222      10.28635542       0.02758640      -0.13192077      -0.14103060
O      -11.42279096      -8.24464796      18.46713533       0.14700721      -0.57230982       0.30844822
H      -10.67194014      -8.54080555      18.94898623      -0.03747685      -0.04638459      -0.19298751
H      -11.45903477      -8.20965677      17.55027312      -0.03837545       0.17028296       0.31383055
O        8.52956188       7.36921785      16.89127295      -2.20778006       0.63266874      -0.44177451
H        9.49229022       7.27149613      16.92756122       0.21812089      -0.10173072       0.20352646
H        8.12971503       6.81224141      16.17781006       0.07187935       0.20248711      -0.07891672
O      -11.62701621      -0.47629662      20.43471813      -0.27866901       0.22568415       0.40664737
H      -12.48038718      -0.07382371      20.73853372       0.31476389       0.29957850       0.15508486
H      -11.82271405      -0.64996525      19.56145890       0.03873267      -0.22944194      -0.09519158
O       24.13894251       2.50923875      16.18941153      -0.61462926       0.55887167      -0.81991842
H       23.93836156       2.42526826      17.11884855       0.01467628      -0.30188657      -0.33125567
H       24.07691461       1.73242322      15.69084268       0.14034507       0.35421081       0.57291272
O       -5.67030824     -17.93220460      -5.07843870       1.03145072      -0.13852948      -1.82839223
H       -4.68629844     -17.75391384      -5.15205805      -0.51771026       0.36091467      -0.17476640
H       -5.71904302     -18.69678698      -5.68817072      -0.35092580       0.43944647       0.25966615
O       29.39748262      -8.93624907      -6.16128660      -2.28967153       1.02580235      -0.14265008
H       30.28008271      -9.04730907      -6.53087299       0.53874218      -0.25321848       0.19408416
H       28.95939205      -9.70218592      -5.86327618       0.06983943       0.35327641       0.03798487
O        8.82308430      -0.65912906       3.43224531       0.25892834       0.43148636       0.20098921
H        8.24190152      -0.00043195       2.96038164      -0.07841213      -0.07617663       0.32877012
H        8.34995731      -1.52287040       3.62790233      -0.05391875      -0.06263329       0.03898260
O      -19.76923646      -3.12321089      24.77249273      -0.30653734       1.21842537      -0.06945601
H      -19.88655415      -3.98066927      24.35123427       0.07571997      -0.57805241      -0.28435115
H      -19.21535732      -3.37720915      25.51047980       0.34253958       0.14058817       0.60810857
O        2.47057631      -5.77461479      -6.01702029       1.22893076       0.12189547       0.85096533
H        2.22474592      -5.67661604      -5.07401839      -0.10843417      -0.18348355      -0.62775241
H        2.03170131      -6.59080504      -6.21912926       0.40573080       0.33330502       0.07668663
O        9.86400859       8.26098320       7.95237108       0.27024483      -0.43272992       0.21641836
H       10.45945722       8.49311330       7.21048582      -0.01499055      -0.03823503       0.01754822
H        9.97543305       7.40330232       8.37132770      -0.14733711       0.03471142      -0.19647536
O        5.38962802       9.72866344      -4.86478056       0.33457448      -0.10849921      -0.98016081
H        6.16437547       9.16364357      -4.82342253       0.34245193      -0.39221495      -0.00710887
H        4.83817789       9.70444926      -4.02469011       0.08834306      -0.02225156      -0.12236847
O       13.72610114      29.42431944      15.87963057      -0.78336459      -0.82993534       0.04756757
H       12.86800196      28.98407380      15.91176261       0.10922460       0.20790115      -0.19765877
H       14.36426735      28.76598181      15.63209325      -0.01716177       0.10283377      -0.29014610
O       -2.83441350       3.98896913       1.71700114      -0.31310410      -0.24148578       0.80041074
H       -2.49844927       3.25999069       2.27656367      -0.64839574       0.24081217      -0.63301446
H       -2.65535118       4.92524144       1.88360768       0.08094819      -0.27388642       0.05725238
O        7.82172259     -14.02589320      10.92577565       0.88124492       0.19201813      -0.29126346
H        7.02826847     -14.39468447      10.95182374      -0.45049138      -0.18152776      -0.09860982
H        8.06413492     -14.25447080      10.03788925      -0.01378276      -0.22698695      -0.52683494
O       -2.50238968      10.57064496      24.29862012       0.05401504      -0.11215561      -0.65978074
H       -2.02904360      10.03175394      23.55288893      -0.36892224       0.41759715       0.01806578
H       -3.29256943      11.09932414      24.37509895      -0.54127627       0.09072257      -0.21888439
O       20.02435613      21.76444077       1.54657808      -0.29220403       0.77256447      -0.82494209
H       19.91153971      22.20955017       2.33492584      -0.26869105       0.21192200       0.55636743
H       19.62940909      20.92192144       1.43904455      -0.46932469      -0.37050128       0.26437191
O       12.20086383      10.01646198     -15.89455565       0.57071961       0.24740378       0.93396745
H       12.66618399       9.18053398     -15.58183675      -0.00848116      -0.33071226      -0.03782554
H       12.51693390      10.17868528     -16.74491410       0.12798974       0.34195603      -0.49154140
O      -11.37818334      22.27421847       1.03167976       0.81948155       0.94872555      -0.89715245
H      -11.82952401      21.49089700       0.99339601      -0.41074703      -0.51686760      -0.00600327
H      -10.92256544      22.67377535       1.79414619      -0.12355722      -0.16578716       0.17477105
O        2.94448699     -15.04918028      16.07974377      -0.23898777      -0.31400013      -1.00355546
H        3.30727472     -15.58561467      16.79401683       0.14785446       0.02672595       0.40643894
H        3.67402930     -14.50909249      15.82659684       0.15672329      -0.15107306      -0.24073846
O        2.38813107      16.30799193       0.40233359      -0.83392053       0.02472546       0.93462193
H        1.82373533      16.35106237      -0.53144923       0.05239559      -0.07001556       0.19104649
H        2.92731654      15.62571585       0.80582475      -0.12054307      -0.14283174      -0.06229234
O       -5.75454399      -7.32253530       5.61557914      -1.07227664      -0.96805336       1.06786703
H       -5.19075690      -7.73573958       6.25097124      -0.11353353       0.34441833      -0.21708881
H       -5.13341961      -6.81230949       5.01731199       0.11482676       0.10007648      -0.38701211
O       -2.14656002       2.41987864       6.67808016      -0.04436635      -0.11667977       0.10914166
H       -1.99682861       3.38922775       6.69624636       0.43378753       0.59648980       0.02952380
H       -1.79217627       1.64687218       7.32260859       0.22315506      -0.04198610       0.19970592
O       13.20530813      -5.53598738      -1.46352839       1.43684036      -0.57766782       0.09441911
H       14.00172399      -5.41025258      -1.97858308      -0.24326097      -0.35137216       0.03731785
H       12.90222908      -6.40230421      -1.61094769      -0.33919869      -0.65815506      -0.15433245
O       11.82794790       4.87468500      22.72041846       0.37489444      -0.51148861      -0.40986286
H       11.14747120       4.27302166      23.12016414      -0.28316461       0.17679570       0.30116253
H       11.93456793       4.65040137      21.77908727      -0.05605358       0.01962505       0.12711614
O        8.11457831      14.50104436      23.86430219      -1.09553557       1.01442730       1.23704707
H        9.07232724      14.75950134      23.74252338       0.02219360      -0.03065782      -0.15642375
H        8.14522215      13.57061000      23.99480671      -0.00085027      -0.75878050      -0.11540312
O       -8.03036536       6.96033736      11.41779151       0.77769374      -0.88229999       0.22224746
H       -7.30351771       6.68915236      10.78951622      -0.15267256      -0.05562768       0.12317540
H       -8.30281262       6.56977955      12.28429519       0.47358751       0.25371368      -0.16270245
192
Lattice="12.743158060867133 0.0 0.0 -5.289134220006947e-07 12.743158060867133 0.0 -5.289134220006947e-07 -5.289134220006947e-07 12.743158060867133" Properties=species:S:1:pos:R:3:momenta:R:3 step=150 time_fs=15.0 phase=production pbc="T T T"
O       11.69934310       0.71574537     -16.47398674       1.71347890      -0.29440329      -0.37063907
H       12.23680265       1.12241317     -15.73844447       0.00407875      -0.04293624       0.23638922
H       10.99941703       0.03123234     -16.44095399       0.16798340      -0.11168857       0.25283140
O       26.37701411      24.79079368       4.99220752       0.01469721       0.41467913       1.84376633
H       26.82923468      24.06043919       4.45454598       0.38486653      -0.09081688      -0.26278724
H       25.66072573      25.05624857       4.39746739       0.19941843       0.09257824       0.06075756
O        4.53950460      -0.35222984       6.57283975      -0.40881506      -0.80088473      -0.99400058
H        5.24288048      -0.93469555       6.70431448       0.14362928       0.26755858      -0.16558186
H        4.32823449       0.26779539       7.28527653       0.17271730      -0.05443827      -0.11728502
O       -2.88050299      -4.35430367       1.08057740      -0.29511742       0.56226588       0.98445879
H       -2.54511938      -3.85330179       0.35605486       0.37125862      -0.06194725      -0.21600030
H       -3.77233167      -4.03411893       1.19256797      -0.41653998       0.28595554      -0.12207116
O        4.32406941      15.90139858      10.70279252       0.74494985       1.21216111      -0.14385651
H        4.24737948      16.78755247      11.03493646       0.14224985      -0.32824325      -0.37479404
H        5.00494275      15.82573864       9.98085698      -0.10624337       0.06241003      -0.17637306
O       -1.35318392       6.56265222       5.13922101       0.35732231      -1.17546776      -0.05590332
H       -1.77663238       6.44113665       4.34301846       0.10101302       0.25823031       0.31818156
H       -0.70381580       7.25860049       5.16007350      -0.17647524       0.26545980      -0.20216229
O       22.83836335      12.32242905       5.78394787       1.09380882      -0.23019424       0.37414966
H       23.06020915      13.21673654       6.21824360      -0.37363420       0.28065953       0.08186757
H       22.01788889      12.11340027       5.33185173      -0.75481610      -0.04108780       0.29588111
O       -1.10273943     -15.72121520       6.77639609      -1.00211976       0.21334993      -0.46962595
H       -0.62753654     -16.16126583       6.07197834      -0.05950806      -0.02934914       0.15585329
H       -1.34538042     -14.89733070       6.61335385       0.02326131       0.32692352      -0.07911676
O       15.46890956     -17.93116326       9.69568025      -0.54013175      -0.44520924       0.21476440
H       16.30451625     -18.34510345      10.09711315       0.65436844       0.04230834       0.12277747
H       15.67560468     -17.00290093       9.42734697       0.12692730      -0.05805738      -0.01295876
O        3.29575644     -14.64123405     -13.35414981       0.02176363       0.29594468       0.01368604
H        4.26542958     -14.77658085     -13.17001784       0.45590931       0.03831143      -0.00622016
H        2.78492812     -15.15521367     -12.73164019       0.11913875      -0.15928812      -0.08284078
O       -5.76385814       1.62458677       2.87321305      -0.18814544       0.37080348       0.90501988
H       -6.46945531       1.07915025       2.41585300       0.01342178       0.15204157      -0.10531870
H       -5.54925636       2.54162906       2.53554036      -0.30781629       0.15030593      -0.18148832
O       -5.35592672      16.13275494      25.88452799       0.67317122       1.42245837      -0.75497342
H       -5.43457653      15.75228344      25.02497605      -0.08534152       0.23964371      -0.37058497
H       -4.30545758      16.02123641      26.26260513      -0.44337168      -0.08987933       0.20272748
O        7.51874469     -15.66909488      -8.41601596       0.50591867       1.20033563       1.31494308
H        8.00518127     -16.45131115      -8.17409741       0.00929558      -0.39235744       0.22625630
H        6.64088215     -15.48716829      -8.09283788       0.57253082      -0.38447315      -0.15903686
O       13.65100578       8.54920996      17.99682745      -0.28500949      -0.05835634       0.39528228
H       14.02127061       8.55775934      17.05703174      -0.27175308      -0.09761014       0.29729389
H       14.20095723       8.06891469      18.65193588      -0.13873394       0.15418975       0.41549970
O       -0.17234843       1.23407460      -1.17031165      -0.30046114       1.00859145       0.61836613
H        0.82107284       1.17274961      -1.34066116      -0.19868781      -0.44971983      -0.01875729
H       -0.52507128       0.36672739      -0.93406181      -0.06773003      -0.41412203      -0.02808481
O      -14.11789338      12.65990404      15.72165064       1.78288619       0.31660855      -1.37187953
H      -13.77806341      12.32471022      14.93692846      -0.11289925      -0.07387139       0.17651128
H      -14.96314255      12.21931631      16.10076564      -0.32522414      -0.25709865      -0.00816520
O      -16.33257033       5.95528453      12.28802679       1.70539501       1.84749154      -0.86923192
H      -16.83962782       5.83942704      11.52238597       0.09764212      -0.39224319       0.01461594
H      -16.22500734       6.91666286      12.31410221      -0.13749974      -0.85514548       0.09046724
O       -9.97749549      32.86612093      -9.58296197      -0.38397009      -0.25103377       0.04931771
H       -9.03734375      32.53623266      -9.51414600       0.20686460       0.03919601      -0.25284613
H      -10.67015556      32.26386724      -9.93202015      -0.26769299      -0.59734439      -0.27373519
O       34.81113412      11.48490569      21.32935331       1.24410938       0.21469619      -0.22529405
H       34.54812308      11.76022216      20.48564776      -0.26928966       0.14415270      -0.54959652
H       35.13627806      10.58423049      21.61212300       0.07240125      -0.54128677      -0.23006360
O       30.36488592     -12.58844371       2.14247849      -0.65803276       1.42535510      -0.47832446
H       29.59301939     -12.20918726       2.52700495      -0.14950856       0.04749261       0.31841557
H       30.29014763     -12.65279888       1.24141941       0.26185124       0.00857825      -0.11092629
O       17.56042374       9.26401074      -7.46275631      -0.32804667      -0.61655727      -0.45762018
H       17.21898105       8.50783766      -7.67412818      -0.26702358       0.01535638       0.08149409
H       17.52458213       9.47072484      -6.55021642       0.22872885      -0.12896178      -0.10204326
O       -5.14311530       2.56077967      32.19890771       0.25080221      -0.34020937       0.60190946
H       -5.68661132       1.86861268      31.97082284       0.26229319      -0.35394245       0.32606060
H       -4.31943584       2.38603457      32.64707947       0.02517450       0.25108549       0.12383725
O        3.84763167       0.85804967      -0.24848294       1.52199177      -0.33358781      -0.55412677
H        3.45812437      -0.01579697      -0.34290193      -0.14035733      -0.09690653       0.03712308
H        4.37450724       0.96732482      -0.97407166       0.24181938       0.05403781       0.38442402
O       23.18862709       3.23622742      11.67676646      -0.61571861      -0.25557084       0.27486593
H       23.34401620       3.57481771      12.49571863       0.15503701       0.33698668       0.29107737
H       23.60330118       2.34557375      11.80504318      -0.30156004      -0.19449997      -0.14121659
O       -1.41702776      31.84207489      15.05336433       0.71527683       0.30264725       0.71347729
H       -2.10460843      32.38297774      14.57433447       0.04916744       0.16750576      -0.16704324
H       -0.59284667      31.56866185      14.63921771      -0.30775280      -0.11678949       0.23318600
O        4.79454121      19.39562949       5.21273853      -0.52160984       0.60510230      -0.24221962
H        4.01687431      18.91420115       5.67997584      -0.30809599      -0.17493107       0.22356464
H        5.58234138      18.91174175       5.20773606      -0.25705517       0.00788134      -0.05696077
O      -10.21995205      10.51411627       9.51164125      -0.99348832       0.17744630       1.34530143
H      -10.86554937      10.82851928       8.95386077      -0.56775481       0.22768402      -0.06873182
H      -10.23334052      10.77871683      10.42385189       0.45889070      -0.05952934      -0.29223677
O       17.68578549      17.75633359      26.06137225      -0.08446278       0.25861043      -1.93975304
H       18.39738944      17.12716290      26.33995118      -0.03597388      -0.27301175       0.41204757
H       16.92330134      17.24283057      26.30516961       0.04662811      -0.04594796       0.29191307
O        6.90760112      18.67871449      10.14125107      -0.55435841      -0.35489737       0.19849854
H        7.29989678      19.23401931       9.48554582       0.04236645      -0.01330334       0.12023436
H        6.62269558      17.78537322       9.83833803       0.02784168      -0.37665963       0.33408798
O       -0.66617432     -13.79714460      13.25335657      -0.85637426      -0.37632121      -0.14704126
H       -1.42628299     -14.28365578      12.92386289      -0.17724098       0.01197259       0.07152128
H        0.01283930     -14.57729629      13.30244183       0.44731858       0.12414343      -0.26134108
O        1.13323655       6.02711657       1.13988220       0.03430838      -2.42496730       0.66517261
H        1.63327254       5.18846113       1.21130680      -0.39248864       0.54892457      -0.05007562
H        1.01372047       6.59058636       0.38851510       0.08520096       0.13782580       0.37331886
O        3.17400813       1.29466765       8.37686159       0.53316326      -0.54526890      -0.07538161
H        2.29981691       1.12670332       8.21852663       0.64934730       0.07102107       0.13118665
H        3.50796706       1.27154526       9.32513169       0.14732015      -0.32746327      -0.02579367
O      -18.81184104      28.84972928     -16.16749314      -0.43713694       1.01095823       0.15011969
H      -18.57267026      29.09027579     -17.12195437       0.55929184       0.11783563      -0.48880929
H      -18.18033384      28.56551715     -15.65342376       0.41979034       0.22667859       0.10104811
O        2.92398118      26.82103336      -9.09278855       1.15024896      -0.35031639       0.86758153
H        3.66000860      27.24734370      -8.21614608      -0.71581650      -0.32311101      -0.74162579
H        2.06200006      26.50527300      -8.83335111       0.30298802       0.48413209       0.22403896
O      -18.12617548      18.95978422       1.94281286      -0.88610422      -0.39469246       1.08181144
H      -17.59301821      18.78376216       1.19507428       0.12515578      -0.39009002      -0.73471484
H      -18.99980144      18.60592367       1.94063333      -0.54564831      -0.17437251       0.12786676
O       11.70178195      17.54845104       7.04213702      -0.09427781      -0.72174171      -0.04826093
H       12.58078093      17.35380746       6.66734722       0.01999020       0.31390805      -0.23905723
H       11.18053631      18.21046849       6.55523265       0.16329132       0.01029043      -0.19076003
O       -7.22943732     -11.23001323       5.15347102      -0.11277112       0.16769011      -0.71411138
H       -6.68025311     -11.29089384       4.38139913      -0.21647794      -0.24868803      -0.36725548
H       -7.37159664     -11.90842351       5.80332796       0.12132791      -0.09119593       0.28926563
O      -24.16415039       3.36319999      10.69279146      -1.11058979      -1.06241017       0.09904852
H      -24.94463047       3.88734872      10.33306345      -0.35222697       0.03025083      -0.19122707
H      -23.40192448       3.62021332      10.26031851       0.42780442      -0.00449902      -0.35991732
O      -11.42181058      -8.24735081      18.46896045      -0.04890933      -0.46628395       0.64446680
H      -10.66517107      -8.54745467      18.93086180       0.17006685      -0.10198987      -0.15445036
H      -11.46073214      -8.19392470      17.56013914      -0.01029789       0.14368001      -0.10148766
O        8.51553803       7.37251285      16.88749384      -2.16935779       0.58545067      -0.45584226
H        9.50455850       7.26252841      16.94509007       0.02216998      -0.07021174       0.17465592
H        8.14066297       6.83451681      16.17172041       0.15524152       0.25393669      -0.03831412
O      -11.62831621      -0.47455328      20.43691720      -0.36216611       0.32007760       0.66062108
H      -12.44585656      -0.04480267      20.75400481       0.36966701       0.29778437       0.18448452
H      -11.81827555      -0.67594869      19.53399661       0.04116711      -0.29607200      -0.40246082
O       24.13394163       2.51384490      16.18352385      -0.54781554       1.01283980      -0.80093779
H       23.93627829       2.39360622      17.09385004      -0.03356722      -0.34079662      -0.12423243
H       24.08813120       1.74747395      15.73685287       0.12153517      -0.07243620       0.36618299
O       -5.66307569     -17.93190071      -5.08953407       1.16558618      -0.05698915      -1.83183237
H       -4.74196692     -17.71512583      -5.16521294      -0.57399085       0.42367794      -0.10495917
H       -5.75645816     -18.65320667      -5.66317655      -0.42894152       0.37469835       0.20167803
O       29.38225553      -8.92881620      -6.16222916      -2.05599845       1.23589622      -0.30460090
H       30.32327929      -9.07218834      -6.50853519       0.34291245      -0.25856515       0.26946458
H       28.96156818      -9.67690956      -5.85614391      -0.00200956       0.13489248       0.11114724
O        8.82353253      -0.65661758       3.43313811       0.06990838       0.35637320       0.17046302
H        8.23866956      -0.01524567       2.99823840       0.00612570      -0.20944358       0.43649964
H        8.34869319      -1.51837397       3.62924968       0.03730839       0.15099154      -0.00720130
O      -19.76983091      -3.11610164      24.77067818      -0.23855689       0.97887981      -0.03277849
H      -19.87916598      -4.03075131      24.32292363       0.06330224      -0.40242688      -0.23148283
H      -19.18299455      -3.35923754      25.56706471       0.26221202       0.23082200       0.53216401
O        2.47810255      -5.77318255      -6.01121716       1.30934788       0.26089121       0.85790976
H        2.21661061      -5.69100128      -5.13369858      -0.07754436      -0.10976726      -0.52535101
H        2.06709687      -6.56907798      -6.21755002       0.30554967       0.06976448      -0.06133296
O        9.86507267       8.25798151       7.95300583       0.25684390      -0.36753636       0.13899060
H       10.45478750       8.48608426       7.21790683      -0.06340575      -0.09427840       0.13608822
H        9.96268142       7.40814079       8.35001340      -0.09913892       0.05214359      -0.22004134
O        5.39118939       9.72722594      -4.86999747       0.31650971      -0.19706079      -0.82277383
H        6.19329421       9.12552591      -4.82345746       0.22757657      -0.35535626      -0.00215932
H        4.85352761       9.70134306      -4.04715433       0.22317993      -0.02897215      -0.33034656
O       13.72054912      29.41781891      15.87903868      -0.73685667      -0.71237923       0.06258437
H       12.87679839      29.00052432      15.89215222       0.05776300       0.14964017      -0.18423554
H       14.36272453      28.77203966      15.60266730       0.00214035       0.05719249      -0.29481804
O       -2.83646411       3.98703679       1.72152194      -0.43955512      -0.28737328       0.65623667
H       -2.56011867       3.28416816       2.21730412      -0.59666322       0.20754486      -0.53851600
H       -2.64423689       4.90102447       1.89140608       0.15208091      -0.18543936       0.11280099
O        7.82811581     -14.02330874      10.92311355       1.25375705       0.32201858      -0.41248066
H        6.95931065     -14.42167814      10.94616238      -0.84965619      -0.33923137      -0.00829920
H        8.06543829     -14.27324440       9.98353377       0.03945949      -0.16237662      -0.52874510
O       -2.50124896      10.56903265      24.29311519       0.22046711      -0.17308133      -0.65063443
H       -2.07068384      10.07895718      23.55846651      -0.47275589       0.54471397       0.10572586
H       -3.34611490      11.10619244      24.34857760      -0.52478748       0.04181491      -0.29371593
O       20.02152303      21.76769580       1.54072566      -0.29133239       0.69172450      -0.97381515
H       19.88218457      22.23170984       2.39743490      -0.29594247       0.22648164       0.64861237
H       19.58240981      20.88444761       1.46795926      -0.44457915      -0.32146769       0.33431340
O       12.20383001      10.01657426     -15.88722990       0.65935155      -0.01241484       1.07344046
H       12.65772191       9.15857449     -15.58793106      -0.15318413      -0.09801320      -0.11193085
H       12.53025760      10.21302785     -16.79809767       0.13260692       0.35558605      -0.53800408
O      -11.37209974      22.27959476       1.02590600       0.89722813       1.14128861      -0.96132814
H      -11.87201481      21.43049622       0.99449216      -0.42734091      -0.61153287       0.03014907
H      -10.93547727      22.65217860       1.81191226      -0.15416024      -0.24858386       0.18813817
O        2.94283243     -15.05048112      16.07297291      -0.21598315      -0.40325171      -0.87665169
H        3.32028268     -15.58081823      16.83014973       0.11392418       0.07135174       0.33061893
H        3.69121407     -14.51914444      15.80010862       0.18227589      -0.08971560      -0.27630114
O        2.38238414      16.30754018       0.40743435      -0.99060513       0.13429726       0.73494101
H        1.83977711      16.33963430      -0.49572069       0.27298843      -0.14241018       0.52936533
H        2.91280913      15.60905738       0.79615985      -0.17173546      -0.17764707      -0.13159972
O       -5.76030902      -7.32737053       5.62108722      -0.93438662      -0.72094088       0.79181506
H       -5.19850888      -7.70782771       6.23543874      -0.02570628       0.20092593      -0.06600413
H       -5.13083940      -6.80813875       4.98558185      -0.07699137      -0.03091635      -0.24648308
O       -2.14635467       2.41882947       6.67887409       0.08262701      -0.14086000       0.28304011
H       -1.95522134       3.43393629       6.70017672       0.40272791       0.27554220       0.05547864
H       -1.77363270       1.65756427       7.33526583       0.15313986       0.26528388       0.06457661
O       13.21325457      -5.53911428      -1.46243768       1.35032300      -0.62915283       0.23318814
H       13.98230524      -5.44358549      -1.97918616      -0.11540006      -0.33642044      -0.06769838
H       12.86621326      -6.46785116      -1.62856678      -0.35431394      -0.61440981      -0.19587572
O       11.82933079       4.87072168      22.71660398       0.29296946      -0.68205479      -0.37387160
H       11.12568588       4.29626289      23.14344523      -0.14527126       0.30715403       0.20015437
H       11.92542682       4.65376106      21.79392797      -0.11523828       0.04932579       0.18266382
O        8.10814521      14.50647051      23.87039729      -0.84131396       0.95423538       1.21111624
H        9.06331419      14.75509888      23.72771221      -0.20221544      -0.04664238      -0.11693963
H        8.14225611      13.49909358      23.98138408      -0.04969257      -0.61381274      -0.14152410
O       -8.02524032       6.95470252      11.41839965       0.74248674      -0.79708551       0.16449160
H       -7.31862657       6.68030621      10.80498369      -0.15478539      -0.12327655       0.20103881
H       -8.25190209       6.59126695      12.26434650       0.55171047       0.17804101      -0.19456301
192
Lattice="12.74236701151176 0.0 0.0 -5.28880588960445e-07 12.74236701151176 0.0 -5.28880588960445e-07 -5.28880588960445e-07 12.74236701151176" Properties=species:S:1:pos:R:3:momenta:R:3 step=160 time_fs=16.0 phase=production pbc="T T T"
O       11.70936489       0.71387365     -16.47511906       1.78766886      -0.30160854      -0.32630765
H       12.22928346       1.11273657     -15.71966990      -0.14235964      -0.15416691       0.12472661
H       11.01798501       0.02400872     -16.41421376       0.22728438      -0.03588256       0.27340147
O       26.37574827      24.79116845       5.00258204       0.12066317       0.19942038       1.63508971
H       26.86020979      24.05961942       4.43766097       0.27954278       0.10903624      -0.07285670
H       25.67890020      25.06418601       4.40555967       0.19523637       0.10369713       0.10423145
O        4.53608072      -0.35654381       6.56624420      -0.60919188      -0.62148884      -1.02650366
H        5.26311248      -0.91507787       6.69197719       0.27624735       0.13574829      -0.08029087
H        4.34477980       0.25893057       7.27324854       0.16804996      -0.11955312      -0.11198221
O       -2.88230500      -4.35063174       1.08656620      -0.37494522       0.58131960       0.95925105
H       -2.50646768      -3.85842928       0.33433698       0.39625842      -0.06989051      -0.19302904
H       -3.81162125      -4.00653469       1.18145481      -0.34456987       0.26079206      -0.11309121
O        4.32887125      15.90734207      10.70051528       0.90491070       0.99259382      -0.39405844
H        4.26180194      16.76115828      11.00014505       0.15217009      -0.13605206      -0.30437999
H        4.98647720      15.83228664       9.97327010      -0.25567985       0.08920314       0.02449953
O       -1.35050804       6.55500657       5.13969258       0.51039213      -1.16386185       0.32392550
H       -1.77114258       6.46228470       4.35525044      -0.00214837       0.18043145      -0.07579420
H       -0.71771768       7.28746789       5.13966233      -0.12279887       0.32027044      -0.20639882
O       22.84355692      12.32071400       5.78609771       1.01270028      -0.08373991       0.42527377
H       23.01744985      13.23277260       6.21879313      -0.46847124       0.06392947      -0.05911108
H       21.94946388      12.11171127       5.36201626      -0.57759918       0.02913500       0.34734747
O       -1.10856058     -15.72027963       6.77368628      -0.93138386      -0.17956963      -0.28539856
H       -0.62896110     -16.16536593       6.08235612       0.02768758      -0.06983889       0.06632916
H       -1.34903059     -14.84021567       6.59881646      -0.08213064       0.77610662      -0.20275190
O       15.46551337     -17.93261954       9.69663215      -0.24468735      -0.39829963       0.29428408
H       16.35326586     -18.33186222      10.10240690       0.35602641       0.20690558      -0.00425048
H       15.68508926     -17.01627266       9.43001321       0.08686420      -0.23227382       0.07830459
O        3.29639267     -14.63846326     -13.35309617       0.26554584       0.30794202       0.06042203
H        4.29734925     -14.77365341     -13.17234693       0.19106696       0.00360299      -0.05978384
H        2.79622943     -15.17011277     -12.73835480       0.11348748      -0.16806358      -0.06878914
O       -5.76492240       1.62711922       2.87820614      -0.27464731       0.48988574       0.77764002
H       -6.46063250       1.10097867       2.40887776       0.15604246       0.29449079      -0.03519386
H       -5.58239323       2.54223938       2.52167170      -0.37774903      -0.13503873      -0.09808132
O       -5.35089614      16.14049327      25.87860797       0.86208708       1.41164435      -0.67261884
H       -5.44199928      15.77299539      24.98645937      -0.07101432       0.21728147      -0.36045466
H       -4.35917116      16.01465094      26.27713308      -0.67126503      -0.02384302       0.12334804
O        7.52209433     -15.66065906      -8.40789686       0.81605681       1.18176961       1.15129787
H        8.00232208     -16.49006752      -8.15065057      -0.07688585      -0.38397215       0.23070667
H        6.68740999     -15.52480027      -8.10258971       0.33199077      -0.39463383      -0.03126410
O       13.64864019       8.54816589      17.99773900      -0.22916328      -0.10740772       0.30980809
H       13.99043382       8.54696117      17.09805806      -0.32331929      -0.11290024       0.52592882
H       14.18371423       8.08675043      18.68542341      -0.19440377       0.22138068       0.29082718
O       -0.17363811       1.23971510      -1.16665970      -0.14894826       0.82564686       0.55619003
H        0.78797123       1.12961769      -1.33895219      -0.46015894      -0.43038908       0.04830743
H       -0.52772500       0.33440153      -0.93802257       0.01761349      -0.22325192      -0.05992769
O      -14.10709052      12.66109631      15.71349938       1.44299070       0.32826756      -0.95492523
H      -13.78450695      12.30912437      14.93781222      -0.03411171      -0.23490712      -0.14994537
H      -14.98088829      12.20028061      16.09120977      -0.05146358      -0.11472447      -0.16854916
O      -16.32076286       5.96582731      12.28250434       1.79717197       1.60142369      -0.69158374
H      -16.83756071       5.79784930      11.51251305      -0.07153843      -0.45077476      -0.19285252
H      -16.23564794       6.84219826      12.32402227      -0.09443075      -0.56095592       0.13066911
O       -9.97900664      32.86196295      -9.58222690      -0.32272160      -0.46316082      -0.01559542
H       -9.02968908      32.54098729      -9.53880918      -0.06521853       0.10415261      -0.26360478
H      -10.68644331      32.20908488      -9.95480731      -0.06135714      -0.46397188      -0.19379615
O       34.81689017      11.48480169      21.32736577       1.31637492      -0.01482917      -0.05983149
H       34.51977862      11.77272292      20.42769306      -0.24726399       0.11006162      -0.54525086
H       35.13672439      10.54211092      21.58067375      -0.02071860      -0.29489984      -0.38755548
O       30.35918754     -12.57893157       2.14045540      -0.60537646       1.42896886      -0.15963480
H       29.57334330     -12.20145168       2.55870109      -0.19246964       0.08238866       0.31834661
H       30.31143139     -12.65144277       1.21280336       0.21240852       0.00741820      -0.43516071
O       17.55796582       9.26122251      -7.46511837      -0.13214745      -0.13872076      -0.47326033
H       17.18089601       8.47993210      -7.67341177      -0.47930392      -0.53941420      -0.06358969
H       17.54671929       9.46012177      -6.55088138       0.24683988      -0.07932124       0.07709802
O       -5.14083073       2.55957629      32.20091085       0.37449258      -0.02200185       0.69592922
H       -5.66836030       1.82101606      31.99686127       0.12080001      -0.59860427       0.25688754
H       -4.31624326       2.40858810      32.65590122       0.03283365       0.21627026       0.09754897
O        3.85589187       0.85560554      -0.25075055       1.23896963      -0.46051071      -0.19373113
H        3.44389782      -0.02671240      -0.33916651      -0.13580073      -0.10775060       0.03778816
H        4.41210866       0.97736073      -0.95430378       0.53312123       0.14985494       0.02557162
O       23.18348622       3.23348331      11.67690350      -0.57713184      -0.53951590       0.07559126
H       23.35971513       3.61613441      12.53896979       0.18395867       0.47828743       0.53878360
H       23.57066936       2.33237931      11.78733548      -0.33752428      -0.06741871      -0.20056648
O       -1.41319832      31.84215911      15.05675344       0.47259736       0.38108090       0.70636595
H       -2.09249516      32.39382294      14.55947543       0.19868527       0.09308759      -0.11644616
H       -0.61969440      31.55596531      14.65819748      -0.22053734      -0.11277229       0.16162925
O        4.78963995      19.39819119       5.21131401      -0.98746321       0.62141426      -0.11345374
H        3.99930046      18.90366867       5.69511122      -0.04342664      -0.01416062       0.09084884
H        5.56387130      18.90613324       5.20148361      -0.10793734      -0.10373579      -0.06472097
O      -10.22478846      10.51392471       9.51929340      -0.84396231      -0.00925269       1.26534661
H      -10.92897952      10.85578505       8.94014123      -0.69384041       0.32081037      -0.15532894
H      -10.18765010      10.77585721      10.40148244       0.46633994       0.02208396      -0.12637959
O       17.68473990      17.75639625      26.04805320       0.09656701       0.09717989      -1.85734738
H       18.38965380      17.10666089      26.37401874      -0.10745574      -0.11388546       0.31270070
H       16.92189633      17.23756045      26.33175766      -0.04071086      -0.02865155       0.28101381
O        6.90337069      18.67478614      10.14212937      -0.68454883      -0.54964844       0.29412798
H        7.30508130      19.23337744       9.49356635       0.07354551       0.02336805       0.05659700
H        6.62795453      17.75767109       9.87146183       0.08929182      -0.16497229       0.35774921
O       -0.67070508     -13.79966615      13.25178335      -0.62748891      -0.73077501      -0.09981339
H       -1.44480456     -14.28010228      12.92808554      -0.19343879       0.04411812       0.03460511
H        0.04636435     -14.55114954      13.27728204       0.22581942       0.39761233      -0.23716560
O        1.13316459       6.01210987       1.14449705      -0.07341280      -2.28262762       0.86828850
H        1.59714258       5.23688838       1.20362927      -0.30734228       0.38770504      -0.10549369
H        1.02177421       6.60431822       0.41786741       0.08352925       0.15583126       0.21912806
O        3.17887407       1.29153654       8.37662726       1.15089236      -0.44212940       0.16768836
H        2.34131640       1.12702479       8.22833303       0.16727581      -0.07064822       0.07396862
H        3.51629783       1.23944429       9.31002924       0.03120647      -0.32871493      -0.26449612
O      -18.81452035      28.85495986     -16.16747113      -0.75455944       1.25040943      -0.42839344
H      -18.51941875      29.09316818     -17.15372240       0.50447250      -0.02237719      -0.18145181
H      -18.11636010      28.57583377     -15.62686786       0.81191909       0.04713822       0.37901107
O        2.93205989      26.81790422      -9.08608101       1.53521746      -0.13479153       1.09188706
H        3.57662975      27.20457819      -8.30303442      -0.95360426      -0.49851480      -1.01508173
H        2.08910740      26.54855690      -8.80751817       0.22127244       0.42621109       0.29778482
O      -18.13053879      18.95637777       1.94955590      -0.89868680      -0.37293890       1.07137976
H      -17.57980688      18.74287766       1.12120638       0.07464528      -0.40247895      -0.70018130
H      -19.05032471      18.58658957       1.95090644      -0.46903962      -0.17702449       0.08865353
O       11.70061958      17.54316583       7.04118926      -0.04301533      -0.63986704      -0.12114444
H       12.57641305      17.38579115       6.64500434      -0.09061967       0.36014683      -0.20956056
H       11.20107255      18.20629447       6.53951622       0.26748231      -0.07162756      -0.12238748
O       -7.22992472     -11.22802721       5.14885170      -0.17730168       0.22967671      -0.68876517
H       -6.69919388     -11.31618531       4.34322205      -0.19410077      -0.27977959      -0.38994717
H       -7.35748402     -11.91683362       5.82848356       0.16128743      -0.07768046       0.21750163
O      -24.17041521       3.35669961      10.69264420      -1.35975694      -0.95809714       0.03213022
H      -24.96805036       3.88549222      10.31814039      -0.14438105      -0.07102800      -0.09711255
H      -23.35361377       3.62180329      10.22159576       0.46305479       0.02063555      -0.38158284
O      -11.42192398      -8.24942080      18.47272517      -0.20128079      -0.37884780       0.92451228
H      -10.63882509      -8.55920009      18.91553241       0.33794888      -0.14417780      -0.14650247
H      -11.45965269      -8.18067850      17.53100578       0.01741548       0.11556990      -0.43006606
O        8.50212982       7.37560930      16.88382487      -2.01528115       0.58216985      -0.38062624
H        9.49325569       7.25735162      16.95926391      -0.24377335      -0.02597871       0.13688923
H        8.15703945       6.85850860      16.16535001       0.18080240       0.23288878      -0.08890953
O      -11.63002954      -0.47250686      20.43977248      -0.42766902       0.31984047       0.63602220
H      -12.40852462      -0.01546514      20.77137070       0.37261132       0.30598795       0.19518382
H      -11.81237533      -0.70516810      19.49123576       0.06891847      -0.29081104      -0.39620170
O       24.12928263       2.52137840      16.17767326      -0.49053652       1.46929454      -0.76136529
H       23.92912228       2.35979356      17.09321481      -0.07682003      -0.34132622       0.10722149
H       24.09826903       1.71719809      15.75870615       0.11976017      -0.52803671       0.10850213
O       -5.65595599     -17.93035025      -5.09980954       0.99578849       0.21011202      -1.59417980
H       -4.78639162     -17.66702170      -5.17297515      -0.29825096       0.55022235      -0.06746680
H       -5.80291431     -18.63000371      -5.65497374      -0.53377018       0.05740320      -0.05861934
O       29.36902459      -8.92002077      -6.16438216      -1.65594686       1.43194170      -0.51717533
H       30.33892877      -9.09525266      -6.47673624       0.00805645      -0.22191126       0.37370987
H       28.95491193      -9.67557578      -5.84018142      -0.09198435      -0.10801618       0.20573438
O        8.82319674      -0.65489579       3.43414231       0.03511213       0.17864850       0.24292673
H        8.23754526      -0.03601815       3.04119985      -0.04715812      -0.18392686       0.42680945
H        8.35529760      -1.49533558       3.62645989       0.09845452       0.29712053      -0.03989695
O      -19.76962512      -3.11112511      24.76920793      -0.08862846       0.57211177       0.05776219
H      -19.87078272      -4.05377518      24.30699647       0.08421308      -0.06638455      -0.05695037
H      -19.16554533      -3.33166588      25.60577746       0.06470610       0.32983607       0.28417328
O        2.48666842      -5.77062367      -6.00645358       1.53815711       0.44433379       0.53751745
H        2.20559052      -5.69623570      -5.16394582      -0.15820087      -0.00193752      -0.06863237
H        2.08986105      -6.57868760      -6.23087627       0.16997856      -0.26458327      -0.21740733
O        9.86583343       8.25569135       7.95315787       0.17506251      -0.19941936       0.08223242
H       10.44761265       8.47440238       7.23372155      -0.05652040      -0.12868072       0.17992708
H        9.95536583       7.40856043       8.32938553      -0.03722104      -0.05109158      -0.18484328
O        5.39327160       9.72491871      -4.87457443       0.50211184      -0.36291409      -0.80187665
H        6.20469108       9.09591302      -4.82365788       0.00716434      -0.23440623      -0.00935954
H        4.87790010       9.69764935      -4.08371990       0.25897237      -0.03514921      -0.38774613
O       13.71566397      29.41212032      15.87846428      -0.56437755      -0.54982628       0.06750265
H       12.87346869      29.00762492      15.87399152      -0.12018086       0.02773774      -0.16871269
H       14.36234642      28.77431801      15.57293899       0.00279903       0.03113152      -0.29333343
O       -2.83971395       3.98536506       1.72443825      -0.68816615      -0.13342757       0.30408055
H       -2.61094583       3.29118111       2.17755799      -0.43563110      -0.10056547      -0.24810769
H       -2.62472821       4.89099223       1.90590636       0.24471022      -0.01766575       0.18652168
O        7.83496427     -14.02090506      10.91907027       1.07468769       0.14854790      -0.69579506
H        6.88278527     -14.44967170      10.94758614      -0.64318296      -0.22583485       0.04292792
H        8.06888321     -14.28289512       9.94011660       0.03119406      -0.05103062      -0.32897575
O       -2.49992791      10.56769979      24.28808198       0.11817210      -0.01093382      -0.45591018
H       -2.11700759      10.13196202      23.56463247      -0.45587565       0.52701748       0.00805410
H       -3.38937923      11.10339397      24.31557047      -0.34929567      -0.09313820      -0.34852604
O       20.01797017      21.77025448       1.53518787      -0.48301350       0.57553033      -0.76348313
H       19.85386567      22.24571703       2.44985838      -0.25183640       0.07890058       0.40186988
H       19.54397621      20.86261621       1.50358602      -0.30762571      -0.08442721       0.39349978
O       12.20770461      10.01523621     -15.88009591       0.85190814      -0.20576490       0.90283790
H       12.63499796       9.16079251     -15.60199180      -0.29107831       0.14783514      -0.19348494
H       12.53775396      10.24406234     -16.83761666       0.02945488       0.28664339      -0.27288823
O      -11.36623388      22.28475759       1.01980468       0.76271063       0.95105691      -1.00337598
H      -11.90425545      21.38168176       0.99885001      -0.22513219      -0.32174231       0.05828093
H      -10.95120532      22.62296782       1.82975509      -0.18126111      -0.32002231       0.17750406
O        2.94175312     -15.05229896      16.06714686      -0.05987365      -0.48737196      -0.69451482
H        3.32801230     -15.56786548      16.85336549       0.04611478       0.17881611       0.15820091
H        3.70567236     -14.52783678      15.77233709       0.10410750      -0.11910827      -0.26675711
O        2.37577054      16.30762566       0.41142622      -1.09673335       0.22079960       0.60420187
H        1.87447515      16.32175945      -0.43238468       0.41969644      -0.20305567       0.73076428
H        2.89393560      15.58961383       0.78062950      -0.21039325      -0.20011529      -0.18587050
O       -5.76547396      -7.33036565       5.62436898      -0.86539630      -0.40491995       0.39112718
H       -5.19245994      -7.69729289       6.24000675       0.14202075       0.00802262       0.16435725
H       -5.14828965      -6.81810503       4.96964902      -0.28604705      -0.18226251      -0.07337448
O       -2.14517752       2.41800646       6.68082986       0.26132193      -0.07854181       0.49191146
H       -1.91999820       3.43816488       6.70574135       0.31325996      -0.18579954       0.06506878
H       -1.76281135       1.69873366       7.33301570       0.06401367       0.57729604      -0.10606545
O       13.21992961      -5.54362464      -1.46051030       1.08427362      -0.96904590       0.36025680
H       13.97966058      -5.47507004      -1.99294055       0.07682263      -0.31850431      -0.21549838
H       12.83535269      -6.51220154      -1.64735523      -0.25338285      -0.28642253      -0.18874338
O       11.83007517       4.86583605      22.71341663       0.19009595      -0.79826178      -0.18070794
H       11.11781379       4.33196548      23.15625139      -0.00751813       0.42547599       0.09527686
H       11.91115848       4.65828062      21.80726479      -0.15970652       0.04349711       0.09355430
O        8.10317459      14.51060985      23.87633331      -0.63599408       0.68048496       1.20659316
H        9.03296303      14.74837029      23.71689222      -0.38979267      -0.06998713      -0.07775820
H        8.13476401      13.45558956      23.96372449      -0.09259728      -0.26033795      -0.18921528
O       -8.02026955       6.94999274      11.41806882       0.71030831      -0.57771905      -0.06321789
H       -7.33062385       6.66328145      10.82612184      -0.08877896      -0.22302654       0.23868223
H       -8.19593525       6.60051445      12.25230640       0.58108002       0.00773551      -0.00581149
192
Lattice="12.741496243095 0.0 0.0 -5.2884444712646e-07 12.741496243095 0.0 -5.2884444712646e-07 -5.2884444712646e-07 12.741496243095" Properties=species:S:1:pos:R:3:momenta:R:3 step=170 time_fs=17.0 phase=production pbc="T T T"
O       11.71975358       0.71193657     -16.47585431       1.85513372      -0.31480093      -0.28726888
H       12.20813244       1.09270498     -15.71169187      -0.26825905      -0.25066209       0.02527066
H       11.04188762       0.02391285     -16.38573651       0.27484848       0.03028777       0.28795353
O       26.37519971      24.78995466       5.01165750       0.29712714      -0.04453692       1.43622645
H       26.87980067      24.07858250       4.44012887       0.15927040       0.31172599       0.13015558
H       25.69342783      25.07378409       4.41579483       0.13043719       0.13229514       0.10519210
O        4.53163094      -0.36003713       6.55932600      -0.71451338      -0.54808314      -1.08464555
H        5.29349683      -0.90634675       6.68717179       0.33231385       0.05690420      -0.01369803
H        4.35961780       0.24601243       7.26422389       0.13922334      -0.13753495      -0.05473103
O       -2.88486922      -4.34631325       1.09192520      -0.52685197       0.74069748       0.79486410
H       -2.47123743      -3.86951437       0.32358483       0.30990856      -0.17264140      -0.01120406
H       -3.83288876      -3.98453473       1.16940410      -0.08146180       0.17998781      -0.13464720
O        4.33448668      15.91113867      10.69660813       1.00027687       0.59285506      -0.61793284
H        4.27542891      16.76573888      10.97670298       0.13055524       0.26508881      -0.15726588
H        4.95799854      15.84023046       9.98071461      -0.29717489       0.09083061       0.11417933
O       -1.34659260       6.54772040       5.14241674       0.73299506      -1.04908058       0.64663969
H       -1.77672908       6.47548632       4.32885917      -0.10151745       0.10301931      -0.43108346
H       -0.73039837       7.31651253       5.11974432      -0.15171039       0.26765542      -0.19295261
O       22.84742216      12.31969092       5.78826967       0.73082889       0.01043443       0.40043842
H       22.96745955      13.22893387       6.20748575      -0.51639454      -0.10784287      -0.15256665
H       21.90796110      12.11839545       5.40043121      -0.22366692       0.12918917       0.45203089
O       -1.11424196     -15.72046429       6.77170477      -0.96012841      -0.15000729      -0.23737595
H       -0.62347029     -16.17105816       6.08610301       0.07702758      -0.06361579       0.02996212
H       -1.35661245     -14.76003253       6.57602125      -0.05342892       0.76204240      -0.23747268
O       15.46389010     -17.93388169       9.69806822       0.05648033      -0.43517381       0.39493240
H       16.37116873     -18.30301449      10.09508684       0.03518171       0.35286532      -0.12901371
H       15.69082022     -17.04272297       9.44038872       0.05642650      -0.30536583       0.13823634
O        3.29863544     -14.63557361     -13.35166112       0.53581863       0.30441289       0.11122671
H        4.30105456     -14.77394790     -13.17992438      -0.10894411      -0.03043415      -0.11335839
H        2.80580592     -15.18645277     -12.74279256       0.08534777      -0.18854811      -0.04019648
O       -5.76643107       1.63032094       2.88246675      -0.33616148       0.57462144       0.69193561
H       -6.43996332       1.13502062       2.40778249       0.24153353       0.39087782       0.00579789
H       -5.62145457       2.51725665       2.51547792      -0.42515632      -0.34625275      -0.03433181
O       -5.34459691      16.14786801      25.87268749       1.06028598       1.34685009      -0.69444698
H       -5.44698390      15.79435737      24.95592121      -0.03427818       0.24908592      -0.21522384
H       -4.43701059      16.01453362      26.28185867      -0.92576979       0.04084270       0.00718219
O        7.52836552     -15.65293667      -8.40081953       1.40828618       0.96982893       0.97000929
H        7.98704511     -16.51841513      -8.13007659      -0.22865320      -0.20417773       0.17331461
H        6.69738216     -15.56068909      -8.09554117      -0.13105631      -0.36207184       0.16715543
O       13.64606975       8.54682506      17.99899955      -0.33664544      -0.13262317       0.56498161
H       13.96143312       8.53445480      17.14607704      -0.22475542      -0.13355806       0.41670817
H       14.16223028       8.11038101      18.70594606      -0.21916851       0.26933819       0.15972359
O       -0.17457797       1.24389979      -1.16322664      -0.20689813       0.56501897       0.54571380
H        0.73821768       1.08901772      -1.33241747      -0.50644121      -0.40238759       0.07343276
H       -0.52196480       0.32451451      -0.94502912       0.09268043       0.01565171      -0.07790699
O      -14.09826823      12.66219466      15.70772523       1.13171287       0.29378955      -0.61026607
H      -13.78390546      12.27885983      14.90821500       0.01561855      -0.34935517      -0.40071895
H      -14.97097624      12.19567028      16.06619084       0.23305160       0.03864179      -0.31837269
O      -16.30865544       5.97331112      12.27756062       1.75561067       0.92264340      -0.68699787
H      -16.84763289       5.75203752      11.48886939      -0.13065138      -0.47056226      -0.23708913
H      -16.24057077       6.81874925      12.33861055      -0.02842016       0.12458407       0.18996794
O       -9.98027908      32.85605009      -9.58197493      -0.32980142      -0.72891111      -0.11854060
H       -9.04812291      32.55217646      -9.56406046      -0.31166331       0.16558709      -0.26754094
H      -10.67923503      32.17121913      -9.96733343       0.19583888      -0.26427364      -0.07607467
O       34.82256382      11.48327959      21.32520981       1.29672552      -0.22196469      -0.19680542
H       34.49861082      11.77778163      20.38631802      -0.12929556       0.00474192      -0.24840143
H       35.12761785      10.52669292      21.53418620      -0.11619985      -0.00529176      -0.53281370
O       30.35326737     -12.56917082       2.13975658      -0.66120700       1.47461577      -0.06747523
H       29.55552845     -12.19363179       2.58618107      -0.11661340       0.05332668       0.24166675
H       30.32757376     -12.64871378       1.16684445       0.16256201       0.03553457      -0.45109078
O       17.55622299       9.26049055      -7.46763873      -0.08349549       0.02926555      -0.51575311
H       17.12826729       8.41311018      -7.68151533      -0.53407174      -0.73045256      -0.08509513
H       17.56992574       9.45260883      -6.53780805       0.25043733      -0.07084353       0.15373554
O       -5.13811418       2.55972306      32.20316013       0.37104158       0.08074135       0.74535692
H       -5.65758873       1.75882724      32.01872946       0.12027098      -0.62964493       0.24767755
H       -4.31318367       2.42805474      32.66144879       0.02029615       0.18723555       0.06012976
O        3.86251431       0.85219198      -0.25117182       1.03887848      -0.63205938       0.00330098
H        3.43340087      -0.03349501      -0.33596608      -0.06433702      -0.01779379       0.02416003
H        4.47308386       0.99461562      -0.96297847       0.68022619       0.19153045      -0.15365382
O       23.17866562       3.22964190      11.67697529      -0.47211396      -0.60506152       0.24853608
H       23.37412559       3.66028014      12.58548101       0.13449387       0.40583873       0.38826066
H       23.53488922       2.33275721      11.76589418      -0.35875127       0.07512839      -0.21517509
O       -1.41127872      31.84269397      15.06018810       0.11521998       0.50376263       0.75427821
H       -2.06578912      32.39665823      14.54992774       0.34267813       0.01170554      -0.06031950
H       -0.63259694      31.54118264      14.66695236      -0.03725857      -0.15036740       0.03369123
O        4.78182745      19.40067799       5.21067844      -1.43681104       0.61116949       0.02245546
H        4.00796743      18.90918716       5.69671060       0.22477052       0.15359232      -0.04992820
H        5.56007530      18.88928787       5.19446169       0.02544631      -0.20808556      -0.07204064
O      -10.22960735      10.51287430       9.52528575      -0.98704348      -0.08305660       0.87697840
H      -10.98993998      10.88522344       8.92970198      -0.54184660       0.28429184      -0.02628417
H      -10.14072976      10.78230624      10.40077162       0.48475651       0.12494189       0.12703744
O       17.68452672      17.75499945      26.03532294       0.21356984      -0.16842573      -1.69952818
H       18.37356744      17.10388394      26.39639614      -0.19565267       0.08222341       0.18033428
H       16.91579191      17.23721764      26.35515492      -0.04863126       0.05602471       0.22931586
O        6.89833258      18.66959485      10.14352966      -0.79650406      -0.71235185       0.38541570
H        7.31277858      19.23529152       9.49593913       0.08978742       0.03649728       0.01074741
H        6.63919176      17.75061434       9.90639721       0.14964548       0.03670198       0.36922736
O       -0.67381545     -13.80433857      13.25029210      -0.42065419      -1.08564257      -0.10320736
H       -1.46156712     -14.27263776      12.92906882      -0.14167041       0.09176331       0.00230111
H        0.05506921     -14.49755980      13.25445395      -0.04163518       0.67085661      -0.21315894
O        1.13192880       5.99868661       1.15039798      -0.31565212      -1.93460202       1.06900167
H        1.57735732       5.25675011       1.19062748      -0.08599409       0.01156437      -0.15913943
H        1.03015987       6.62041253       0.43066481       0.09204311       0.17838313       0.05414623
O        3.18774410       1.28909607       8.37760512       1.77585696      -0.32563821       0.29928952
H        2.33033121       1.11238669       8.23154040      -0.36780545      -0.22431120       0.00734518
H        3.51508620       1.20727894       9.27632140      -0.03871546      -0.33220059      -0.37978314
O      -18.81764166      28.86091841     -16.16986302      -0.60287098       1.30531555      -0.65558885
H      -18.47304585      29.08254677     -17.15620913       0.41416370      -0.15146316       0.10151344
H      -18.03531241      28.57666329     -15.58849918       0.75193052       0.03385114       0.33870388
O        2.94248027      26.81583443      -9.07843290       1.85901527       0.01423145       1.10287409
H        3.47573275      27.14827860      -8.41023154      -1.03256443      -0.56849785      -1.10371337
H        2.10185968      26.58414911      -8.77334705       0.02752504       0.33580040       0.39284705
O      -18.13498237      18.95242154       1.95520740      -0.97024210      -0.50592636       0.80214467
H      -17.57955808      18.70543234       1.06570667      -0.09256308      -0.33463103      -0.42967105
H      -19.08317411      18.57176879       1.95829251      -0.21563440      -0.09272099       0.06791339
O       11.69975976      17.53827709       7.03976332       0.02415456      -0.57179481      -0.17830825
H       12.56327698      17.42055439       6.62552014      -0.14637232       0.37040922      -0.18336394
H       11.22920427      18.19551047       6.52988055       0.30982416      -0.11064217      -0.07410588
O       -7.23050431     -11.22594140       5.14425986      -0.16159716       0.18741012      -0.70180613
H       -6.71958515     -11.34303915       4.30890881      -0.24453265      -0.28295087      -0.28858619
H       -7.33885074     -11.91938419       5.84257053       0.21157790       0.01668316       0.07197419
O      -24.17714293       3.35122026      10.69148535      -1.34416524      -0.74456631      -0.18279616
H      -24.96833979       3.87243840      10.31323063       0.10285746      -0.19093364       0.01102784
H      -23.31785932       3.62084049      10.19022502       0.21525072      -0.04292431      -0.23244124
O      -11.42251021      -8.25096760      18.47730432      -0.21842075      -0.31244244       0.92853381
H      -10.60264872      -8.57298917      18.89799998       0.36402372      -0.14261129      -0.19408425
H      -11.45619845      -8.17101873      17.48606837       0.03423849       0.06827061      -0.40707808
O        8.48969667       7.37881110      16.88078831      -1.85714722       0.63210667      -0.22503160
H        9.45740016       7.25640395      16.96961124      -0.45920039       0.01475760       0.10120490
H        8.17324387       6.87668974      16.14968414       0.15751125       0.14187272      -0.21815516
O      -11.63198234      -0.47073431      20.44169966      -0.46037780       0.23651492       0.43192804
H      -12.37306576       0.01530529      20.78893193       0.33088219       0.32845366       0.19344721
H      -11.80301006      -0.73060109      19.46127637       0.10639470      -0.22601463      -0.17115018
O       24.12464597       2.53090604      16.17220671      -0.49279949       1.61090280      -0.65672643
H       23.91969623       2.32863512      17.10538103      -0.07515830      -0.28586072       0.12736759
H       24.10874401       1.65361617      15.76030404       0.13078606      -0.70107374      -0.01754697
O       -5.65036278     -17.92710123      -5.10842778       0.70038648       0.42102698      -1.34934311
H       -4.79641489     -17.60541209      -5.17871423       0.07090120       0.67943545      -0.06126624
H       -5.85871501     -18.63805259      -5.67321731      -0.60440765      -0.21185110      -0.29828215
O       29.35796435      -8.91042844      -6.16762004      -1.31371431       1.45677544      -0.65580555
H       30.32058954      -9.11370996      -6.43550492      -0.33764926      -0.16810547       0.45844007
H       28.94238330      -9.69179324      -5.81711234      -0.10687548      -0.20420877       0.24564229
O        8.82325879      -0.65429184       3.43577418       0.21338293       0.02475523       0.36342123
H        8.22387060      -0.04569974       3.07778361      -0.23628104       0.00296445       0.31961213
H        8.36373653      -1.46676832       3.62264290       0.06675273       0.24693229      -0.02326967
O      -19.76832256      -3.10867284      24.76815382       0.07179722       0.16160257       0.14843745
H      -19.86030703      -4.04267422      24.30902442       0.10215182       0.28778085       0.13228153
H      -19.16807799      -3.29489483      25.61866428      -0.14172775       0.41667920       0.01806500
O        2.49650684      -5.76731873      -6.00394287       1.69086685       0.46350601       0.16434626
H        2.18505319      -5.69054019      -5.14600632      -0.25132095       0.10727868       0.39831609
H        2.10280107      -6.61411850      -6.25765936       0.11967202      -0.42709784      -0.32773842
O        9.86574633       8.25448331       7.95317846       0.00367701      -0.01817620       0.11995382
H       10.44556679       8.46130962       7.24831714       0.04375955      -0.12176936       0.11282233
H        9.95410494       7.39570612       8.31355901       0.02401011      -0.19966031      -0.12962163
O        5.39699134       9.72148901      -4.87967295       0.85115006      -0.53648264      -1.00122578
H        6.19365193       9.07914357      -4.82484089      -0.22158973      -0.09741252      -0.02260599
H        4.89818829       9.69311494      -4.11433758       0.13945593      -0.04420990      -0.20998000
O       13.71182622      29.40712774      15.87773361      -0.39352460      -0.43657034       0.04200485
H       12.85261098      29.00254803      15.85716571      -0.27050863      -0.08221742      -0.15410115
H       14.36001580      28.77537937      15.54405094      -0.03828807       0.03642740      -0.27451178
O       -2.84455104       3.98529286       1.72490585      -0.93748008       0.20743550      -0.10160981
H       -2.64359088       3.26003672       2.17103596      -0.24476109      -0.52195349       0.10716520
H       -2.59665225       4.89441276       1.92708858       0.32376816       0.07503047       0.24745217
O        7.84007133     -14.01973855      10.91303457       0.76719656      -0.07686265      -1.03548000
H        6.83784695     -14.46238852      10.95168956      -0.26902129      -0.05807261       0.05190315
H        8.06860473     -14.28106631       9.92115879      -0.03235661       0.06945568      -0.03472219
O       -2.49984075      10.56785055      24.28479164      -0.16233424       0.30916556      -0.05484780
H       -2.15535117      10.17595466      23.54956318      -0.32319857       0.37877235      -0.30745781
H       -3.41124676      11.08578547      24.27833832      -0.09472343      -0.25481890      -0.37719867
O       20.01281217      21.77182100       1.53135470      -0.76017021       0.41219690      -0.44356065
H       19.83130386      22.24387911       2.47355306      -0.18165405      -0.08396242       0.08661694
H       19.52142444      20.86705945       1.54343920      -0.12267671       0.21059431       0.42193994
O       12.21256847      10.01306070     -15.87424606       0.98352042      -0.23853440       0.63749276
H       12.60182919       9.18205954     -15.62226337      -0.35174980       0.26372099      -0.23315152
H       12.53405372      10.26666074     -16.84797634      -0.08638669       0.18822217       0.03680711
O      -11.36134264      22.28812315       1.01346403       0.58059669       0.63737251      -1.03656690
H      -11.91152789      21.36910299       1.00517326       0.06260368       0.09524335       0.06964946
H      -10.96902580      22.58719176       1.84583737      -0.19838821      -0.38065907       0.15373384
O        2.94182235     -15.05443748      16.06233490       0.14970756      -0.54091766      -0.51828602
H        3.32869994     -15.54381541      16.85807852      -0.02606091       0.29063202      -0.03617913
H        3.70933883     -14.54168318      15.74688308      -0.02547242      -0.18610317      -0.23176684
O        2.36901835      16.30812901       0.41550097      -1.00819594       0.30834551       0.80526342
H        1.91472847      16.29750383      -0.36522160       0.36770344      -0.27569938       0.57152470
H        2.87139947      15.56816904       0.75927115      -0.24857547      -0.21790704      -0.25456100
O       -5.77004453      -7.33155672       5.62539936      -0.73312803      -0.17130409       0.10764759
H       -5.17325637      -7.70293013       6.26294845       0.21719477      -0.11552948       0.28410114
H       -5.18496720      -6.84230407       4.97010689      -0.46442091      -0.31801781       0.08184916
O       -2.14293202       2.41762608       6.68392391       0.40720561       0.01976976       0.64177947
H       -1.89390562       3.39885134       6.71168029       0.22373218      -0.60086077       0.06617471
H       -1.76027074       1.76611544       7.31478965      -0.00431833       0.77721223      -0.24105959
O       13.22497365      -5.55030390      -1.45795407       0.87575605      -1.32647388       0.42225142
H       13.99267219      -5.50539716      -2.01890047       0.18510241      -0.31355366      -0.30167692
H       12.81580307      -6.52227914      -1.66496366      -0.12881596       0.06862220      -0.17400036
O       11.83022146       4.86045705      22.71158099       0.13718949      -0.83056997       0.08621583
H       11.12063579       4.37684409      23.16044975       0.06367818       0.48864402       0.03547360
H       11.89315149       4.66086493      21.80595198      -0.19202315       0.01461001      -0.09629717
O        8.09884905      14.51289182      23.88213221      -0.63968774       0.37862621       1.21901462
H        8.99239801      14.74092187      23.70821319      -0.38629861      -0.05053129      -0.07703198
H        8.12321780      13.44524638      23.94183880      -0.13346463       0.05946791      -0.22365932
O       -8.01558183       6.94680995      11.41609829       0.62762044      -0.30694197      -0.30875995
H       -7.33284353       6.63514241      10.84841572       0.04082336      -0.34733194       0.22616635
H       -8.13780666       6.59119128      12.26402490       0.60240319      -0.18425814       0.25569012
192
Lattice="12.740521726938084 0.0 0.0 -5.288039991721235e-07 12.740521726938084 0.0 -5.288039991721235e-07 -5.288039991721235e-07 12.740521726938084" Properties=species:S:1:pos:R:3:momenta:R:3 step=180 time_fs=18.0 phase=production pbc="T T T"
O       11.73040608       0.70988599     -16.47643518       1.90259178      -0.33707367      -0.33429703
H       12.17701861       1.06507093     -15.70967697      -0.33848513      -0.30486773       0.01232679
H       11.06887879       0.02885800     -16.35549298       0.28848782       0.06361750       0.30893205
O       26.37562677      24.78706799       5.01953956       0.49545183      -0.26800688       1.26257443
H       26.88745884      24.11598147       4.46202833       0.04420975       0.48415599       0.32009403
H       25.69971333      25.08681628       4.42458976       0.03857683       0.17500184       0.08117617
O        4.52696279      -0.36348438       6.55195064      -0.67023677      -0.60051199      -1.15468379
H        5.32241883      -0.90079093       6.68742310       0.24722745       0.07042681       0.02490749
H        4.37090775       0.23323982       7.26261439       0.09901635      -0.12051406       0.03542968
O       -2.88833729      -4.34086895       1.09609076      -0.67108442       0.92004723       0.59208864
H       -2.44696826      -3.89204793       0.33316837       0.18383911      -0.29274312       0.20460364
H       -3.82604245      -3.97129930       1.15498687       0.21140981       0.08600746      -0.15847333
O        4.34021367      15.91256911      10.69181190       0.94718663       0.31622642      -0.63508848
H        4.28668044      16.80739827      10.96685010       0.11028531       0.57312151      -0.04237287
H        4.93279045      15.84681147       9.98806864      -0.18968834       0.06592075       0.02321082
O       -1.34152335       6.54129303       5.14624990       0.85718387      -0.87650745       0.66509922
H       -1.78586868       6.48242723       4.28028010      -0.05828143       0.05509299      -0.49649715
H       -0.74898039       7.33569499       5.10169149      -0.23555559       0.12720406      -0.16737829
O       22.84904926      12.31888737       5.79007676       0.37054761       0.02428536       0.32999120
H       22.91449271      13.21257304       6.19000247      -0.53354150      -0.19732187      -0.18961739
H       21.90503457      12.13583138       5.44960553       0.19709579       0.24860609       0.56433794
O       -1.12025161     -15.71934275       6.76958816      -1.02229194       0.13050065      -0.29077202
H       -0.61466753     -16.17499127       6.08864950       0.09988867      -0.04178532       0.03635704
H       -1.35749270     -14.69801737       6.55361398       0.03190826       0.48042516      -0.20930574
O       15.46390875     -17.93569698       9.70015971       0.32769184      -0.62805971       0.53356555
H       16.35851806     -18.26242396      10.07678060      -0.26005727       0.43722111      -0.22264435
H       15.69447337     -17.06620369       9.45307202       0.04510532      -0.16472059       0.12249416
O        3.30239207     -14.63264655     -13.34977102       0.75370477       0.28183649       0.17331789
H        4.27666113     -14.77742112     -13.19232281      -0.37034471      -0.06420134      -0.16008032
H        2.81333575     -15.20373507     -12.74539607       0.08014734      -0.18258233      -0.04131805
O       -5.76804079       1.63367223       2.88662401      -0.31380907       0.53146032       0.76918127
H       -6.41779897       1.17222275       2.40663068       0.17024678       0.34287402      -0.04477873
H       -5.66237925       2.48295449       2.51199003      -0.41018280      -0.29841416      -0.05022493
O       -5.33764051      16.15477005      25.86608221       0.99422142       1.31921236      -0.84489649
H       -5.44705881      15.81963756      24.94227677       0.02675480       0.29350301      -0.02643273
H       -4.53112570      16.01847994      26.27706742      -0.93614984       0.04963897      -0.03176159
O        7.53803386     -15.64652020      -8.39463316       1.87192270       0.73507034       0.85768502
H        7.95703411     -16.52604867      -8.11646467      -0.36884657       0.02306714       0.09133212
H        6.66439392     -15.59345909      -8.07060775      -0.48463281      -0.33871304       0.31068260
O       13.64222070       8.54539691      18.00255384      -0.59426857      -0.11029830       1.05100442
H       13.94820580       8.51937524      17.16751463      -0.01691504      -0.16409924       0.02802900
H       14.14070573       8.13663920      18.71537533      -0.18949768       0.27321044       0.07589866
O       -0.17670309       1.24657288      -1.15968864      -0.52349324       0.35150387       0.58297706
H        0.69993609       1.05043640      -1.32666104      -0.23274312      -0.39156019       0.03262944
H       -0.51141242       0.33573966      -0.95197183       0.11210549       0.20335409      -0.06105838
O      -14.09093222      12.66257804      15.70317956       0.92785293       0.12331837      -0.52720354
H      -13.78223137      12.24381968      14.86642526      -0.01735782      -0.32767086      -0.38856058
H      -14.93373517      12.20616923      16.02771464       0.49971721       0.19338852      -0.44029415
O      -16.29706802       5.97628026      12.27192221       1.60482979       0.23418348      -0.85935395
H      -16.85596340       5.70789302      11.47081599      -0.04877969      -0.41077204      -0.09233857
H      -16.23969995       6.86313125      12.35920706       0.01155978       0.74137970       0.24543331
O       -9.98194620      32.84835854      -9.58231524      -0.50116766      -0.94448542      -0.23124259
H       -9.08399492      32.56657780      -9.58950064      -0.39948773       0.16654186      -0.26952251
H      -10.64673866      32.15323348      -9.96821811       0.45327547      -0.05431850       0.04189896
O       34.82769435      11.48048327      21.32170015       1.23656815      -0.38874466      -0.42210812
H       34.49026695      11.77177375      20.37816967       0.01297044      -0.10873964       0.11348213
H       35.10940916      10.53851440      21.47472919      -0.19771057       0.24931282      -0.64679133
O       30.34659911     -12.55898020       2.13887013      -0.75368629       1.53294269      -0.19185512
H       29.54794523     -12.19025275       2.60488871       0.00922313      -0.00508501       0.14522056
H       30.33889526     -12.64212298       1.13237378       0.11702325       0.08147957      -0.23071729
O       17.55400844       9.25948800      -7.47030392      -0.21541714      -0.15496558      -0.52681741
H       17.08113579       8.34980686      -7.68526183      -0.38856772      -0.52293245       0.00185599
H       17.59241446       9.44385362      -6.52489223       0.23679008      -0.09550239       0.08280336
O       -5.13577408       2.55972405      32.20531961       0.24911822      -0.04410946       0.75597202
H       -5.63999524       1.70551509      32.04198992       0.24465063      -0.43440136       0.28430243
H       -4.31191042       2.44481397      32.66271961       0.00042800       0.16079067       0.01796876
O        3.86857571       0.84779501      -0.25124368       1.06737975      -0.76873630      -0.06805396
H        3.43213925      -0.02878657      -0.33492310       0.04543592       0.11403875      -0.00496509
H        4.53522278       1.01200538      -0.97452018       0.56610161       0.15750528      -0.04800164
O       23.17426733       3.22594668      11.67837771      -0.39558380      -0.48694412       0.49325535
H       23.38179698       3.69252105      12.61027060       0.05924368       0.25855969       0.14285893
H       23.49894128       2.34388376      11.74500715      -0.33090791       0.13067095      -0.18923309
O       -1.41146110      31.84366456      15.06387696      -0.18406661       0.59200384       0.82386024
H       -2.02679674      32.39227544      14.54478291       0.44319969      -0.04230332      -0.03054112
H       -0.62741245      31.52220931      14.66283360       0.12915655      -0.18418410      -0.08829449
O        4.77163050      19.40276573       5.21079313      -1.72248532       0.54779782       0.13312153
H        4.04088924      18.93006999       5.68531499       0.43577701       0.29228783      -0.16279725
H        5.56427513      18.86531420       5.18671368       0.04598663      -0.23785587      -0.07868951
O      -10.23560789      10.51153653       9.52879182      -1.22430267      -0.07789906       0.53540492
H      -11.03019883      10.90836920       8.93490929      -0.29720318       0.20562593       0.14562364
H      -10.09157931      10.79761646      10.42152674       0.50556134       0.19573400       0.28259416
O       17.68463839      17.75170715      26.02348855       0.24956912      -0.45697679      -1.50639281
H       18.34971334      17.11967380      26.40526529      -0.25622149       0.26071284       0.04665467
H       16.91151292      17.24730947      26.37166737      -0.00912532       0.18133280       0.14813710
O        6.89270693      18.66360159      10.14537133      -0.85144348      -0.74267767       0.46738218
H        7.32043860      19.23630593       9.49542622       0.07323041       0.00692376      -0.00065016
H        6.65568618      17.75891816       9.94083910       0.19461329       0.13284365       0.34468668
O       -0.67613789     -13.81063455      13.24852554      -0.38342727      -1.26504804      -0.14079905
H       -1.47144555     -14.26043817      12.92613254      -0.06960315       0.13019836      -0.04596764
H        0.04270358     -14.42373362      13.23399920      -0.17224815       0.77919899      -0.18450658
O        1.12903855       5.98773690       1.15725588      -0.59554225      -1.47447190       1.17621746
H        1.58109622       5.23711097       1.17243924       0.16059974      -0.39738399      -0.21340769
H        1.03998785       6.63571200       0.43172812       0.11291099       0.13014404      -0.01227412
O        3.19953072       1.28729953       8.37851596       2.06008883      -0.23798566       0.15865022
H        2.27773929       1.08470205       8.23006969      -0.63644886      -0.32825727      -0.01311205
H        3.51083391       1.17369140       9.24224421      -0.03099659      -0.35964739      -0.26955486
O      -18.81869882      28.86668064     -16.17294569      -0.20124622       1.29386668      -0.76004494
H      -18.43763072      29.05985010     -17.13095459       0.27475503      -0.26753310       0.39870824
H      -17.97404000      28.58010066     -15.56239832       0.47454788       0.08000713       0.17425041
O        2.95300582      26.81336269      -9.07296690       1.51413043      -0.22151231       0.33155850
H        3.39950743      27.10484952      -8.48844065      -0.41463792      -0.20943287      -0.38069417
H        2.09226678      26.60886356      -8.73010362      -0.20750172       0.21505000       0.47018842
O      -18.13999634      18.94735470       1.95912193      -1.12192108      -0.67467952       0.52398250
H      -17.59412883      18.67531269       1.03694512      -0.22821839      -0.25317758      -0.16205518
H      -19.08787340      18.56669721       1.96409284       0.09188817       0.01922615       0.05500420
O       11.69921179      17.53344002       7.03812148       0.08688805      -0.58154488      -0.16870644
H       12.54935391      17.45406769       6.60765359      -0.10255691       0.33822924      -0.17666325
H       11.25641272      18.18523748       6.52210830       0.24927267      -0.05559002      -0.08602946
O       -7.23078821     -11.22417809       5.13938436      -0.10697764       0.10667587      -0.76413234
H       -6.74721467     -11.36901287       4.28901528      -0.33503843      -0.26529565      -0.10623772
H       -7.31537884     -11.91142863       5.84120501       0.25607096       0.12479571      -0.08782108
O      -24.18324285       3.34705373      10.68885393      -1.22998298      -0.53973997      -0.39924673
H      -24.94568404       3.84859501      10.31825762       0.30659601      -0.28134943       0.10061021
H      -23.30966992       3.61251374      10.17592091      -0.08399210      -0.12148902      -0.04474894
O      -11.42268918      -8.25211473      18.48106817      -0.10793622      -0.27104880       0.74235170
H      -10.57040369      -8.58446363      18.87407431       0.26485615      -0.10170272      -0.26979200
H      -11.45198968      -8.16644903      17.45654582       0.03092306       0.01221779      -0.15212499
O        8.47777310       7.38234039      16.87858576      -1.85745155       0.70052586      -0.08558646
H        9.40849392       7.25853988      16.97729435      -0.48635645       0.03570859       0.08928681
H        8.18612486       6.88484330      16.12043631       0.12101558       0.04136643      -0.34856843
O      -11.63392516      -0.46960799      20.44205180      -0.45841718       0.11742369       0.19279187
H      -12.34310350       0.04889855      20.80595732       0.26332646       0.36121077       0.18764140
H      -11.79012111      -0.74845258      19.45673502       0.13822339      -0.13962327       0.11005837
O       24.11964898       2.53999002      16.16729659      -0.53862563       1.37513917      -0.53355713
H       23.91214426       2.30512122      17.10973101      -0.03864487      -0.18763920      -0.03074334
H       24.12038861       1.59222144      15.75854288       0.14556608      -0.52148005       0.01969824
O       -5.64635592     -17.92300227      -5.11611058       0.49049322       0.44162202      -1.32253255
H       -4.77890561     -17.53569906      -5.18423150       0.23578045       0.70287034      -0.05567321
H       -5.91571430     -18.65857113      -5.70502086      -0.55644353      -0.19285871      -0.32838140
O       29.34829868      -8.90123769      -6.17128936      -1.14463721       1.29345390      -0.67143808
H       30.27166061      -9.12684101      -6.38784538      -0.58518924      -0.12043923       0.49860594
H       28.93276921      -9.70798659      -5.79411169      -0.03581282      -0.11968822       0.20590425
O        8.82471329      -0.65417109       3.43799567       0.46859523       0.02402084       0.43129649
H        8.19029125      -0.03498202       3.10318001      -0.42231270       0.20146102       0.21650886
H        8.36416543      -1.45279904       3.62281816      -0.04988732       0.02602742       0.03521887
O      -19.76590810      -3.10855205      24.76744624       0.21897846      -0.17272775       0.24371667
H      -19.84806020      -3.99842816      24.32863812       0.11744184       0.59310522       0.29836512
H      -19.18980295      -3.25094526      25.60621383      -0.32937067       0.47389003      -0.22810935
O        2.50656791      -5.76453658      -6.00302718       1.60658822       0.27506292       0.04444155
H        2.16020044      -5.67628888      -5.09770787      -0.22831440       0.16242172       0.50413518
H        2.11664201      -6.65196838      -6.29045282       0.18135123      -0.32013453      -0.33578851
O        9.86439456       8.25408209       7.95364003      -0.19367286       0.07168530       0.23423261
H       10.45584662       8.45001068       7.25314700       0.18078603      -0.09720483       0.00030758
H        9.95813674       7.37108102       8.30187568       0.07097557      -0.27251614      -0.10559349
O        5.40301585       9.71696883      -4.88636559       1.23294630      -0.68561310      -1.29819176
H        6.16225807       9.07474464      -4.82749888      -0.39755196       0.01075243      -0.03977901
H        4.90161189       9.68779253      -4.12029382      -0.06295770      -0.04855967       0.08085841
O       13.70859612      29.40229870      15.87662003      -0.34141457      -0.41989822      -0.01243736
H       12.82405440      28.98973003      15.84170311      -0.26604161      -0.12259879      -0.13838565
H       14.35170415      28.77802238      15.51772597      -0.11308893       0.06580984      -0.23994635
O       -2.85056711       3.98718885       1.72325763      -1.06833538       0.47885599      -0.35349039
H       -2.66072758       3.19560383       2.19349691      -0.12731739      -0.74332837       0.32227488
H       -2.56229487       4.90081380       1.95297158       0.37005026       0.04224578       0.28056295
O        7.84332195     -14.01976175      10.90472649       0.49092018      -0.27569037      -1.39572253
H        6.82848630     -14.45956941      10.95568161       0.08252851       0.09037263       0.04689528
H        8.06083882     -14.26729372       9.93287683      -0.11391268       0.18894341       0.28728510
O       -2.50158569      10.56995033      24.28384988      -0.45732875       0.62310662       0.32515342
H       -2.17982418      10.20465018      23.50144407      -0.19342099       0.23904477      -0.61848517
H       -3.40624805      11.05205320      24.23933508       0.19263338      -0.41800498      -0.38117937
O       20.00571029      21.77215937       1.52957069      -1.04835815       0.25156278      -0.09768991
H       19.81570491      22.22618251       2.46623979      -0.10743091      -0.24467820      -0.23410679
H       19.51743326      20.90080143       1.58499585       0.06581328       0.50558863       0.43152012
O       12.21772805      10.01144764     -15.87012103       0.97966647       0.00979756       0.30056964
H       12.56892818       9.20199872     -15.64261308      -0.28319479       0.11383028      -0.19591998
H       12.51946866      10.27882825     -16.82805349      -0.19089312       0.07690442       0.34389164
O      -11.35741846      22.28938624       1.00697430       0.41662936       0.33622188      -1.04973874
H      -11.89127250      21.39565327       1.01192512       0.32542622       0.47259694       0.06960420
H      -10.98826306      22.54597102       1.85953995      -0.21523502      -0.42760650       0.13115439
O        2.94308280     -15.05673651      16.05839084       0.31771383      -0.58096530      -0.37655326
H        3.32302216     -15.51008761      16.84535229      -0.07922767       0.36680339      -0.18257820
H        3.70111951     -14.56104983      15.72471953      -0.12597636      -0.22422165      -0.20222502
O        2.36340268      16.30907856       0.42188518      -0.74680716       0.40992005       1.31357985
H        1.93968257      16.26525308      -0.33216709       0.12603058      -0.36087768       0.06817835
H        2.84553702      15.54463116       0.73129825      -0.27237722      -0.24447514      -0.31104028
O       -5.77349716      -7.33179669       5.62547004      -0.53863388      -0.12774102       0.11363339
H       -5.15485976      -7.71501716       6.28845415       0.12824280      -0.12845965       0.22362790
H       -5.23473092      -6.87667928       4.98155090      -0.53750134      -0.37672240       0.13041765
O       -2.14023083       2.41793350       6.68728312       0.36980287       0.12881981       0.56403182
H       -1.87394090       3.32749934       6.71820100       0.20318737      -0.78931222       0.08141712
H       -1.75965409       1.84264081       7.29089081       0.04606380       0.74353208      -0.18753939
O       13.22906285      -5.55909437      -1.45536950       0.80756382      -1.67661424       0.36226588
H       14.00847985      -5.53551307      -2.04742008       0.13658804      -0.31231318      -0.26694461
H       12.80860999      -6.49796694      -1.68053993       0.00233650       0.42050035      -0.14418870
O       11.83031998       4.85509607      22.71095988       0.21568346      -0.78489202       0.24451610
H       11.12454928       4.42370397      23.16257442       0.01172942       0.46520837       0.05903449
H       11.87202433       4.66069882      21.78663521      -0.22361899      -0.00707286      -0.24699551
O        8.09359380      14.51300991      23.88791343      -0.90385643       0.00826100       1.26370941
H        8.96482947      14.73885163      23.69644583      -0.13144182       0.04212998      -0.13552233
H        8.10741846      13.46465078      23.91718104      -0.17886184       0.36100987      -0.24201767
O       -8.01146594       6.94502867      11.41298394       0.51645940      -0.12842847      -0.38204133
H       -7.32164503       6.59505395      10.86802954       0.16808974      -0.45767024       0.19587484
H       -8.07685928       6.56641041      12.29505378       0.63699157      -0.29215880       0.35648500
192
Lattice="12.739451278192732 0.0 0.0 -5.287595694706102e-07 12.739451278192732 0.0 -5.287595694706102e-07 -5.287595694706102e-07 12.739451278192732" Properties=species:S:1:pos:R:3:momenta:R:3 step=190 time_fs=19.0 phase=production pbc="T T T"
O       11.74118188       0.70767441     -16.47761148       1.92603944      -0.36366098      -0.52257164
H       12.14311500       1.03546531     -15.70217079      -0.32051213      -0.28770678       0.13803603
H       11.09431112       0.03433666     -16.32266933       0.24036625       0.03653375       0.33638323
O       26.37686067      24.78294554       5.02651343       0.59830485      -0.36035279       1.17026600
H       26.88648746      24.16530879       4.49899661       0.00612564       0.53646451       0.42001500
H       25.69744193      25.10358329       4.43134197      -0.03542560       0.20934602       0.06973449
O        4.52287152      -0.36744973       6.54412988      -0.52958834      -0.70098999      -1.20764418
H        5.33784285      -0.89049607       6.69023255       0.07062241       0.14439722       0.04144270
H        4.37846656       0.22254242       7.26959155       0.06611038      -0.10172223       0.11430629
O       -2.89256691      -4.33448061       1.09916900      -0.77344941       1.01749162       0.46353995
H       -2.43383864      -3.92421925       0.36074721       0.09569866      -0.35896726       0.33621914
H       -3.79405532      -3.96624258       1.13873803       0.40751480       0.02135684      -0.16963178
O        4.34519969      15.91319538      10.68753967       0.78827709       0.38365060      -0.43989825
H        4.29712946      16.86334777      10.96297639       0.11639577       0.54236068      -0.03776875
H        4.92276238      15.85034759       9.98015707      -0.00548967       0.03523397      -0.17296485
O       -1.33614635       6.53591751       5.14914395       0.83923611      -0.70001503       0.38784260
H       -1.78366264       6.48585930       4.24067954       0.11036355       0.02784375      -0.28106155
H       -0.77603204       7.33948540       5.08675652      -0.31433851      -0.03210600      -0.12800703
O       22.84860585      12.31786789       5.79141946       0.15631344      -0.03560561       0.27029061
H       22.86006642      13.19138549       6.17133571      -0.53805659      -0.18555013      -0.16746109
H       21.93803635      12.16364537       5.50773626       0.46670546       0.32722243       0.61904732
O       -1.12655108     -15.71641570       6.76700294      -1.05517374       0.38380208      -0.36877427
H       -0.60439551     -16.17640984       6.09293424       0.10757860      -0.01367284       0.06560470
H       -1.35109777     -14.66290082       6.53405356       0.09237627       0.22280744      -0.18204095
O       15.46524107     -17.93882153       9.70303276       0.49700572      -0.86624226       0.65207051
H       16.32176062     -18.21813920      10.05251173      -0.42603146       0.41906324      -0.23802997
H       15.69698129     -17.06726610       9.46081259       0.02975017       0.11964430       0.04903243
O        3.30700878     -14.62975544     -13.34741041       0.79571161       0.26517325       0.22447676
H        4.23380269     -14.78449510     -13.20834225      -0.45324587      -0.11185605      -0.18569609
H        2.82138282     -15.21865497     -12.74970279       0.08757942      -0.14862231      -0.06919958
O       -5.76918766       1.63632253       2.89179287      -0.21196732       0.36415302       1.00761459
H       -6.41066320       1.19689499       2.39596281      -0.04615718       0.15295366      -0.17501249
H       -5.69855750       2.46728545       2.50263768      -0.33719738       0.00515312      -0.14409024
O       -5.33243187      16.16168582      25.85778345       0.50412428       1.39341240      -1.17034603
H       -5.44090059      15.84826424      24.94518898       0.08831727       0.31428722       0.11294690
H       -4.60413418      16.01878979      26.27893469      -0.51368181      -0.02692225       0.15039014
O        7.54920884     -15.64130503      -8.38860315       1.89805609       0.54774367       0.90203415
H        7.91543466     -16.51202245      -8.11089737      -0.45970514       0.22312951       0.01259565
H        6.61512872     -15.62480884      -8.03896544      -0.45003592      -0.33229609       0.29902020
O       13.63648679       8.54421188      18.00878043      -0.89853796      -0.03405562       1.42481688
H       13.95548355       8.50085744      17.14980539       0.17883821      -0.20173202      -0.33004392
H       14.12526564       8.16046993      18.72059898      -0.09199408       0.22094448       0.07818455
O       -0.18104645       1.24823326      -1.15589686      -0.87090370       0.24390337       0.61198350
H        0.69616470       1.01223811      -1.32672513       0.14416339      -0.38744087      -0.03478640
H       -0.50207995       0.36073361      -0.95569193       0.06713782       0.28558449      -0.01056865
O      -14.08422140      12.66158637      15.69824387       0.92720926      -0.08545076      -0.68555088
H      -13.78691864      12.21604139      14.83574907      -0.10556070      -0.21259662      -0.20198785
H      -14.87652414      12.22882991      15.98011701       0.59170571       0.26409391      -0.48606035
O      -16.28634451       5.97607286      12.26500908       1.44585243      -0.04117320      -1.05033770
H      -16.85232521       5.67346935      11.47156467       0.09899265      -0.28030470       0.13201841
H      -16.23740180       6.94631971      12.38246409       0.00178726       0.87455397       0.24247022
O       -9.98528177      32.83941293      -9.58323045      -0.88095800      -1.04218469      -0.31840565
H       -9.11596363      32.57658651      -9.61506897      -0.22831327       0.08330002      -0.27189660
H      -10.59064456      32.15441385      -9.95812330       0.65757822       0.11606780       0.13816422
O       34.83206523      11.47699338      21.31653964       1.13192848      -0.39287943      -0.67489455
H       34.49567802      11.75458161      20.40475737       0.15634424      -0.22507761       0.46059745
H       35.08486351      10.56850631      21.40589961      -0.23539659       0.34511399      -0.72408506
O       30.33920457     -12.54833598       2.13691197      -0.81656077       1.58855947      -0.39166224
H       29.55212814     -12.19259447       2.61400197       0.12173339      -0.06097593       0.04835226
H       30.34526135     -12.63064401       1.12385960       0.06435200       0.13243960       0.05975538
O       17.55075798       9.25705381      -7.47277215      -0.35659402      -0.37771133      -0.47493254
H       17.05037556       8.31079186      -7.68029094      -0.21693509      -0.26976448       0.08279072
H       17.61304819       9.43258742      -6.52247774       0.21644860      -0.11798867      -0.04698643
O       -5.13433501       2.55859356      32.20723742       0.07464422      -0.25866117       0.74813698
H       -5.60805077       1.67669118      32.06924251       0.40067902      -0.14995472       0.32929828
H       -4.31166538       2.45902545      32.66009802       0.00317351       0.13520933      -0.01259906
O        3.87529331       0.84279635      -0.25217633       1.24362943      -0.81549349      -0.24642824
H        3.44103791      -0.01292105      -0.33719883       0.13542559       0.19471018      -0.04462797
H        4.57877687       1.02417835      -0.96864188       0.32679494       0.09169854       0.17230705
O       23.16993477       3.22353524      11.68109647      -0.39167442      -0.18203580       0.70995152
H       23.38190482       3.70971588      12.61180705      -0.01703285       0.09906588      -0.08853634
H       23.46869506       2.35220257      11.72796061      -0.24115844       0.01834679      -0.13757164
O       -1.41285798      31.84460313      15.06788297      -0.26463347       0.55991007       0.89262297
H       -1.98186172      32.38552006      14.53942927       0.45889150      -0.02594862      -0.06843152
H       -0.61138938      31.50189256      14.64957407       0.17344691      -0.16803641      -0.14424225
O        4.76062530      19.40439938       5.21117136      -1.66368054       0.53712430       0.09539792
H        4.08444925      18.95829961       5.66894396       0.40921492       0.28444450      -0.12648202
H        5.56429987      18.84277753       5.17825767      -0.04951672      -0.18063958      -0.08633147
O      -10.24294637      10.51040113       9.53082265      -1.44050244       0.01027990       0.42561377
H      -11.04571830      10.92318749       8.95624657      -0.03777705       0.11424923       0.30762643
H      -10.04184171      10.81623446      10.44655541       0.48827440       0.19188941       0.20860334
O       17.68455327      17.74673465      26.01256050       0.18674895      -0.64849763      -1.35760866
H       18.32379213      17.14893117      26.40299746      -0.21955787       0.34475081      -0.03238629
H       16.91109429      17.26964329      26.37974023       0.02404500       0.30212402       0.06560733
O        6.88693938      18.65793304      10.14766301      -0.82633281      -0.55770539       0.55936371
H        7.32491041      19.23226690       9.49513718       0.02707061      -0.06180688       0.01416468
H        6.67483331      17.76694711       9.97009825       0.20350198       0.02934046       0.26396007
O       -0.67893465     -13.81694614      13.24651033      -0.61342907      -1.10226767      -0.14554356
H       -1.47707196     -14.24648948      12.91759468      -0.05639089       0.12535344      -0.10867531
H        0.03274697     -14.35343608      13.21588450       0.04435813       0.57845602      -0.16966867
O        1.12455411       5.97956200       1.16447856      -0.81544316      -1.04582861       1.19570231
H        1.60615670       5.18236484       1.14865732       0.33688493      -0.68493735      -0.27223055
H        1.05211080       6.64207789       0.43119048       0.13701045       0.00177903       0.01391305
O        3.21148215       1.28580546       8.37776876       1.86196150      -0.22317824      -0.19078144
H        2.22062873       1.05132577       8.22976704      -0.47948798      -0.34261252       0.02720790
H        3.51030210       1.13638806       9.22723487       0.03197423      -0.40603342      -0.00928282
O      -18.81715605      28.87222989     -16.17670317       0.17580061       1.30416185      -0.89645149
H      -18.41744782      29.02618362     -17.07501360       0.11210506      -0.36807552       0.70739451
H      -17.93838017      28.58688352     -15.55075585       0.23400599       0.10551377       0.04193951
O        2.95960416      26.80834332      -9.07328917       0.67885047      -0.68477369      -0.64801060
H        3.40272418      27.10918819      -8.47289404       0.47638461       0.33923335       0.67078441
H        2.06774445      26.62331072      -8.68419974      -0.24322654       0.13892115       0.43420550
O      -18.14579855      18.94111076       1.96134211      -1.24573477      -0.83404446       0.25319867
H      -17.62056006      18.65317824       1.03378042      -0.34409702      -0.16890530       0.10018135
H      -19.06331509      18.57203099       1.96878839       0.36095097       0.11385834       0.04464045
O       11.69892230      17.52820080       7.03665245       0.13750077      -0.64833587      -0.11744782
H       12.54363425      17.48273362       6.58962109       0.01210319       0.27709471      -0.18153999
H       11.27375349      18.18369935       6.51080262       0.12116439       0.05759983      -0.13511818
O       -7.23063746     -11.22277544       5.13403971      -0.05170594       0.05387651      -0.83412529
H       -6.78310479     -11.39275646       4.28709371      -0.40342940      -0.24310089       0.06220067
H       -7.28841329     -11.89457631       5.82576672       0.28175085       0.18934174      -0.20901599
O      -24.18802804       3.34379810      10.68505491      -0.95171747      -0.46140128      -0.52351050
H      -24.91062819       3.82104355      10.32827223       0.32318257      -0.24649320       0.10056163
H      -23.33021562       3.59687655      10.17955677      -0.37282372      -0.19108501       0.13313455
O      -11.42187607      -8.25300556      18.48336527       0.06523652      -0.24641590       0.50846961
H      -10.55139269      -8.59093038      18.84230846       0.10199377      -0.04526674      -0.34875280
H      -11.44878451      -8.16731867      17.45518661       0.01408774      -0.04412590       0.15606991
O        8.46499568       7.38616742      16.87676272      -2.10874159       0.73972681      -0.07294598
H        9.36928782       7.26122024      16.98560237      -0.26962588       0.02747106       0.11659998
H        8.19628142       6.88567619      16.08212216       0.10704734       0.00155558      -0.38933028
O      -11.63572995      -0.46917702      20.44084371      -0.44904980       0.01767521      -0.01670082
H      -12.31937629       0.08526125      20.82177016       0.20691940       0.38032009       0.16940077
H      -11.77453634      -0.75756540      19.47908374       0.15831461      -0.04970588       0.37439116
O       24.11412938       2.54725135      16.16311320      -0.60002940       1.06238774      -0.38958699
H       23.90852374       2.29231087      17.09530005       0.00395236      -0.07082962      -0.23037464
H       24.13299883       1.55416871      15.76202125       0.15332795      -0.25565817       0.07558956
O       -5.64310060     -17.91888075      -5.12415052       0.44003152       0.41493477      -1.44959542
H       -4.75652669     -17.46841080      -5.18763706       0.18832497       0.63659394      -0.01897665
H       -5.96483832     -18.66871203      -5.73277796      -0.45973063      -0.04047800      -0.24189206
O       29.33852749      -8.89318375      -6.17462354      -1.29960007       1.09490021      -0.56556418
H       30.21238846      -9.13750156      -6.34011039      -0.50878027      -0.12664218       0.45400933
H       28.93106250      -9.71100923      -5.77718733       0.04565816       0.04582133       0.13013099
O        8.82713886      -0.65362679       3.44031590       0.51259026       0.14998798       0.40371145
H        8.14684192      -0.01241327       3.12274237      -0.41490486       0.22473720       0.20896990
H        8.35402865      -1.45973843       3.62852977      -0.12849017      -0.14697096       0.08261693
O      -19.76254262      -3.10960610      24.76731082       0.32029468      -0.16513055       0.39912730
H      -19.83486443      -3.93610287      24.35840352       0.11186364       0.59482302       0.31108324
H      -19.22705169      -3.20329876      25.57293232      -0.44425327       0.49164725      -0.37541580
O        2.51549197      -5.76314185      -6.00190870       1.35482627       0.01885347       0.17738484
H        2.14412308      -5.66033964      -5.05853671      -0.08641697       0.14730287       0.25783994
H        2.13895093      -6.67059048      -6.31909758       0.28123576      -0.06052978      -0.25267078
O        9.86194241       8.25378164       7.95473110      -0.31559680       0.03814031       0.32653613
H       10.47694834       8.44044691       7.24953673       0.25212707      -0.08927671      -0.04259515
H        9.96566059       7.34602550       8.28998286       0.09705872      -0.20608515      -0.13160956
O        5.41084655       9.71170218      -4.89457821       1.41152909      -0.73995313      -1.47483213
H        6.11977611       9.07612830      -4.83173167      -0.43129943       0.00546331      -0.05420654
H        4.88742695       9.68233480      -4.10183804      -0.19642272      -0.04539305       0.25347455
O       13.70516644      29.39712304      15.87501979      -0.41917520      -0.46583739      -0.07308115
H       12.80321294      28.97607023      15.82770625      -0.12365219      -0.09938107      -0.12085564
H       14.33570759      28.78370196      15.49467079      -0.18586073       0.09757433      -0.20853958
O       -2.85690514       3.98999323       1.72085051      -1.05401054       0.50262200      -0.34235091
H       -2.67119749       3.12646629       2.22563911      -0.10506384      -0.61724968       0.30578901
H       -2.52581487       4.89821887       1.98002554       0.36521822      -0.10126540       0.27074075
O        7.84481996     -14.02080845      10.89437626       0.20171092      -0.44139155      -1.63645270
H        6.85201815     -14.44278202      10.95939124       0.40956326       0.22911094       0.05205007
H        8.04621580     -14.24300585       9.97171517      -0.15882803       0.27467318       0.48351398
O       -2.50476068      10.57348458      24.28433012      -0.60393709       0.78088870       0.44103368
H       -2.19580077      10.22451403      23.43331564      -0.15511874       0.20699658      -0.68743202
H       -3.37504010      11.00385403      24.20072638       0.41504875      -0.53697580      -0.36823392
O       19.99695961      21.77175391       1.52987204      -1.22051540       0.25807409       0.22404083
H       19.80724838      22.19383462       2.42819483      -0.03139760      -0.36179204      -0.52710499
H       19.52780236      20.95595918       1.62664050       0.14903447       0.59877622       0.42006582
O       12.22243934      10.01192734     -15.86797565       0.87693529       0.42616538      -0.01181024
H       12.54701948       9.19678016     -15.65622685      -0.14110384      -0.21770485      -0.10694034
H       12.49576455      10.28046923     -16.78014626      -0.26438381      -0.01792921       0.58462970
O      -11.35431102      22.28887025       1.00040991       0.30610651       0.14402413      -1.06484317
H      -11.84875777      21.45408081       1.01834644       0.49951083       0.71942265       0.06136581
H      -11.00930389      22.50068537       1.87140667      -0.23244904      -0.45774928       0.12173087
O        2.94494746     -15.05909660      16.05491884       0.33885513      -0.59205330      -0.34037713
H        3.31472620     -15.47287360      16.82473675      -0.07067996       0.34989062      -0.17691448
H        3.68721765     -14.58064436      15.70369069      -0.13509439      -0.19032836      -0.21100814
O        2.35947340      16.31056049       0.43158845      -0.48224622       0.51635750       1.83406780
H        1.93789230      16.22484462      -0.35367526      -0.14771314      -0.43653685      -0.48720517
H        2.81888216      15.51726824       0.69998580      -0.26741142      -0.29089796      -0.32549427
O       -5.77595106      -7.33240597       5.62658853      -0.44365723      -0.30331483       0.45408749
H       -5.15028186      -7.72472752       6.30253303      -0.04969414      -0.07867093       0.06882465
H       -5.28248246      -6.90946547       4.98716289      -0.41977886      -0.28230734      -0.04643535
O       -2.13866277       2.41843829       6.68920011       0.04253022       0.06191561       0.21419217
H       -1.84953335       3.26160870       6.72633662       0.31593870      -0.47915870       0.09501384
H       -1.74525496       1.90083181       7.28646418       0.26624835       0.42108940       0.14147993
O       13.23296808      -5.56994615      -1.45344524       0.84338505      -1.99011429       0.22077027
H       14.01404969      -5.56491655      -2.06796964      -0.00413330      -0.29718124      -0.15156254
H       12.81364255      -6.44057194      -1.69212585       0.11086769       0.72191031      -0.09687532
O       11.83122297       4.85008075      22.71049295       0.41364392      -0.71935260       0.19074370
H       11.11789334       4.46486845      23.17023802      -0.13734758       0.38356278       0.14274331
H       11.84748447       4.65967298      21.75927573      -0.26042938      -0.00052694      -0.24838311
O        8.08640320      14.51065037      23.89379809      -1.19142448      -0.35704974       1.29893339
H        8.96648983      14.74745707      23.67767620       0.15729289       0.15491656      -0.20304674
H        8.08688608      13.51324959      23.89142252      -0.22924358       0.64562096      -0.24211527
O       -8.00781717       6.94372726      11.41000187       0.47099543      -0.13650091      -0.25219817
H       -7.30185505       6.54702416      10.88598727       0.20678699      -0.50309345       0.19920727
H       -8.01280139       6.53752886      12.32304161       0.65818654      -0.26974989       0.20316436
192
Lattice="12.738331040622173 0.0 0.0 -5.287130732501233e-07 12.738331040622173 0.0 -5.287130732501233e-07 -5.287130732501233e-07 12.738331040622173" Properties=species:S:1:pos:R:3:momenta:R:3 step=200 time_fs=20.0 phase=production pbc="T T T"
O       11.75202242       0.70530296     -16.48016713       1.94131069      -0.38931946      -0.78033804
H       12.11462485       1.01074669     -15.67729376      -0.23786520      -0.21301212       0.34637414
H       11.11202289       0.03417104     -16.28752932       0.13965513      -0.04325064       0.35164241
O       26.37795658      24.77891739       5.03340424       0.47281661      -0.19993077       1.24554060
H       26.89012456      24.20861529       4.53668403       0.14865346       0.35957884       0.32957899
H       25.68971056      25.12245208       4.43862385      -0.06766063       0.21707190       0.09551374
O        4.51969688      -0.37194045       6.53609342      -0.38200810      -0.75886258      -1.21450742
H        5.33536801      -0.87263951       6.69401258      -0.10260006       0.21412693       0.04754322
H        4.38347261       0.21247113       7.28208429       0.04584602      -0.10959606       0.14619098
O       -2.89707399      -4.32805670       1.10195705      -0.74808624       0.91011080       0.50876657
H       -2.42376916      -3.95771424       0.39197717       0.13207202      -0.31621993       0.26759514
H       -3.75523343      -3.96313148       1.12251013       0.32267224       0.05802764      -0.15776769
O        4.34920576      15.91505445      10.68462664       0.65769490       0.70083541      -0.21692184
H        4.30929185      16.90151057      10.95489636       0.14287360       0.24447060      -0.11631846
H        4.92904618      15.85147568       9.95451769       0.12327464       0.02002060      -0.31272830
O       -1.33117480       6.53143628       5.14994751       0.72733268      -0.59156836       0.01762024
H       -1.76381240       6.48660603       4.22698010       0.28892892      -0.00331150       0.00786163
H       -0.80769911       7.33083274       5.07625592      -0.31882503      -0.10900314      -0.07663449
O       22.84781400      12.31619694       5.79251422       0.31371544      -0.15541775       0.26715441
H       22.80740976      13.18032752       6.15941684      -0.49290617       0.00469267      -0.05441104
H       21.97836075      12.19331116       5.56448275       0.31850514       0.28052787       0.52891107
O       -1.13296710     -15.71199959       6.76387036      -1.06497397       0.60147152      -0.45917414
H       -0.59385749     -16.17457891       6.10088692       0.10724362       0.02322894       0.10984526
H       -1.33977750     -14.65120656       6.51698944       0.13641847      -0.00766442      -0.15557223
O       15.46674533     -17.94279501       9.70614615       0.38193837      -0.88933210       0.60528039
H       16.28424319     -18.18218840      10.03383543      -0.24887181       0.26411946      -0.09924422
H       15.69625501     -17.04260410       9.46159776      -0.02580636       0.32477851      -0.00726423
O        3.31093895     -14.62675619     -13.34482035       0.52906136       0.30352581       0.22919555
H        4.19908438     -14.79827714     -13.22491699      -0.19636934      -0.20659981      -0.17229843
H        2.82914025     -15.23031559     -12.75630410       0.07257299      -0.12025940      -0.08750954
O       -5.76972812       1.63787297       2.89840839      -0.14789442       0.20277829       1.20107665
H       -6.42456310       1.20203782       2.37340754      -0.22949275      -0.03211113      -0.26575883
H       -5.72703208       2.48300044       2.48425749      -0.26001828       0.29295118      -0.21344343
O       -5.33087125      16.16930788      25.84725010      -0.13446281       1.56460272      -1.49014100
H       -5.42943512      15.87636803      24.95533059       0.13385802       0.28016693       0.10879482
H       -4.62423856      16.00888100      26.30656729       0.08288226      -0.14903343       0.46452134
O        7.55939310     -15.63683309      -8.38198579       1.60194043       0.49687915       1.00994911
H        7.86939467     -16.48513313      -8.11108007      -0.44741835       0.25422049      -0.01861688
H        6.58241691     -15.65501951      -8.01390332      -0.19978310      -0.31067463       0.19458226
O       13.62900905       8.54354070      18.01620481      -1.12268080       0.05671756       1.44268760
H       13.97683548       8.47894508      17.11054328       0.25901143      -0.22832101      -0.37989655
H       14.12157319       8.17726648      18.72916610       0.04243851       0.13747246       0.13451015
O       -0.18678015       1.24957540      -1.15214730      -0.94080089       0.24163757       0.55941542
H        0.72105789       0.97657505      -1.33201877       0.31840584      -0.32864918      -0.06660213
H       -0.50060487       0.38594277      -0.95260907      -0.04922737       0.20530939       0.07838143
O      -14.07631185      12.65968783      15.69171677       1.30409565      -0.14357133      -1.00992327
H      -13.80000165      12.20120720      14.82497388      -0.18270833      -0.06741018       0.00347949
H      -14.83003410      12.24859038      15.93570037       0.26896789       0.13201706      -0.37256882
O      -16.27645856       5.97559340      12.25702547       1.31543008       0.08918016      -1.18659190
H      -16.83394104       5.65223455      11.49407768       0.24168780      -0.14821940       0.34118439
H      -16.23688845       7.01893561      12.40321144      -0.02027837       0.59877751       0.20371706
O       -9.99092076      32.83044141      -9.58431801      -1.20132347      -0.88423269      -0.28083541
H       -9.12094060      32.57616106      -9.64080523       0.12266288      -0.03247608      -0.27316574
H      -10.52489290      32.16277429      -9.94373249       0.61879286       0.05707082       0.10929502
O       34.83557860      11.47421136      21.31003287       1.02188062      -0.15221152      -0.77590223
H       34.51267491      11.72748500      20.45859607       0.22723216      -0.28379067       0.61343394
H       35.06007067      10.59411492      21.33100341      -0.19385859       0.14108250      -0.76554140
O       30.33148790     -12.53736951       2.13371573      -0.81301471       1.61839126      -0.57902560
H       29.56474522     -12.19910253       2.61463755       0.17532396      -0.08700699      -0.02439610
H       30.34587909     -12.61425363       1.14266378       0.00062017       0.17975432       0.31272655
O       17.54667397       9.25330914      -7.47485829      -0.46825651      -0.57666246      -0.42648260
H       17.03543449       8.29506056      -7.66824071      -0.05957823      -0.03845819       0.15004317
H       17.63150355       9.41956069      -6.53220975       0.19405153      -0.13040896      -0.15516497
O       -5.13397976       2.55615786      32.20895563      -0.10108159      -0.44704007       0.73493887
H       -5.56205459       1.67497543      32.10004270       0.52089632       0.10082414       0.35521013
H       -4.30921052       2.47079831      32.65522718       0.04695632       0.11219436      -0.02535929
O        3.88333156       0.83794340      -0.25417463       1.49421499      -0.71432197      -0.40096785
H        3.45597937       0.00485710      -0.34414945       0.16565334       0.14474073      -0.10216302
H        4.59772257       1.02943559      -0.94110919       0.07402416       0.01752651       0.38364577
O       23.16541969       3.22334117      11.68508892      -0.41405814       0.21114136       0.92679116
H       23.37434609       3.71085977      12.59084447      -0.09652323      -0.07076232      -0.31951170
H       23.44852406       2.34456304      11.71642212      -0.13238862      -0.16896910      -0.07814592
O       -1.41398242      31.84477610      15.07223380      -0.11232636       0.39011452       0.95427506
H       -1.93980434      32.38413967      14.52642996       0.39085141       0.06496447      -0.18166348
H       -0.59765530      31.48579632      14.63478194       0.09049589      -0.09867864      -0.12164251
O        4.75104455      19.40627673       5.21065280      -1.28956225       0.64289073      -0.13770936
H        4.11058040      18.97636376       5.66617219       0.10412780       0.10192597       0.10211678
H        5.55246370      18.82826430       5.16896529      -0.18386157      -0.07955403      -0.09512622
O      -10.25147176      10.50998985       9.53268252      -1.62375574       0.16278105       0.46626702
H      -11.03529520      10.92803936       8.99345652       0.22935054       0.00259793       0.47089102
H       -9.99629383      10.83130477      10.45505693       0.42312714       0.13099501      -0.02701190
O       17.68367160      17.74111538      26.00207897       0.02135821      -0.63828888      -1.33576605
H       18.30896446      17.17856732      26.39789759      -0.02742937       0.26862709      -0.00716684
H       16.91137309      17.30166462      26.38093622      -0.00179068       0.37529109       0.01401235
O        6.88146239      18.65379984      10.15051544      -0.75961723      -0.25076444       0.66123556
H        7.32407679      19.22050060       9.49679512      -0.03036300      -0.14429862       0.03620170
H        6.69356363      17.75780060       9.98955315       0.19345101      -0.18821095       0.15216890
O       -0.68406416     -13.82139357      13.24453330      -1.07480059      -0.74540485      -0.11448724
H       -1.48255559     -14.23403465      12.90248839      -0.05709421       0.10254889      -0.17769774
H        0.05990435     -14.31454977      13.19789555       0.50908375       0.19930451      -0.17888006
O        1.11925025       5.97326278       1.17158145      -0.84167013      -0.89481106       1.13957931
H        1.64013606       5.11282376       1.11984167       0.32777755      -0.67714068      -0.31144012
H        1.06606231       6.63398838       0.43604892       0.14802221      -0.15586770       0.09129037
O        3.22159162       1.28426489       8.37481204       1.52969455      -0.24848055      -0.50282895
H        2.18783862       1.01891210       8.23414306      -0.18887815      -0.31877359       0.07485107
H        3.51635001       1.09453367       9.23769211       0.09125629      -0.44578346       0.21418673
O      -18.81361010      28.87763852     -16.18060118       0.40004070       1.27115371      -0.75222674
H      -18.40854992      28.98513423     -16.99940426       0.07620926      -0.40657604       0.72421819
H      -17.92455472      28.59545802     -15.55117457       0.01996621       0.12058810      -0.07389892
O        2.96115472      26.80074040      -9.07820113       0.01512307      -0.95023221      -1.04503508
H        3.47948545      27.15807450      -8.37188439       0.97835756       0.63015573       1.22587492
H        2.05253211      26.63324652      -8.64710818      -0.04067577       0.11941625       0.30176529
O      -18.15170153      18.93402280       1.96185950      -1.14005093      -0.91317291      -0.03600503
H      -17.65874730      18.63935525       1.05722970      -0.47741755      -0.07855878       0.39223125
H      -19.02099588      18.58268608       1.97231039       0.42238876       0.11640251       0.03054200
O       11.69889517      17.52253585       7.03535970       0.19152567      -0.68106556      -0.11868829
H       12.54900204      17.50480933       6.57184796       0.11021301       0.20733166      -0.16472516
H       11.27851761      18.19216602       6.49588851       0.00488689       0.13531125      -0.14723554
O       -7.23038388     -11.22137817       5.12834916      -0.08671487       0.10265497      -0.86013465
H       -6.82188769     -11.41523551       4.29618850      -0.38715410      -0.24491375       0.10244243
H       -7.25970384     -11.87525896       5.80195969       0.29137108       0.16751968      -0.25183954
O      -24.19045523       3.34040448      10.68090429      -0.53759490      -0.57905576      -0.49233900
H      -24.88717517       3.80558470      10.33212235       0.07992313      -0.04255515      -0.01705426
H      -23.37499634       3.57553239      10.19826426      -0.55195150      -0.23082546       0.24922641
O      -11.41992617      -8.25372196      18.48413377       0.23712365      -0.22237003       0.27797227
H      -10.54866007      -8.59192797      18.80321911      -0.05932226       0.00780213      -0.41639483
H      -11.44721934      -8.17360154      17.48331995      -0.00153168      -0.09880101       0.44151266
O        8.45021931       7.39003663      16.87450328      -2.45941598       0.72285873      -0.19729530
H        9.35693610       7.26220433      16.99776448       0.02730109       0.00583642       0.16413504
H        8.20652824       6.88642164      16.04574780       0.12178573       0.03624286      -0.31015527
O      -11.63745344      -0.46916340      20.43857294      -0.44544990      -0.00900845      -0.10252401
H      -12.29963157       0.12171095      20.83451994       0.18166008       0.35997839       0.12453138
H      -11.75820916      -0.75879578      19.52300774       0.14817913       0.01450093       0.52985729
O       24.10815717       2.55267744      16.15956545      -0.64967617       0.78702804      -0.32885908
H       23.90799613       2.29041739      17.06536472       0.02149972       0.03071425      -0.32271400
H       24.14587276       1.54168456      15.76965648       0.15366631      -0.00088801       0.10401783
O       -5.63979288     -17.91475951      -5.13312457       0.48354259       0.41948604      -1.62485069
H       -4.74498328     -17.41066257      -5.18673980       0.02809791       0.50738425       0.02748198
H       -6.00356537     -18.66220793      -5.74980451      -0.34065845       0.14502002      -0.11252776
O       29.32668982      -8.88610557      -6.17704124      -1.74073316       0.96910047      -0.39703461
H       30.17851296      -9.15197216      -6.30043258      -0.09794638      -0.19256506       0.34430258
H       28.93515749      -9.69743781      -5.76742034       0.08084615       0.21025971       0.06396776
O        8.82898621      -0.65220939       3.44227464       0.31316862       0.28272187       0.33297668
H        8.11364096       0.00365397       3.14575314      -0.23537208       0.08983846       0.27480516
H        8.34092970      -1.47557499       3.63687477      -0.10931634      -0.15173707       0.08744207
O      -19.75893807      -3.10898515      24.76790098       0.25028419       0.33585987       0.46155702
H      -19.82437005      -3.89778959      24.37690068       0.06233971       0.12892016       0.08538349
H      -19.26583199      -3.15576961      25.53995527      -0.34420205       0.47328642      -0.18676598
O        2.52270794      -5.76330592      -5.99972616       1.06925989      -0.23306108       0.36178533
H        2.14392939      -5.64729264      -5.04913586       0.08699262       0.10870060      -0.07593658
H        2.17089088      -6.66175856      -6.33756318       0.37543262       0.22738559      -0.13554061
O        9.85906208       8.25298807       7.95609851      -0.32373925      -0.06541429       0.33245090
H       10.49958956       8.43035569       7.24728696       0.21598115      -0.10490920       0.02464897
H        9.97470156       7.33281054       8.27398144       0.10358199      -0.04339493      -0.18260840
O        5.41870931       9.70652763      -4.90314603       1.25358368      -0.64523058      -1.41901694
H        6.08345366       9.06857487      -4.83695097      -0.27645145      -0.16933630      -0.06027848
H        4.86764141       9.67759233      -4.07828302      -0.17517530      -0.03282526       0.18307126
O       13.70092431      29.39154440      15.87303446      -0.58009254      -0.50268065      -0.11319355
H       12.79921096      28.96644259      15.81554570       0.06484035      -0.04328501      -0.09995033
H       14.31456511      28.79099545      15.47375865      -0.21198309       0.09678101      -0.19822820
O       -2.86288725       3.99243707       1.71902992      -0.97310660       0.40541033      -0.19371891
H       -2.68177692       3.07984385       2.24923816      -0.11677423      -0.32902029       0.17837986
H       -2.49196847       4.87870699       2.00433133       0.32093757      -0.29253341       0.22768011
O        7.84425134     -14.02264339      10.88351626      -0.17294643      -0.54250677      -1.51456505
H        6.90672453     -14.41227089      10.96492242       0.71630534       0.36908949       0.08599412
H        8.03248817     -14.21401012      10.01272959      -0.08504578       0.27924998       0.29837663
O       -2.50786618      10.57722651      24.28454830      -0.41261781       0.70133245       0.29699114
H       -2.21166512      10.24606386      23.37190279      -0.17655158       0.26033372      -0.50079080
H       -3.33454111      10.95058592      24.16317995       0.34114736      -0.50300725      -0.36195459
O       19.98781506      21.77210669       1.53157951      -1.14100120       0.49833191       0.30281094
H       19.80540161      22.15765095       2.37033364       0.01688101      -0.30303173      -0.58998135
H       19.53610066      20.99994104       1.66613276       0.02729689       0.28658628       0.39747917
O       12.22625886      10.01468723     -15.86687932       0.70861671       0.70938575      -0.00330937
H       12.53840474       9.15949864     -15.66126079      -0.02512317      -0.50230693      -0.03294841
H       12.46897104      10.27646653     -16.72094740      -0.24067260      -0.02358089       0.52617237
O      -11.35121819      22.28818344       0.99366774       0.42723100       0.35841864      -1.10411518
H      -11.80128480      21.51674577       1.02281047       0.39477610       0.50824723       0.02673168
H      -11.03045546      22.45467211       1.88488320      -0.21536916      -0.43664812       0.16540869
O        2.94639992     -15.06131866      16.05114891       0.19992128      -0.55735018      -0.44681465
H        3.31139673     -15.44273448      16.81425593       0.01883738       0.22881109       0.01573187
H        3.67697362     -14.59375955      15.67938532      -0.05968610      -0.09945765      -0.26440573
O        2.35676091      16.31246448       0.44368456      -0.37470574       0.54665486       2.03017802
H        1.91606356      16.17911169      -0.41608805      -0.25018409      -0.45632128      -0.69990809
H        2.79236368      15.48670087       0.66798695      -0.27754667      -0.29498830      -0.33033770
O       -5.77817988      -7.33445642       5.63040148      -0.45901084      -0.57350003       0.94957529
H       -5.16361086      -7.72868143       6.30051907      -0.22615040      -0.01834601      -0.09443160
H       -5.31204120      -6.92775222       4.96698640      -0.19265119      -0.10445469      -0.36321635
O       -2.13957217       2.41788500       6.68868614      -0.39181673      -0.19388483      -0.16956503
H       -1.80949929       3.24132469       6.73520054       0.50482873       0.07170860       0.09637881
H       -1.70644986       1.92293649       7.31877111       0.51526083       0.05270294       0.51669898
O       13.23745803      -5.58195901      -1.45228573       1.03693489      -2.00307596       0.13897748
H       14.00568275      -5.59169541      -2.07638386      -0.13346720      -0.25773007      -0.02758566
H       12.82244008      -6.36674568      -1.70100346       0.04558060       0.69719282      -0.10851237
O       11.83334765       4.84532891      22.70912572       0.60413353      -0.70146944       0.00556363
H       11.09645682       4.49821485      23.18589132      -0.26898763       0.31674884       0.21091037
H       11.81923945       4.66068427      21.73913082      -0.29679277       0.03300994      -0.10831384
O        8.07807343      14.50687049      23.89961645      -1.24259671      -0.36029911       1.27017895
H        8.98623280      14.76441869      23.65485553       0.21762367       0.20625154      -0.20942444
H        8.06137917      13.57910092      23.86624173      -0.27962385       0.64772658      -0.23273010
O       -8.00406972       6.94187217      11.40806519       0.53854642      -0.28521452      -0.05005991
H       -7.28347924       6.49846291      10.90632032       0.14238102      -0.46972188       0.24250286
H       -7.94855865       6.51528525      12.32842509       0.63840134      -0.16684956      -0.07893418
