192
Lattice="13.729063034057617 0.0 0.0 -5.291772140481044e-07 13.729063034057617 0.0 -5.291772140481044e-07 -5.291772140481044e-07 13.729063034057617" Properties=species:S:1:pos:R:3:momenta:R:3 pbc="T T T"
O        4.87231970       6.03267288       5.26176214      -0.05249207       0.42978621      -0.19785996
H        3.99792838       6.32022762       4.98796082       0.23373394      -0.26429143      -0.10110627
H        4.76397610       5.09394407       5.43554926       0.29938067       0.20688634      -0.10551084
O        8.04264641       7.82970524       1.20913279       0.34719869       0.00157770       1.06461455
H        8.75470734       8.44286346       1.42880487       0.01651430      -0.17839884       0.16966804
H        8.05651093       7.79451513       0.25352457      -0.09516232       0.05747524      -0.21378381
O        7.31254053      12.39930916       8.66734028      -0.80303268      -0.66417549      -0.15900148
H        6.47908688      12.08471298       8.32797909       0.26521467      -0.23023407      -0.27996556
H        7.16225481      13.18434429       9.18736267      -0.28802822      -0.15964738       0.14658657
O       -0.18054892       9.01082897       2.27807093       1.40250508       0.02509970      -0.04429359
H        0.01770309       8.21674633       2.80031037      -0.04306097       0.15138167      -0.01048797
H       -0.08157795       8.72745514       1.36712921       0.41369034      -0.15059446       0.08748534
O        5.35458517       8.39031601       2.75030851       0.36970693      -1.03503245      -0.06163203
H        5.55974722       7.45769453       2.85224390      -0.24271543      -0.05033093       0.16595598
H        6.21804333       8.76989460       2.58048487      -0.30172887       0.07834802       0.13145209
O        3.85552692      12.89737034       8.63183212      -0.36300295       0.49242266       0.18662216
H        3.56445289      12.22356892       7.98115635       0.12469912      -0.14037163       0.20806578
H        3.83770418      12.48392487       9.50238132       0.19309281      -0.12599822       0.28172721
O       13.10999393       5.04651928       5.37834549      -1.29915968       0.30113946      -0.51459738
H       14.45854950       3.34186506       6.10855675      -0.09031236       0.08420909      -0.05799075
H       12.17435646       4.97762585       5.62425375       0.13941899      -0.06478603       0.14557733
O       13.15952587      13.26636600      11.54484749      -0.60032391       0.64358868      -0.05419267
H       -0.31339145      13.13729954      10.63254547      -0.18187561       0.16579722      -0.25927034
H       12.99627495       0.48355469      11.68952465      -0.04165328       0.13213659       0.04508080
O       10.55338097       4.13780069       0.41186973       0.59354178      -0.55505956      -0.58965214
H        9.93149090       4.35256672       1.10783768      -0.11478421      -0.07639319      -0.04820579
H       10.81945133       5.02018785       0.14459237       0.10076980       0.09050936       0.02393030
O        0.42688778       4.81354380      12.21541977      -0.77664526      -0.76353454      -0.01942497
H        1.38362372       4.90386915      12.25214577       0.41923883      -0.05711246       0.10222955
H        0.16065237       4.65215540      11.32550335      -0.13458239       0.22593470       0.16982997
O        9.64758873      12.46979618       1.01994145      -0.87130046       0.43298172       0.15316081
H        9.73945332      11.58580494       0.72805256      -0.10009586       0.23650253      -0.07026102
H       10.45643520      12.74449158       1.57894826       0.10532454       0.16729959       0.01855985
O        4.26516294      12.11011410      11.77731419       0.29796033       0.65163553       0.00385161
H        3.73802829      11.52113914      12.30400467       0.23848243       0.11693224      -0.16591983
H        4.65576410      12.72459412      12.38565731      -0.10146737       0.04139300      -0.24120890
O        2.81585240      11.07102203       0.67490202       0.98307127      -0.80536621      -0.22300565
H        1.89164972      10.79643154       0.71778655      -0.08984792       0.20492339      -0.13852055
H        3.23105025      10.19565678       0.62040204       0.01676702       0.03653764      -0.10327430
O        3.15537238       5.60255766       2.49085283       0.02030215      -0.53312809       0.32189791
H        2.92504811       5.68479156       1.56024718       0.31002825       0.19577101      -0.37639045
H        3.71014071       4.83087969       2.55869341       0.18906553       0.25100491       0.04403603
O        8.21817493       2.35453677       6.34573412       0.86783249       1.15424326       0.27120769
H        7.84177113       2.06399727       7.17998219       0.03450539      -0.04935143      -0.04614265
H        7.46499681       2.55640745       5.79152679       0.04056128       0.12833881      -0.07604554
O        7.69159031       4.92637491       0.54674059      -0.80973882      -0.73323518       1.00465225
H        7.44478226       4.43248320      -0.23637128       0.07459933       0.10367473      -0.14666908
H        7.52172422       5.83401966       0.33186552       0.13060975       0.18012756      -0.10912712
O        0.66564137       7.87108707       7.67587376       0.55174298      -0.37498042      -0.29340220
H        0.14267622       8.63156796       7.39747381       0.19704240       0.36130585       0.05151519
H        1.02820182       8.00650406       8.55753613      -0.02206774       0.23223223       0.06801753
O        2.32144737       6.13237000       5.98382998       0.40146278       0.19455928       1.57033234
H        1.73543131       5.43327379       5.69923878       0.40667092      -0.18980100       0.04685859
H        1.73390722       6.84776449       6.26302338       0.12595937      -0.08496686      -0.13367816
O       12.43624592       9.18725681      12.50329304      -1.16696353      -0.58367884       0.29984663
H       12.28405380       8.53208256      13.19058800      -0.14304223      -0.25292174      -0.04395737
H       12.19393539      10.06521511      12.84291840       0.04982946      -0.35366732      -0.00528402
O        7.92453384      12.09746742       5.33622265       0.42970279      -0.42124708      -0.23285170
H        6.87305927      11.61125946       5.43962383      -0.22108601      -0.22992502       0.11132000
H        7.87082291      12.66405678       6.11099148      -0.20065249      -0.04859009       0.09246971
O        2.82866359       2.53486967       0.16155674       1.26518897      -0.05590650       0.15634654
H        1.94793832       2.27329755       0.37328315      -0.11426396      -0.10003625      -0.18657015
H        3.12515664       1.98864257      -0.56728327       0.29734924      -0.50007729       0.25857517
O        7.22543859       6.67091370       8.35353851       0.42110716      -0.03060200      -0.41390096
H        7.43991375       7.16082573       7.53939915       0.18783832       0.10382189      -0.14154009
H        7.17823601       7.36762810       9.00410938      -0.15637528      -0.01394348      -0.00513194
O        9.45152760       8.42714691      12.11281300       1.00241930      -0.46688591       0.02129070
H        9.28462601       9.30044842      11.73799706      -0.04317359      -0.37239705       0.04952217
H       10.13929939       8.56176949      12.76719284       0.02273425      -0.08295069      -0.27146400
O        7.57363701      13.27340412       2.37208986       0.02429367      -0.42950401      -0.10566560
H        7.63777304      13.02924252       3.30001259       0.07669009       0.03365734      -0.17345900
H        8.32263374      12.81915951       1.91181660       0.08712838       0.02069288      -0.10024996
O        5.55514336       8.94473457      12.49509144      -0.24063067       0.29488881      -0.40145512
H        6.46231174       8.67437840      12.36284924      -0.18092567       0.09745399       0.34301614
H        5.42274332       9.67235279      11.87812233       0.06693313      -0.03869187       0.03489858
O       11.18590641       0.58186209       5.47783041      -0.37273815      -0.39451277       0.34598346
H       10.25767612       0.71638423       5.73670435       0.16843595       0.02853927       0.25865340
H       11.52383804       1.34535897       4.95547962      -0.01796491      -0.06543159       0.15629947
O       -0.14803202      11.71804714       0.11470657       0.24662745       0.42434611       0.10291873
H        0.03266240      11.53643227      12.91837978       0.10319711      -0.16035690       0.22540205
H       13.67589664      12.67813301       0.13420568       0.23345419       0.16781464      -0.07656036
O        9.84830475       6.39108467      10.19311619       0.06795806      -0.12405228      -0.06943429
H        8.89324570       6.40902376      10.08558846      -0.03983097       0.02261990       0.12456843
H       10.01563072       7.07843256      10.84125328      -0.15965113      -0.07931654      -0.41489601
O       10.26921272       1.47069991      10.79971313       0.66699835      -0.04635342       0.16151729
H       10.25280762       0.65898961      10.28519344      -0.08051778      -0.12371547       0.52705129
H        9.47010231       1.37996709      11.33206463      -0.05783993      -0.17476794       0.08330882
O        5.29282999       2.82884884       5.44899035       1.13985310       0.22273913      -0.77495136
H        4.63228464       3.09595132       6.10532904       0.08668423       0.06495778       0.22783504
H        4.83467436       2.11960316       4.97864199      -0.05587597      -0.10398917      -0.00972523
O        9.94789600       9.88730526       5.46079111      -0.98170296      -0.04265410       0.07320845
H        9.39871597      10.66318417       5.61483479       0.16694456      -0.07961357      -0.12936164
H        9.35378838       9.13767338       5.54514170      -0.34766220      -0.15138548      -0.25734636
O        4.58801937      12.70210457       2.80307269      -0.57082151       0.07488804       1.21307428
H        5.44184637      12.99553394       2.45535040      -0.02237558       0.06177574       0.13843642
H        4.03951120      12.32400703       2.09996033      -0.23133851       0.04550109       0.11286720
O       13.04098988       9.38961411       5.57456398      -0.11408057      -0.11940533      -0.11023688
H       13.32081890      10.30752468       5.66791105       0.06199083      -0.26085779      -0.32931924
H       12.10418701       9.46248245       5.37157154       0.10651392       0.06909256      -0.15775510
O       11.95114899       4.30913210      10.51602077       0.34410644       0.19753781       0.18232676
H       11.46367168       4.98505020      11.00334072      -0.01337769      -0.09551919       0.07896052
H       11.38979816       3.52625680      10.50697231      -0.07628791      -0.12749159       0.07808224
O        4.53454590      10.85517025       5.09519339      -0.50003989      -0.56875888      -0.77189673
H        4.84718370      10.01737690       4.79619789       0.11282683       0.14883015      -0.09488664
H        4.57121754      11.50335884       4.37280273       0.08224383      -0.13252979       0.02223578
O        7.71000624       2.32681847       2.86092257      -0.01855748      -0.22795077      -1.37290857
H        7.80996752       1.59509885       2.24276948       0.02186403      -0.14373038      -0.13296335
H        7.44229507       3.07795382       2.32895112      -0.22819592      -0.21197974       0.03562071
O       -0.33356526       1.92688763      12.70485592       0.40011463      -0.36981548      -0.12839255
H        0.09385487       2.60067821      12.17848396      -0.16328444       0.20188076      -0.29490480
H       12.66844845       2.38282132      13.12930965      -0.09615567       0.10350460      -0.16094809
O        2.83046842       5.14085627      10.60444546      -0.15287410       0.82097887      -0.40286084
H        2.52653527       4.45133781      10.03986740      -0.19734559      -0.18081072      -0.18884856
H        3.55370522       5.56376886      10.13215542       0.28032544       0.02086767       0.17758868
O       13.39003468      12.49053955       5.72839594      -0.83307598      -0.12906442       1.34057579
H        0.48047701      12.99331093       5.85492229       0.39853343       0.17996803       0.11291902
H       11.77144146      13.44623375       5.67309713       0.15301269       0.01954478       0.06304008
O        5.34103823       4.15327358      12.12567139      -1.31459591      -0.64311250      -0.73468966
H        4.38663578       4.29468060      12.00761223       0.03002889      -0.03729256      -0.08309923
H        5.74554157       3.90718508      11.31296158       0.15478029       0.30395968      -0.10871812
O        4.53576803       7.95056963       9.55524731       0.70031175       0.51458501       0.37306775
H        5.03503656       7.73207235      10.34430218      -0.21321914      -0.14371801       0.23954856
H        3.66227126       7.57241964       9.66430950       0.17372632       0.05081917      -0.11565323
O        9.31933975       5.37416458       5.42496586      -0.14809168       0.19132252      -0.05497363
H        9.64584255       5.15030670       6.29551506       0.06892465       0.17830915       0.20746192
H        8.52038765       4.84772301       5.37702274      -0.11003749       0.33420156      -0.20950945
O        5.98430586       3.88964272       9.08750629       0.90120731       0.24604636      -0.08483645
H        5.14352846       3.74924684       8.64342117      -0.20331186      -0.07506673       0.12866501
H        6.38060665       4.66162777       8.66670609      -0.07712629      -0.26250431       0.09303266
O        2.06661153       0.82620966       7.40890408      -0.23250471       0.27329367       0.21884499
H        2.88669324       0.51371568       8.30681229       0.20295595       0.34901706       0.02871360
H        1.17534494       1.13623869       7.67576838       0.10914662       0.16787625       0.15951317
O       10.85850430       2.18945456       3.18004799      -0.51311884      -0.37319162      -0.44359147
H       10.07939720       1.62399197       3.15068913       0.00099950      -0.21475088      -0.45489524
H       10.83289242       2.69209361       2.37670946      -0.07430800      -0.05535833       0.41010870
O       13.15412807       2.61015058       8.13445854       0.34771208       0.46344792      -0.04527346
H       13.29372501       3.48437238       7.76160049      -0.02598365      -0.07298982       0.16321597
H       13.12930965       1.99748504       7.39964342      -0.07538586      -0.04303971       0.01779628
O       12.00464916      10.20893955       8.71263790       1.12275672       0.87258243      -0.24872911
H       11.24586201       9.92852783       8.19023418      -0.10811951      -0.23742007       0.05430672
H       11.99814034       9.79464626       9.56641197      -0.08635190      -0.00454109      -0.24926008
O        3.47637129       1.73139358       3.12540507      -0.16010688      -0.82528744       0.01236695
H        3.56118798       0.79236346       2.99266648       0.05901906      -0.22134900      -0.15750317
H        3.60118318       2.19065595       2.30653501      -0.01058511       0.12446824      -0.13855125
O        3.17721152       3.74068999       7.75265741      -0.90850307       0.65367465      -0.67405817
H        2.46739984       3.19542050       7.39165258       0.38254987       0.01874860      -0.05806741
H        3.07232881       4.61394358       7.35334015      -0.10542020       0.04529390      -0.12085395
O       12.53451443       6.50406408      -0.03187446      -0.91392638      -0.38775613       0.51697489
H       13.04024887       5.86571789      13.18831253      -0.03621208       0.12446128      -0.19202202
H       12.80195999       6.40182686       0.88348776      -0.22560500       0.39198647      -0.08460541
O        7.59776735       1.70099783       9.57424355       0.58200527      -0.27115806       0.72338727
H        8.25394726       2.20358372       9.08554935       0.08793284       0.35095300       0.13987876
H        6.98323393       2.36124158       9.83581638      -0.06880853       0.04566815      -0.09717716
O       11.91394806       6.92020893       7.02609730       0.13944377       0.04086983       0.18063781
H       12.69808292       7.06689644       7.57845259       0.15924099      -0.13258539       0.26712779
H       11.24819088       6.51649952       7.57702351       0.29159227      -0.04121875      -0.11456170
O        1.26494515       9.28526020      10.44627571       0.91127851      -0.20608698       0.18960772
H        0.92774820       8.74682331      11.16103458       0.23754968       0.13696255       0.13554435
H        1.21250904      10.18814278      10.76997280       0.09598687       0.15423712       0.11823339
O        7.87537384      10.96804428      11.52336216      -1.91865226       0.22744042       0.08608751
H        7.68868017      11.62940979      12.17054653      -0.20324885       0.05252160      -0.28212601
H        8.34406567      11.41615105      10.81479454       0.10342690      -0.24087438       0.10755075
O       10.35425091       9.46899128       2.35070038      -0.05804907       0.29063205       0.56199249
H       10.21862316       9.31441784       3.29563618       0.09044294      -0.23037097       0.20985748
H       10.97233009      10.18480873       2.32447433      -0.16366203       0.10644628      -0.01604324
O        0.68285555      11.85372734       9.17688560       1.44969001       0.64752212      -0.57862141
H        0.52617043      11.33698559       8.40301609       0.11933751       0.27074540      -0.21566166
H        1.55266404      12.24108505       9.10528660       0.25618075       0.14678541       0.06378527
O        3.36249232       8.46313095       0.59535605      -0.29481845       0.81232604      -0.18921855
H        4.20823956       8.65622807       1.02383089      -0.03867170       0.19939543       0.33862755
H        3.62913942       7.97253036      -0.18075529       0.07065947      -0.37318197      -0.26842543
O        5.59536076       0.65534359      -0.15881982      -1.19258314       0.86701636      -0.48299321
H        5.65547514       0.44012672       0.77433437      -0.08033735      -0.32145709      -0.24212866
H        5.82391262       1.58436704      -0.23229556       0.02463125       0.11523549      -0.07842954
O        0.75025684       2.37179852       4.27683115       1.21448006       0.23966017       0.43855874
H        1.25086904       1.59908354       3.99660563       0.06677894       0.12354996       0.17930765
H        0.76486212       2.28226185       5.24256372       0.00179660       0.14464463      -0.18570847
O        0.25404209       5.98732233       2.73544383      -0.58672118      -0.51912595       0.30387052
H        0.11002810       5.63721848       3.60821581      -0.01994142      -0.30094753      -0.16193710
H        1.02816486       5.61091852       2.38179469      -0.15298393       0.12806934      -0.10326579
O        7.34005785       7.82176828       5.83343744      -0.77178786      -0.21477169      -0.50299342
H        7.95459127       7.13463163       5.53709841      -0.05351015       0.42646352       0.02253089
H        6.44500780       7.47002363       5.87196207       0.06218534      -0.15536207       0.08882382
O        8.63701820      -0.14084952      12.41830635      -1.88640663      -1.33635888      -0.71397876
H        7.75371599      -0.18892577      12.78544998      -0.21645117      -0.09966725      -0.17515250
H        9.25927734      13.29150200      13.10650158      -0.28244173       0.07292373      -0.14420918
O        2.84601545      10.46902943       7.19262934       0.05141702       0.52300840       0.84015665
H        2.89372087      10.20153046       6.27000904      -0.19900229      -0.14071044      -0.14013766
H        2.35109735       9.80179024       7.66147995      -0.33113115       0.14678195       0.15657213
O       11.86081886      13.28710938       2.23778963      -0.02532161       0.97150704      -0.03771329
H       11.94030094       0.27256808       2.88027978       0.07053386       0.01230540       0.16655971
H       14.11088085      11.16383934       2.74317503       0.28452683      -0.19628915       0.15473023
192
Lattice="13.729063034057617 0.0 0.0 -5.291772140481044e-07 13.729063034057617 0.0 -5.291772140481044e-07 -5.291772140481044e-07 13.729063034057617" Properties=species:S:1:pos:R:3:momenta:R:3 pbc="T T T"
O        4.87231970       6.03267288       5.26176214      -0.05249207       0.42978621      -0.19785996
H        3.99792838       6.32022762       4.98796082       0.23373394      -0.26429143      -0.10110627
H        4.76397610       5.09394407       5.43554926       0.29938067       0.20688634      -0.10551084
O        8.04264641       7.82970524       1.20913279       0.34719869       0.00157770       1.06461455
H        8.75470734       8.44286346       1.42880487       0.01651430      -0.17839884       0.16966804
H        8.05651093       7.79451513       0.25352457      -0.09516232       0.05747524      -0.21378381
O        7.31254053      12.39930916       8.66734028      -0.80303268      -0.66417549      -0.15900148
H        6.47908688      12.08471298       8.32797909       0.26521467      -0.23023407      -0.27996556
H        7.16225481      13.18434429       9.18736267      -0.28802822      -0.15964738       0.14658657
O       -0.18054892       9.01082897       2.27807093       1.40250508       0.02509970      -0.04429359
H        0.01770309       8.21674633       2.80031037      -0.04306097       0.15138167      -0.01048797
H       -0.08157795       8.72745514       1.36712921       0.41369034      -0.15059446       0.08748534
O        5.35458517       8.39031601       2.75030851       0.36970693      -1.03503245      -0.06163203
H        5.55974722       7.45769453       2.85224390      -0.24271543      -0.05033093       0.16595598
H        6.21804333       8.76989460       2.58048487      -0.30172887       0.07834802       0.13145209
O        3.85552692      12.89737034       8.63183212      -0.36300295       0.49242266       0.18662216
H        3.56445289      12.22356892       7.98115635       0.12469912      -0.14037163       0.20806578
H        3.83770418      12.48392487       9.50238132       0.19309281      -0.12599822       0.28172721
O       13.10999393       5.04651928       5.37834549      -1.29915968       0.30113946      -0.51459738
H       14.45854950       3.34186506       6.10855675      -0.09031236       0.08420909      -0.05799075
H       12.17435646       4.97762585       5.62425375       0.13941899      -0.06478603       0.14557733
O       13.15952587      13.26636600      11.54484749      -0.60032391       0.64358868      -0.05419267
H       -0.31339145      13.13729954      10.63254547      -0.18187561       0.16579722      -0.25927034
H       12.99627495       0.48355469      11.68952465      -0.04165328       0.13213659       0.04508080
O       10.55338097       4.13780069       0.41186973       0.59354178      -0.55505956      -0.58965214
H        9.93149090       4.35256672       1.10783768      -0.11478421      -0.07639319      -0.04820579
H       10.81945133       5.02018785       0.14459237       0.10076980       0.09050936       0.02393030
O        0.42688778       4.81354380      12.21541977      -0.77664526      -0.76353454      -0.01942497
H        1.38362372       4.90386915      12.25214577       0.41923883      -0.05711246       0.10222955
H        0.16065237       4.65215540      11.32550335      -0.13458239       0.22593470       0.16982997
O        9.64758873      12.46979618       1.01994145      -0.87130046       0.43298172       0.15316081
H        9.73945332      11.58580494       0.72805256      -0.10009586       0.23650253      -0.07026102
H       10.45643520      12.74449158       1.57894826       0.10532454       0.16729959       0.01855985
O        4.26516294      12.11011410      11.77731419       0.29796033       0.65163553       0.00385161
H        3.73802829      11.52113914      12.30400467       0.23848243       0.11693224      -0.16591983
H        4.65576410      12.72459412      12.38565731      -0.10146737       0.04139300      -0.24120890
O        2.81585240      11.07102203       0.67490202       0.98307127      -0.80536621      -0.22300565
H        1.89164972      10.79643154       0.71778655      -0.08984792       0.20492339      -0.13852055
H        3.23105025      10.19565678       0.62040204       0.01676702       0.03653764      -0.10327430
O        3.15537238       5.60255766       2.49085283       0.02030215      -0.53312809       0.32189791
H        2.92504811       5.68479156       1.56024718       0.31002825       0.19577101      -0.37639045
H        3.71014071       4.83087969       2.55869341       0.18906553       0.25100491       0.04403603
O        8.21817493       2.35453677       6.34573412       0.86783249       1.15424326       0.27120769
H        7.84177113       2.06399727       7.17998219       0.03450539      -0.04935143      -0.04614265
H        7.46499681       2.55640745       5.79152679       0.04056128       0.12833881      -0.07604554
O        7.69159031       4.92637491       0.54674059      -0.80973882      -0.73323518       1.00465225
H        7.44478226       4.43248320      -0.23637128       0.07459933       0.10367473      -0.14666908
H        7.52172422       5.83401966       0.33186552       0.13060975       0.18012756      -0.10912712
O        0.66564137       7.87108707       7.67587376       0.55174298      -0.37498042      -0.29340220
H        0.14267622       8.63156796       7.39747381       0.19704240       0.36130585       0.05151519
H        1.02820182       8.00650406       8.55753613      -0.02206774       0.23223223       0.06801753
O        2.32144737       6.13237000       5.98382998       0.40146278       0.19455928       1.57033234
H        1.73543131       5.43327379       5.69923878       0.40667092      -0.18980100       0.04685859
H        1.73390722       6.84776449       6.26302338       0.12595937      -0.08496686      -0.13367816
O       12.43624592       9.18725681      12.50329304      -1.16696353      -0.58367884       0.29984663
H       12.28405380       8.53208256      13.19058800      -0.14304223      -0.25292174      -0.04395737
H       12.19393539      10.06521511      12.84291840       0.04982946      -0.35366732      -0.00528402
O        7.92453384      12.09746742       5.33622265       0.42970279      -0.42124708      -0.23285170
H        6.87305927      11.61125946       5.43962383      -0.22108601      -0.22992502       0.11132000
H        7.87082291      12.66405678       6.11099148      -0.20065249      -0.04859009       0.09246971
O        2.82866359       2.53486967       0.16155674       1.26518897      -0.05590650       0.15634654
H        1.94793832       2.27329755       0.37328315      -0.11426396      -0.10003625      -0.18657015
H        3.12515664       1.98864257      -0.56728327       0.29734924      -0.50007729       0.25857517
O        7.22543859       6.67091370       8.35353851       0.42110716      -0.03060200      -0.41390096
H        7.43991375       7.16082573       7.53939915       0.18783832       0.10382189      -0.14154009
H        7.17823601       7.36762810       9.00410938      -0.15637528      -0.01394348      -0.00513194
O        9.45152760       8.42714691      12.11281300       1.00241930      -0.46688591       0.02129070
H        9.28462601       9.30044842      11.73799706      -0.04317359      -0.37239705       0.04952217
H       10.13929939       8.56176949      12.76719284       0.02273425      -0.08295069      -0.27146400
O        7.57363701      13.27340412       2.37208986       0.02429367      -0.42950401      -0.10566560
H        7.63777304      13.02924252       3.30001259       0.07669009       0.03365734      -0.17345900
H        8.32263374      12.81915951       1.91181660       0.08712838       0.02069288      -0.10024996
O        5.55514336       8.94473457      12.49509144      -0.24063067       0.29488881      -0.40145512
H        6.46231174       8.67437840      12.36284924      -0.18092567       0.09745399       0.34301614
H        5.42274332       9.67235279      11.87812233       0.06693313      -0.03869187       0.03489858
O       11.18590641       0.58186209       5.47783041      -0.37273815      -0.39451277       0.34598346
H       10.25767612       0.71638423       5.73670435       0.16843595       0.02853927       0.25865340
H       11.52383804       1.34535897       4.95547962      -0.01796491      -0.06543159       0.15629947
O       -0.14803202      11.71804714       0.11470657       0.24662745       0.42434611       0.10291873
H        0.03266240      11.53643227      12.91837978       0.10319711      -0.16035690       0.22540205
H       13.67589664      12.67813301       0.13420568       0.23345419       0.16781464      -0.07656036
O        9.84830475       6.39108467      10.19311619       0.06795806      -0.12405228      -0.06943429
H        8.89324570       6.40902376      10.08558846      -0.03983097       0.02261990       0.12456843
H       10.01563072       7.07843256      10.84125328      -0.15965113      -0.07931654      -0.41489601
O       10.26921272       1.47069991      10.79971313       0.66699835      -0.04635342       0.16151729
H       10.25280762       0.65898961      10.28519344      -0.08051778      -0.12371547       0.52705129
H        9.47010231       1.37996709      11.33206463      -0.05783993      -0.17476794       0.08330882
O        5.29282999       2.82884884       5.44899035       1.13985310       0.22273913      -0.77495136
H        4.63228464       3.09595132       6.10532904       0.08668423       0.06495778       0.22783504
H        4.83467436       2.11960316       4.97864199      -0.05587597      -0.10398917      -0.00972523
O        9.94789600       9.88730526       5.46079111      -0.98170296      -0.04265410       0.07320845
H        9.39871597      10.66318417       5.61483479       0.16694456      -0.07961357      -0.12936164
H        9.35378838       9.13767338       5.54514170      -0.34766220      -0.15138548      -0.25734636
O        4.58801937      12.70210457       2.80307269      -0.57082151       0.07488804       1.21307428
H        5.44184637      12.99553394       2.45535040      -0.02237558       0.06177574       0.13843642
H        4.03951120      12.32400703       2.09996033      -0.23133851       0.04550109       0.11286720
O       13.04098988       9.38961411       5.57456398      -0.11408057      -0.11940533      -0.11023688
H       13.32081890      10.30752468       5.66791105       0.06199083      -0.26085779      -0.32931924
H       12.10418701       9.46248245       5.37157154       0.10651392       0.06909256      -0.15775510
O       11.95114899       4.30913210      10.51602077       0.34410644       0.19753781       0.18232676
H       11.46367168       4.98505020      11.00334072      -0.01337769      -0.09551919       0.07896052
H       11.38979816       3.52625680      10.50697231      -0.07628791      -0.12749159       0.07808224
O        4.53454590      10.85517025       5.09519339      -0.50003989      -0.56875888      -0.77189673
H        4.84718370      10.01737690       4.79619789       0.11282683       0.14883015      -0.09488664
H        4.57121754      11.50335884       4.37280273       0.08224383      -0.13252979       0.02223578
O        7.71000624       2.32681847       2.86092257      -0.01855748      -0.22795077      -1.37290857
H        7.80996752       1.59509885       2.24276948       0.02186403      -0.14373038      -0.13296335
H        7.44229507       3.07795382       2.32895112      -0.22819592      -0.21197974       0.03562071
O       -0.33356526       1.92688763      12.70485592       0.40011463      -0.36981548      -0.12839255
H        0.09385487       2.60067821      12.17848396      -0.16328444       0.20188076      -0.29490480
H       12.66844845       2.38282132      13.12930965      -0.09615567       0.10350460      -0.16094809
O        2.83046842       5.14085627      10.60444546      -0.15287410       0.82097887      -0.40286084
H        2.52653527       4.45133781      10.03986740      -0.19734559      -0.18081072      -0.18884856
H        3.55370522       5.56376886      10.13215542       0.28032544       0.02086767       0.17758868
O       13.39003468      12.49053955       5.72839594      -0.83307598      -0.12906442       1.34057579
H        0.48047701      12.99331093       5.85492229       0.39853343       0.17996803       0.11291902
H       11.77144146      13.44623375       5.67309713       0.15301269       0.01954478       0.06304008
O        5.34103823       4.15327358      12.12567139      -1.31459591      -0.64311250      -0.73468966
H        4.38663578       4.29468060      12.00761223       0.03002889      -0.03729256      -0.08309923
H        5.74554157       3.90718508      11.31296158       0.15478029       0.30395968      -0.10871812
O        4.53576803       7.95056963       9.55524731       0.70031175       0.51458501       0.37306775
H        5.03503656       7.73207235      10.34430218      -0.21321914      -0.14371801       0.23954856
H        3.66227126       7.57241964       9.66430950       0.17372632       0.05081917      -0.11565323
O        9.31933975       5.37416458       5.42496586      -0.14809168       0.19132252      -0.05497363
H        9.64584255       5.15030670       6.29551506       0.06892465       0.17830915       0.20746192
H        8.52038765       4.84772301       5.37702274      -0.11003749       0.33420156      -0.20950945
O        5.98430586       3.88964272       9.08750629       0.90120731       0.24604636      -0.08483645
H        5.14352846       3.74924684       8.64342117      -0.20331186      -0.07506673       0.12866501
H        6.38060665       4.66162777       8.66670609      -0.07712629      -0.26250431       0.09303266
O        2.06661153       0.82620966       7.40890408      -0.23250471       0.27329367       0.21884499
H        2.88669324       0.51371568       8.30681229       0.20295595       0.34901706       0.02871360
H        1.17534494       1.13623869       7.67576838       0.10914662       0.16787625       0.15951317
O       10.85850430       2.18945456       3.18004799      -0.51311884      -0.37319162      -0.44359147
H       10.07939720       1.62399197       3.15068913       0.00099950      -0.21475088      -0.45489524
H       10.83289242       2.69209361       2.37670946      -0.07430800      -0.05535833       0.41010870
O       13.15412807       2.61015058       8.13445854       0.34771208       0.46344792      -0.04527346
H       13.29372501       3.48437238       7.76160049      -0.02598365      -0.07298982       0.16321597
H       13.12930965       1.99748504       7.39964342      -0.07538586      -0.04303971       0.01779628
O       12.00464916      10.20893955       8.71263790       1.12275672       0.87258243      -0.24872911
H       11.24586201       9.92852783       8.19023418      -0.10811951      -0.23742007       0.05430672
H       11.99814034       9.79464626       9.56641197      -0.08635190      -0.00454109      -0.24926008
O        3.47637129       1.73139358       3.12540507      -0.16010688      -0.82528744       0.01236695
H        3.56118798       0.79236346       2.99266648       0.05901906      -0.22134900      -0.15750317
H        3.60118318       2.19065595       2.30653501      -0.01058511       0.12446824      -0.13855125
O        3.17721152       3.74068999       7.75265741      -0.90850307       0.65367465      -0.67405817
H        2.46739984       3.19542050       7.39165258       0.38254987       0.01874860      -0.05806741
H        3.07232881       4.61394358       7.35334015      -0.10542020       0.04529390      -0.12085395
O       12.53451443       6.50406408      -0.03187446      -0.91392638      -0.38775613       0.51697489
H       13.04024887       5.86571789      13.18831253      -0.03621208       0.12446128      -0.19202202
H       12.80195999       6.40182686       0.88348776      -0.22560500       0.39198647      -0.08460541
O        7.59776735       1.70099783       9.57424355       0.58200527      -0.27115806       0.72338727
H        8.25394726       2.20358372       9.08554935       0.08793284       0.35095300       0.13987876
H        6.98323393       2.36124158       9.83581638      -0.06880853       0.04566815      -0.09717716
O       11.91394806       6.92020893       7.02609730       0.13944377       0.04086983       0.18063781
H       12.69808292       7.06689644       7.57845259       0.15924099      -0.13258539       0.26712779
H       11.24819088       6.51649952       7.57702351       0.29159227      -0.04121875      -0.11456170
O        1.26494515       9.28526020      10.44627571       0.91127851      -0.20608698       0.18960772
H        0.92774820       8.74682331      11.16103458       0.23754968       0.13696255       0.13554435
H        1.21250904      10.18814278      10.76997280       0.09598687       0.15423712       0.11823339
O        7.87537384      10.96804428      11.52336216      -1.91865226       0.22744042       0.08608751
H        7.68868017      11.62940979      12.17054653      -0.20324885       0.05252160      -0.28212601
H        8.34406567      11.41615105      10.81479454       0.10342690      -0.24087438       0.10755075
O       10.35425091       9.46899128       2.35070038      -0.05804907       0.29063205       0.56199249
H       10.21862316       9.31441784       3.29563618       0.09044294      -0.23037097       0.20985748
H       10.97233009      10.18480873       2.32447433      -0.16366203       0.10644628      -0.01604324
O        0.68285555      11.85372734       9.17688560       1.44969001       0.64752212      -0.57862141
H        0.52617043      11.33698559       8.40301609       0.11933751       0.27074540      -0.21566166
H        1.55266404      12.24108505       9.10528660       0.25618075       0.14678541       0.06378527
O        3.36249232       8.46313095       0.59535605      -0.29481845       0.81232604      -0.18921855
H        4.20823956       8.65622807       1.02383089      -0.03867170       0.19939543       0.33862755
H        3.62913942       7.97253036      -0.18075529       0.07065947      -0.37318197      -0.26842543
O        5.59536076       0.65534359      -0.15881982      -1.19258314       0.86701636      -0.48299321
H        5.65547514       0.44012672       0.77433437      -0.08033735      -0.32145709      -0.24212866
H        5.82391262       1.58436704      -0.23229556       0.02463125       0.11523549      -0.07842954
O        0.75025684       2.37179852       4.27683115       1.21448006       0.23966017       0.43855874
H        1.25086904       1.59908354       3.99660563       0.06677894       0.12354996       0.17930765
H        0.76486212       2.28226185       5.24256372       0.00179660       0.14464463      -0.18570847
O        0.25404209       5.98732233       2.73544383      -0.58672118      -0.51912595       0.30387052
H        0.11002810       5.63721848       3.60821581      -0.01994142      -0.30094753      -0.16193710
H        1.02816486       5.61091852       2.38179469      -0.15298393       0.12806934      -0.10326579
O        7.34005785       7.82176828       5.83343744      -0.77178786      -0.21477169      -0.50299342
H        7.95459127       7.13463163       5.53709841      -0.05351015       0.42646352       0.02253089
H        6.44500780       7.47002363       5.87196207       0.06218534      -0.15536207       0.08882382
O        8.63701820      -0.14084952      12.41830635      -1.88640663      -1.33635888      -0.71397876
H        7.75371599      -0.18892577      12.78544998      -0.21645117      -0.09966725      -0.17515250
H        9.25927734      13.29150200      13.10650158      -0.28244173       0.07292373      -0.14420918
O        2.84601545      10.46902943       7.19262934       0.05141702       0.52300840       0.84015665
H        2.89372087      10.20153046       6.27000904      -0.19900229      -0.14071044      -0.14013766
H        2.35109735       9.80179024       7.66147995      -0.33113115       0.14678195       0.15657213
O       11.86081886      13.28710938       2.23778963      -0.02532161       0.97150704      -0.03771329
H       11.94030094       0.27256808       2.88027978       0.07053386       0.01230540       0.16655971
H       14.11088085      11.16383934       2.74317503       0.28452683      -0.19628915       0.15473023
192
Lattice="13.729063034057617 0.0 0.0 -5.291772140481044e-07 13.729063034057617 0.0 -5.291772140481044e-07 -5.291772140481044e-07 13.729063034057617" Properties=species:S:1:pos:R:3:momenta:R:3 pbc="T T T"
O        4.88102571       6.05277014       5.25615986       0.41601940       0.74125855      -0.21244731
H        3.97411766       6.22296933       4.90816877      -0.14743646      -0.19009595      -0.13375317
H        4.94079681       5.08021090       5.39306185       0.40464778      -0.07847753      -0.09513505
O        8.04782205       7.82971542       1.23375360      -0.03319483      -0.00211179       0.65453136
H        8.78632724       8.36744902       1.54940588       0.10505872      -0.12891817       0.32372455
H        8.06762984       7.86347418       0.29516425       0.12639861       0.21603738       0.29317771
O        7.30053776      12.37804923       8.66372666      -0.18594115      -0.64247704      -0.03019664
H        6.52084074      12.01165905       8.21367193       0.03117739      -0.03796175      -0.12179734
H        6.93888717      13.11003362       9.20753184      -0.54279196      -0.24738407      -0.14948813
O       -0.13626173       9.02757280       2.27673615       1.45368795       1.11536302      -0.11810978
H       -0.01427846       8.27103639       2.84102952      -0.06770784      -0.03004670       0.27416085
H        0.19939258       8.70287997       1.43213068       0.68787517       0.04424090       0.18774633
O        5.35690919       8.35597019       2.74247488      -0.30581704      -0.99443528      -0.38773097
H        5.43067658       7.44008718       2.99434095      -0.15977949      -0.03486207       0.36677543
H        6.20211010       8.80768651       2.63891768       0.22569219      -0.09684168       0.08370246
O        3.83334211      12.90731893       8.64877636      -1.00512954       0.39820180       0.96628913
H        3.66848782      12.16930911       8.07882430       0.27219641      -0.31635444       0.01944652
H        4.03569767      12.51995088       9.49782096       0.54498169       0.24457654      -0.20912689
O       13.07660543       5.05507289       5.36117889      -1.13519061       0.17167286      -0.52130618
H       14.39274263       3.11146199       5.41855126      -0.23684307       0.28013657      -1.93921051
H       12.15003545       5.01733740       5.69982426       0.04748560       0.22314580       0.06204414
O       13.14276235      13.28869252      11.53896151      -0.45751160       0.81273211      -0.47468181
H       -0.44071985      13.25830127      10.57308565      -0.35378836       0.29124709       0.12912056
H       13.00593959       0.49455596      11.67142368       0.07994675      -0.07239994      -0.08117668
O       10.57246428       4.12233627       0.39530623       0.66423475      -0.54984044      -0.51690346
H        9.89485039       4.30649973       1.03250244      -0.07761051      -0.10054346      -0.21493264
H       10.86225928       5.00336344       0.19713441       0.09884159      -0.07332030       0.16083986
O        0.41576767       4.79238361      12.22915832      -0.20572109      -0.65084873       0.50886357
H        1.33938811       4.88596873      12.17885935      -0.44459642       0.00053354      -0.35421599
H        0.11714760       4.79906793      11.28784590       0.04191844       0.38913212       0.05340095
O        9.62319699      12.49934552       1.02553054      -1.10112981       0.89175961      -0.15957735
H        9.80635074      11.52815599       0.79866215       0.23226944      -0.14788800       0.35753405
H       10.38332781      12.67949635       1.51036752       0.19480219      -0.12129126       0.09135866
O        4.28042283      12.12842772      11.76202962       0.63667592       0.54378912      -0.61907362
H        3.74285597      11.52205703      12.34317715      -0.03131860       0.08786009       0.15195384
H        4.64692609      12.84679295      12.34600124      -0.06189343       0.24518340      -0.08918412
O        2.83401482      11.04624660       0.66509383       0.05711681      -0.62314230      -0.38178709
H        1.85202225      10.95098274       0.74105212       0.14015512       0.40319840       0.19611658
H        3.19801754      10.17939225       0.57600489      -0.09641680      -0.26621158      -0.12089022
O        3.15112812       5.59493514       2.49416174      -0.20991809      -0.08199527      -0.12218363
H        3.16952497       5.67538834       1.54711413       0.56381795      -0.07536654       0.17761067
H        3.80807553       4.88605608       2.49093418       0.25506994      -0.04465030      -0.16218316
O        8.24793326       2.39120137       6.34791527       0.99640562       1.24152608      -0.15662174
H        7.86550815       2.03048903       7.15460605       0.07576299      -0.06933437      -0.06303886
H        7.49608654       2.56440316       5.75421690       0.14165511      -0.10803337      -0.01624465
O        7.66807087       4.90444489       0.57364663      -0.77654031      -0.66302354       0.61345324
H        7.38635075       4.52581349      -0.28112524      -0.27185269       0.23571660       0.04830369
H        7.56566330       5.81343814       0.30427177       0.06963731      -0.24616902       0.06443855
O        0.68045068       7.86251886       7.66678307       0.44429906      -0.23936064      -0.29123918
H        0.27774237       8.67738559       7.42871223       0.22730454      -0.05233593      -0.05349547
H        0.99935881       8.07623617       8.53642395       0.00057364      -0.00670889      -0.02021687
O        2.33960254       6.13456194       6.03040046       0.79837925      -0.11091466       1.42363197
H        1.82703707       5.37887651       5.70200335       0.01462308       0.04865101      -0.00273320
H        1.73465014       6.86100947       6.26377703      -0.12180540       0.08544362       0.09821218
O       12.40803830       9.15730657      12.50496184      -0.75440582      -1.27006692      -0.11153914
H       12.19415612       8.47695416      13.15093919      -0.20000183      -0.02887998      -0.11139746
H       12.18648627      10.00697713      12.96444680      -0.04195219       0.01909427       0.43285768
O        7.91135555      12.07983884       5.33654202      -0.71745045      -0.63517011      -0.01444298
H        7.10827908      11.72516836       5.44325386       0.66220629       0.34162865      -0.06336591
H        7.78827354      12.52669408       6.15636602      -0.11011681      -0.29367606       0.29316706
O        2.86906241       2.52629278       0.16697267       1.19535618      -0.60885694       0.16206545
H        1.95440884       2.20492691       0.18798565       0.15968772      -0.05826648      -0.52162370
H        3.23441665       1.80984215      -0.34090308       0.26408748      -0.22345046       0.57647473
O        7.24197299       6.68040424       8.33324092       0.61549494       0.54901841      -0.75961724
H        7.43008411       7.17126289       7.54895007      -0.18978839       0.01857861       0.05554339
H        7.03436603       7.35479833       8.98439082      -0.43970081      -0.02675062      -0.09059157
O        9.47804399       8.40309960      12.11014526       0.91431396      -1.09074386      -0.10965708
H        9.23842391       9.25536702      11.71273102      -0.11525730       0.13888775      -0.12118450
H       10.27812650       8.54349496      12.66774873       0.38180660      -0.00401843      -0.29459561
O        7.57791006      13.26063802       2.36205283       0.15978593      -0.35592096      -0.38960033
H        7.71472147      12.96430255       3.28500518       0.16129788      -0.23230945       0.11298576
H        8.33330438      12.82651764       1.98482731       0.10498880      -0.04961968       0.19337805
O        5.53933331       8.95132830      12.48206824      -0.74378406       0.14761174      -0.47171331
H        6.48821410       8.74428435      12.49268025       0.20199422       0.21274428       0.20124300
H        5.48204378       9.73147853      11.90844766       0.17974680       0.23110483       0.12890876
O       11.16875622       0.56217214       5.50423952       0.18701700      -1.75111831       1.17807140
H       10.31894703       1.01326828       5.73795245      -0.09875033       0.72506688       0.14196884
H       11.34731604       1.32730488       4.98678259      -0.25945119      -0.00711302      -0.13892744
O       -0.13641803      11.73181093       0.13006406       0.48631532       0.47775667       0.82291064
H        0.09318188      11.48766772      12.95013432       0.12191896      -0.01630414      -0.05383848
H       13.78369503      12.67454150       0.11259734       0.18522537      -0.16729011      -0.02300133
O        9.85155745       6.37846198      10.18424942       0.13937146      -0.40647623      -0.28839540
H        8.89101255       6.40102791      10.11195953       0.06523441      -0.06875290      -0.02185591
H        9.97268387       7.18962514      10.78739005      -0.05888484       0.30486206       0.02238832
O       10.28343372       1.46765373      10.80953044       0.32240079      -0.34899234       0.34304883
H       10.33303718       0.53605588      10.45433555       0.42317498      -0.21297540       0.22689534
H        9.52700958       1.30801440      11.36929051       0.18492920      -0.09100370       0.13194316
O        5.31818178       2.83450250       5.42685800       0.67310822       0.16955727      -0.73680621
H        4.75365447       3.04581181       6.15218069       0.28834332      -0.22220196       0.07213382
H        4.86530836       2.12879914       4.98161191       0.14006115       0.08120433      -0.01965988
O        9.91651238       9.87491639       5.46076127      -1.10296522      -0.67288438      -0.07922035
H        9.40482995      10.70251842       5.55560804      -0.12657816       0.12105356      -0.11166046
H        9.28812522       9.16258972       5.42369308       0.04170793       0.24285034      -0.22679191
O        4.56732200      12.70679827       2.84090361      -0.84443169       0.25212184       1.42621844
H        5.39948617      12.95429200       2.49199073       0.03948851      -0.15144701      -0.04784691
H        4.03318634      12.35526355       2.15820850       0.04789593      -0.00415245      -0.00479516
O       13.03948915       9.38042276       5.57067265      -0.01591658      -0.36091017      -0.17933645
H       13.37795647      10.29824719       5.42106953       0.13553049       0.08653588      -0.67546136
H       12.12626059       9.47135945       5.25163107       0.04520491      -0.07468422      -0.30303673
O       11.96248744       4.30988815      10.52277105       0.44289642      -0.17917384       0.21110862
H       11.41063185       4.94683672      10.95676050      -0.24182680       0.07536481      -0.18858578
H       11.37857701       3.55691460      10.51217761       0.00825950       0.16731914      -0.08506913
O        4.52093161      10.84097026       5.07742927      -0.31491633      -0.59381324      -0.44708461
H        4.92210948      10.02508741       4.70139907       0.09679760       0.02606321      -0.18476009
H        4.63801962      11.47845406       4.36539557       0.15546596       0.09049854      -0.07374030
O        7.71472854       2.31444779       2.82226089       0.28452336      -0.34050432      -0.96189093
H        7.77208489       1.59400496       2.23690386      -0.15889921      -0.09189877      -0.08555444
H        7.31217309       3.04786790       2.32958203      -0.29758313       0.07205725      -0.03903668
O       -0.32242788       1.92108170      12.69804107       0.20533817       0.07356197      -0.27928891
H       -0.04176511       2.63069566      12.11699163      -0.33558425      -0.07884774       0.05931847
H       12.61224866       2.35386277      13.08365324      -0.02718930      -0.27809596      -0.04670415
O        2.82296737       5.15823958      10.58951359      -0.46141874       0.17371841      -0.60951714
H        2.52124465       4.48156819       9.96899203       0.21569665       0.40285934      -0.01458477
H        3.55218946       5.59102408      10.18000737      -0.20143539       0.14101655      -0.02303881
O       13.38179590      12.49529556       5.76790974      -0.20123828       0.18715124       1.12872399
H        0.43809664      12.96224709       5.87821055      -0.06492593       0.04527995       0.07727822
H       12.04502896      13.28086707       5.70264230      -0.19209459       0.80524964      -0.03947859
O        5.31024212       4.12716157      12.11530815      -0.61709809      -1.09765794      -0.07643707
H        4.37964956       4.29051947      11.91776120      -0.11460297       0.03366156      -0.26759044
H        5.76344385       4.01556295      11.26884268      -0.12132147       0.16487744       0.05224754
O        4.56903598       7.96264443       9.56354167       1.31811732       0.21607649       0.20719774
H        4.83388080       7.78250538      10.46390997      -0.48840726       0.35366782       0.30012023
H        3.65883046       7.60520732       9.63048280      -0.13807602       0.12787485      -0.10121820
O        9.31406852       5.38792472       5.43058505      -0.18199766       0.78428697       0.30917544
H        9.68923148       5.20944724       6.27418749       0.05192558       0.01494056      -0.25494010
H        8.51636474       4.89144602       5.26782901       0.12210125      -0.16806061      -0.16412811
O        6.00428586       3.88888997       9.08480385       0.44338751      -0.33448034      -0.03375414
H        5.13314016       3.72122372       8.73005710       0.14731191      -0.00885020       0.17856495
H        6.39651845       4.65463226       8.64234979       0.11535741       0.23588046      -0.21109166
O        2.07458103       0.83236281       7.43174897       0.66880935       0.21250761       0.77799915
H        2.69366305       0.73812567       8.02860333      -0.67418111       0.43030216      -0.79687516
H        1.29303862       1.19769413       7.81855891       0.09897258       0.18174552       0.53339728
O       10.83946453       2.16302519       3.17691822      -0.72105629      -1.09699550      -0.08384563
H       10.05790594       1.67321480       2.90877139      -0.07934598       0.31978196      -0.45824265
H       10.85596391       2.81649660       2.41234551       0.19705869       0.34971469       0.02954286
O       13.17601277       2.61780432       8.14257986       1.06217912       0.15566075       0.62243726
H       13.17697367       3.53839436       7.82519723      -0.45936274       0.18427847       0.07568393
H       13.00827417       2.05946487       7.40652169      -0.44418079       0.22192955      -0.07308852
O       12.03976244      10.23810350       8.69633237       1.06912532       0.82436738      -0.58937651
H       11.22967836       9.87557126       8.33907889       0.00574234       0.06322167       0.41300849
H       11.85186798       9.74558556       9.53461056      -0.37209486      -0.05690163       0.05014781
O        3.47124428       1.70489836       3.12585475      -0.16157000      -0.84305893      -0.00844633
H        3.60040175       0.79402697       2.92351637       0.09552522       0.13901498      -0.09683975
H        3.56002294       2.19418018       2.31181583      -0.15733522      -0.11489573       0.18577246
O        3.16064058       3.76879701       7.73996158      -0.27041523       1.15533365      -0.25830596
H        2.55071023       3.13460940       7.31229761       0.00340781      -0.26255105      -0.24709156
H        2.94622428       4.60949192       7.28811855      -0.38772642      -0.09172451      -0.16837982
O       12.49508005       6.49230781      -0.02457090      -1.66041116      -0.32353402      -0.01491771
H       13.07634882       5.97148721      13.13178527       0.20275765       0.28729188      -0.01183687
H       12.81710360       6.55329961       0.89084805       0.29190125       0.22479378       0.03246391
O        7.61756992       1.70066165       9.59633698       0.44838352       0.35649154       0.81706245
H        8.20986320       2.27504153       9.13975915      -0.16231653      -0.01252381       0.02011327
H        6.91345987       2.35862115       9.78391259      -0.04742801      -0.22294518      -0.15988358
O       11.93060661       6.92407684       7.02921296       0.88144069       0.10741918       0.28277858
H       12.69098062       7.01530299       7.66014801      -0.22473970      -0.07257128      -0.03570754
H       11.32439768       6.43945086       7.64537927       0.11588683      -0.17876961       0.22575033
O        1.29585442       9.28221935      10.45578319       1.06721423      -0.02840418       0.50006731
H        1.00015378       8.81342237      11.25097756       0.07597438       0.10965581       0.17129036
H        1.21786093      10.17361998      10.79069372      -0.06837958      -0.13623094      -0.06391405
O        7.81826051      10.96533368      11.52274757      -1.82356361      -0.19466851      -0.02848076
H        7.58091908      11.74846416      12.05919670      -0.16293918       0.24566357      -0.32840446
H        8.32889990      11.29852257      10.77672531      -0.20110294      -0.25885223      -0.19006561
O       10.35021951       9.47433871       2.37598486      -0.09735751       0.17385243       0.96067889
H       10.30625156       9.25209001       3.29285556       0.26092534      -0.03804018      -0.11102929
H       10.90747606      10.26474286       2.31010918      -0.16804712       0.11969847      -0.03684144
O        0.72986996      11.87622119       9.16421694       1.58154491       0.73057824      -0.36467241
H        0.54405201      11.50536212       8.28736877       0.00770572       0.49279526      -0.09620258
H        1.60396526      12.25185552       9.13959068      -0.05003003      -0.09961974       0.05873938
O        3.36935718       8.49036916       0.57600063       0.40588696       1.05706008      -0.81530424
H        4.08102638       8.60587635       1.17840531      -0.28845263      -0.37944738       0.31852112
H        3.54770465       7.87481754      -0.07017667      -0.23080357      -0.15922302       0.44167238
O        5.55947214       0.68742047      -0.17899898      -1.20039689       1.25616472      -1.10982676
H        5.64895227       0.29816896       0.68821431       0.10249116      -0.23328683       0.06645332
H        5.75560790       1.62688850      -0.29694957      -0.28666151      -0.00490825      -0.09570403
O        0.78606673       2.39844189       4.30745344       1.09108641       1.29837925       1.82514514
H        1.37612900       1.66458573       4.03988627       0.49995586       0.08625210       0.01415812
H        0.75954519       2.24560478       5.41451449       0.02173831      -1.27381500      -0.05693204
O        0.23019993       5.97499150       2.74474714      -0.66981789      -0.53817825       0.34251314
H        0.07844156       5.42060806       3.55088991      -0.09328094      -0.45445940      -0.25068784
H        1.07690183       5.61266085       2.34878993       0.02936310       0.04234715       0.10925494
O        7.31368760       7.81843955       5.82917855      -0.93282753      -0.01120280       0.20620193
H        7.97273529       7.21021419       5.45688387       0.13371615      -0.10706233      -0.32940004
H        6.46539937       7.37129387       5.86313886       0.01729845      -0.23299851      -0.11172360
O        8.57188111      -0.18023578      12.38898426      -2.42058325      -1.20790250      -1.27157385
H        7.66665764      -0.17154019      12.70056971      -0.12465976       0.16729333      -0.15356562
H        9.16373622      13.33475652      13.11421006      -0.05706374       0.06544819       0.27901639
O        2.84676373      10.48144395       7.21281270      -0.00802628       0.34360086       0.63845772
H        2.84192167      10.17334316       6.34513619       0.03267210      -0.01752697       0.22115173
H        2.28278561       9.86352742       7.66373128       0.03235206       0.09617667      -0.11234158
O       11.86184595      13.31820128       2.23718085       0.04947915       0.94856861      -0.05391522
H       12.00778035       0.27289303       2.89224712       0.21035570       0.01188096      -0.07983388
H       14.12688344      10.82520125       2.80274894      -0.23039027      -1.12069762       0.06754115
192
Lattice="13.729063034057617 0.0 0.0 -5.291772140481044e-07 13.729063034057617 0.0 -5.291772140481044e-07 -5.291772140481044e-07 13.729063034057617" Properties=species:S:1:pos:R:3:momenta:R:3 pbc="T T T"
O        4.88548824       6.06907028       5.24600358       0.17110576       0.60071359      -0.31568523
H        4.01421737       6.09687919       4.93943999      -0.11908768      -0.27456694       0.07197311
H        5.12681408       5.17291808       5.31631431       0.40483702       0.08245243      -0.18466426
O        8.04578735       7.83277266       1.26680567      -0.07780672       0.20473943       1.13540620
H        8.77943894       8.26293661       1.70779821      -0.10423890      -0.27885061       0.30702741
H        8.16783993       8.00587957       0.29021308       0.26837726       0.33793845       0.04142675
O        7.29441106      12.35988269       8.66510119      -0.26827256      -0.49617996       0.16977987
H        6.55359768      11.98719355       8.16933966       0.07983913      -0.18002371      -0.18114402
H        6.71336150      13.02074416       9.11421639      -0.28896225      -0.02841109      -0.12666270
O       -0.08853340       9.07440943       2.27819352       1.63515380       2.09216192       0.25236978
H       -0.04599169       8.32481357       2.89267043       0.02220251       0.25950179      -0.12823888
H        0.53722799       8.74171074       1.63315273       0.67489186       0.17866969       0.73348113
O        5.34767306       8.33141404       2.72800951      -0.29666399      -0.66794108      -0.50925359
H        5.39894564       7.49362661       3.18595525      -0.06356743       0.14909897       0.44021904
H        6.25841514       8.58981869       2.66755996       0.08871931      -0.61762206      -0.02385751
O        3.79365056      12.91403835       8.67093950      -1.40866633      -0.15125370       0.58473413
H        3.84994300      12.08900986       8.13646342       0.42356226       0.12898734       0.30345719
H        4.33351385      12.64871067       9.46789284       0.50297053       0.37726029      -0.12944388
O       13.04454823       5.05694898       5.34324211      -0.91780202      -0.03831918      -0.67423511
H       14.32662533       3.21073528       4.50164441      -0.19029525       0.84807454      -1.53722177
H       12.14767993       5.18471113       5.71937624      -0.08660972       0.45565566       0.04837445
O       13.13117545      13.31118685      11.52477950      -0.33442009       0.89700393      -0.50021673
H       -0.62010383      13.35017133      10.54266792      -0.36994274       0.01504803      -0.22000385
H       13.05380555       0.53812694      11.67556431       0.15631493       0.01515094       0.09393664
O       10.59522997       4.09956972       0.37877265       0.79522778      -0.75387512      -0.51689086
H        9.82220274       4.27631545       0.93281551      -0.11577151      -0.01643760      -0.28673160
H       10.93661232       5.01057740       0.28014368       0.12007376      -0.08467497       0.21661389
O        0.39357693       4.77227018      12.24093297      -0.54144720      -0.51801666       0.21789624
H        1.40330354       4.93228871      12.02119719       0.09741283       0.07735566      -0.17176202
H        0.07316835       4.99616011      11.36436661      -0.30490806       0.36569425       0.16864241
O        9.59586625      12.51113052       1.01728981      -0.39438983       0.25518229      -0.09315792
H        9.86527101      11.59617217       1.01582435       0.02703246       0.07773775       0.41335283
H       10.48601004      12.69903867       1.56425599      -0.13790615       0.17147995      -0.09516329
O        4.30205914      12.14300255      11.74928844       0.87197048       0.39104277      -0.62356534
H        3.77903987      11.67918497      12.36752170      -0.07127191       0.28013383       0.17773887
H        4.56600754      12.89210699      12.24327037      -0.11677118       0.24074254      -0.14995186
O        2.83699232      11.02773667       0.65109684       0.35648081      -0.52040918      -0.51644631
H        1.91320424      11.13051586       0.86981744      -0.02238971       0.30550818       0.30215168
H        3.08283652      10.12338801       0.53038661      -0.36286279      -0.01078753      -0.02366476
O        3.15452320       5.58450634       2.49145099       0.37415020      -0.49486986      -0.13141730
H        3.42814236       5.67339622       1.56383817       0.56189419      -0.07976865       0.14570658
H        3.81445111       4.92598508       2.44569890      -0.23840963       0.24712442      -0.17770809
O        8.28235389       2.43030766       6.33986548       1.23053726       1.32118762      -0.34314045
H        7.92018700       1.99794515       7.12784234       0.14982332      -0.05714865      -0.05370531
H        7.53656541       2.47413702       5.71720188       0.02233798      -0.26252403      -0.14334267
O        7.64473737       4.87556891       0.58991520      -0.81829928      -1.01621196       0.37894196
H        7.19857748       4.59151154      -0.23367387      -0.42695962       0.04588144       0.18107529
H        7.58088403       5.82923171       0.35825377       0.03954175       0.10140088       0.20309738
O        0.69615913       7.85182818       7.65930263       0.51928764      -0.30300560      -0.21284962
H        0.30652981       8.68202032       7.31344482       0.03570704      -0.13391161      -0.22939916
H        1.04136191       8.00126726       8.54859749       0.05638103      -0.20902462      -0.12204829
O        2.36352808       6.13348957       6.07385421       0.88430838       0.00551898       1.42461927
H        1.77476793       5.48498711       5.70287887      -0.25372367       0.20723780      -0.07152797
H        1.74089460       6.80032693       6.30950599       0.05805683      -0.14695801       0.16454802
O       12.38170252       9.12831457      12.50623222      -0.99500634      -0.82094292       0.18735970
H       12.11966932       8.42281433      13.13272593      -0.05538846      -0.22792413       0.00876032
H       12.23586670       9.85171816      13.09736445       0.20722081      -0.41908474       0.17553566
O        7.92739831      12.07704468       5.32876554       0.78178713       0.02373824      -0.36159492
H        6.95171983      11.76498463       5.63309067      -0.17526733       0.28698330       0.73897610
H        7.63694946      12.23637725       6.21252820      -0.64376551      -0.92803834      -0.11824932
O        2.90443630       2.50357740       0.17380670       1.12594968      -0.99778242       0.20984115
H        1.99455121       2.21296102      -0.08521587       0.16729826       0.07979869      -0.55456655
H        3.43357401       1.71707560      -0.11993317       0.37424254       0.00672797       0.38175647
O        7.25964714       6.70079609       8.31717683       0.49264730       0.97710033      -0.44884003
H        7.30651361       7.24481068       7.49152016      -0.30426200       0.11400179      -0.00926994
H        6.77250265       7.32405355       8.89291988      -0.56321210      -0.16240319      -0.32209100
O        9.51168679       8.37472365      12.10457928       1.05833442      -0.87608122      -0.31172972
H        9.23862746       9.19980088      11.73289002       0.07307321      -0.26927487       0.13895402
H       10.39320871       8.54903933      12.39535415       0.32530710       0.05784267      -0.65240588
O        7.58765189      13.24578423       2.36161652       0.62527811      -0.67654207       0.23807414
H        7.71352469      12.91217913       3.25580342      -0.18704373       0.03147419      -0.14251656
H        8.40762929      12.80800896       2.02071176       0.03667949       0.07433484      -0.00719846
O        5.52278098       8.95659522      12.46288297      -0.48392452       0.16596779      -0.70462884
H        6.45757322       8.89500678      12.58428055      -0.08355560       0.27603306       0.24486495
H        5.57301712       9.82076841      12.05007506       0.08595382       0.28861465       0.32650007
O       11.15810831       0.50380786       5.54350709      -1.32000331      -1.92631196       1.14444054
H       10.64376404       1.23815664       5.69845990       1.21064965       0.33283282      -0.21172857
H       11.12701833       1.25612502       5.01687055      -0.69254272      -0.01812246       0.15420807
O       -0.11912070      11.73810698       0.15542217       0.65120617       0.07182456       0.86157669
H        0.10993850      11.53031625      12.97742482      -0.04880487       0.15093302       0.07097082
H       13.86444433      12.68466479       0.13490404       0.09466294       0.13450912       0.13729038
O        9.86147529       6.38141250      10.18592920       0.44910602       0.31360331       0.17961322
H        8.90068895       6.33770602      10.05872697      -0.03556789      -0.21320349      -0.20484378
H        9.91676011       7.15016174      10.70571825      -0.11902377      -0.18235856      -0.14172836
O       10.29427986       1.44382702      10.81554551       0.27878678      -0.88081522       0.19563937
H       10.60531898       0.58777151      10.58013517       0.67777799       0.14043718       0.22351400
H        9.59359009       1.25857231      11.46026680       0.16692290      -0.12465173       0.14887443
O        5.34380579       2.84317932       5.40226523       0.80949304       0.35832474      -0.68468540
H        4.83664881       2.91174930       6.25245908       0.19600205      -0.38053430       0.06529862
H        4.92388387       2.11647203       4.91825354       0.15452560      -0.01012057      -0.13754847
O        9.88545845       9.86824078       5.45662916      -0.97150478      -0.06261909      -0.23275230
H        9.38204816      10.65703954       5.51805877      -0.01270323      -0.15078680      -0.00708000
H        9.21660607       9.15879209       5.32978074      -0.17763259      -0.12673632      -0.13049834
O        4.54328070      12.71553918       2.88138799      -0.65490368       0.18050893       0.87374615
H        5.40619121      12.85738391       2.49208976      -0.13786905      -0.21345544       0.14908787
H        4.02829088      12.31783673       2.15523377      -0.02789419      -0.04836042       0.20542951
O       13.04161529       9.38267066       5.55879857       0.23206803       0.34271804      -0.48359346
H       13.36274140      10.16976300       5.11140710      -0.05957404      -0.39148441      -0.51689818
H       12.18956365       9.39482084       5.14437703       0.01608897      -0.26443432      -0.11104480
O       11.97466985       4.30969235      10.53259995       0.13234490       0.17502134       0.44154846
H       11.33054157       4.99768865      10.79880201       0.02908539       0.00489439      -0.47070672
H       11.33977455       3.56912712      10.41878622      -0.06954294       0.01308233      -0.24736193
O        4.51780306      10.82232629       5.05782087      -0.02699440      -0.49496726      -0.62890897
H        4.90753731      10.07062567       4.65177781      -0.05856045      -0.12041397      -0.12381414
H        4.67378636      11.49992840       4.41392322      -0.04404614       0.12136268       0.15931029
O        7.72234388       2.31092671       2.79287208       0.27361206      -0.07435946      -0.95484256
H        7.65500176       1.56950404       2.21131574      -0.32494273       0.05612299       0.04141343
H        7.24205782       2.99758527       2.38048781      -0.04615844      -0.16923437       0.17867039
O       -0.32237603       1.92121697      12.69342744      -0.19004631       0.13055143      -0.12469354
H       -0.10972918       2.68597318      12.10273902      -0.06372173       0.12652761       0.09558691
H       12.56768470       2.14978946      13.14872848      -0.03704778      -0.50969486       0.23827410
O        2.80760593       5.16541029      10.57964067      -0.34358228       0.31809240      -0.39484498
H        2.58338577       4.55340900       9.81607911       0.07714647       0.03923058      -0.42218954
H        3.44726149       5.77958915      10.11539865      -0.41605830       0.48362717      -0.06760518
O       13.37721572      12.49957714       5.80028162       0.33308206       0.52415572       1.05442485
H        0.45065425      13.02485458       5.92652463      -0.40374292      -0.17142263       0.03999664
H       11.81984754      13.94114889       5.67445439       0.07122617       1.19625149       0.14800190
O        5.28691642       4.08900933      12.12193181      -0.91516311      -1.36988231       0.49579956
H        4.40170783       4.29856494      11.82365873       0.09165892       0.00711577      -0.08753807
H        5.72759224       4.04737078      11.26706417       0.05434681      -0.03750765      -0.10592114
O        4.60439190       7.95956950       9.57595016       1.11504754      -0.32366534       0.82435903
H        4.62360849       8.06711173      10.56913461      -0.33963676       0.76501169      -0.06774456
H        3.67808288       7.75677687       9.51807538       0.04691082       0.41366117      -0.37017970
O        9.30124774       5.42395521       5.43094477      -0.66791969       1.39590565      -0.11860331
H        9.76770562       5.12417494       6.23336140       0.22331017      -0.27680558      -0.06582676
H        8.66815828       4.71123922       5.23304564       0.53641980      -0.47001397       0.00737271
O        6.02949473       3.88706122       9.08004416       1.00934660       0.12767252      -0.29562367
H        5.13421589       3.71425952       8.74152632      -0.02877977      -0.00633230      -0.07177490
H        6.36025028       4.64088846       8.61808178      -0.20348006      -0.20689118       0.07718815
O        2.05183609       0.85279031       7.42700207      -0.92816745       1.07286444       0.33011760
H        2.97094458       0.80850942       8.17731074       0.40512527      -0.07417325       0.17968795
H        1.40237766       1.24152823       8.02844830       0.50711935      -0.04268399       0.11287967
O       10.81658650       2.13766684       3.16068542      -0.92313964      -0.80073319      -0.79337098
H        9.97373321       1.86778301       2.71900177      -0.14447917       0.47553110      -0.26430114
H       11.01903402       2.85429682       2.60836921       0.49596319       0.06164583       0.49505962
O       13.21453288       2.62931684       8.16014527       1.29495491       0.45248797       0.29051819
H       12.88727833       3.50745175       7.93542980      -0.63188128      -0.15548905       0.40028754
H       12.71911885       2.20304852       7.42389443      -0.59238586       0.33050536       0.29007205
O       12.07792273      10.25925652       8.68766677       1.68614843       0.85111793      -0.38000280
H       11.18035773       9.93485392       8.63737268      -0.34666546       0.16222078       0.66509310
H       11.60971596       9.83967663       9.33994976      -0.73383208       0.18882913      -0.34913338
O        3.46537458       1.68193997       3.13603454      -0.11254937      -0.77598532       0.35347018
H        3.65729513       0.74817887       2.88931732       0.08271853      -0.04896565      -0.00535749
H        3.47398139       2.20102525       2.29623184      -0.20381273      -0.03167147      -0.03338387
O        3.14605879       3.80216760       7.72576297      -0.69265147       1.11605399      -0.69978342
H        2.66940611       3.09470021       7.31131970       0.42695875       0.00189972       0.21919690
H        2.74092308       4.54867517       7.21532532      -0.39683140      -0.12605353      -0.09282556
O       12.44488292       6.48431493      -0.02233416      -1.40411620      -0.18446110       0.15806252
H       13.17553084       6.12746804      13.17669418       0.11869755       0.26012959       0.08685555
H       12.97087851       6.64083629       0.75474616       0.23575264       0.20005377      -0.44751167
O        7.62584817       1.70825793       9.62501145       0.29719279       0.20314830       0.88028540
H        8.20590339       2.27217422       9.05261687      -0.10180421      -0.15363669      -0.17605418
H        6.83510287       2.26655100       9.72606493      -0.19717089      -0.09991689      -0.09763504
O       11.94997605       6.91801210       7.04525940       0.44049923      -0.41493498       0.57718993
H       12.69061695       7.04432319       7.65646285       0.33483661       0.23572962       0.06475581
H       11.41354424       6.42619577       7.64318474       0.08464014       0.01152413      -0.12257140
O        1.32915403       9.27490409      10.47779381       1.07306665      -0.21704091       0.94862930
H        1.02333704       8.84573478      11.27269031       0.02136319       0.05268837      -0.06255746
H        1.14362337      10.21952029      10.72325087      -0.19981807       0.08356473      -0.26367206
O        7.76301709      10.96095612      11.52151872      -1.77395652      -0.26821731      -0.13176646
H        7.55308247      11.82920066      11.84185735      -0.00867929       0.31365698      -0.38875076
H        8.15545597      11.15771969      10.66735073      -0.42894876      -0.30722495      -0.32132885
O       10.34925522       9.48170781       2.39907009      -0.01314804       0.16901329       0.78379247
H       10.44672625       9.22593632       3.35475901       0.26715043      -0.02057519       0.10342208
H       10.81343529      10.30753248       2.27342838      -0.18931904       0.11932371      -0.12133276
O        0.76969372      11.89423646       9.15928873       1.17035206       0.49695787       0.06641849
H        0.49487827      11.78407633       8.23825868      -0.21458361       0.62715413      -0.11680442
H        1.68523335      12.23317277       9.15529326       0.21288412      -0.03905847       0.00354911
O        3.37751720       8.53090158       0.55754170       0.47730173       0.96122019      -0.57915286
H        3.98694384       8.35666323       1.33388138      -0.37857841      -0.55314966       0.00907053
H        3.49077232       7.66307106       0.03287204      -0.11829813      -0.13644596       0.45520139
O        5.52024531       0.71931823      -0.21610813      -1.40678336       0.64952794      -1.40236009
H        5.75052443       0.33132259       0.62073843       0.31694953       0.34327647      -0.21770149
H        5.57679663       1.66832712      -0.29215039      -0.37903828       0.32665139       0.11382800
O        0.81946748       2.42341092       4.37848564       1.19645961       0.12999190       1.73202005
H        1.58546971       1.82566901       4.12416217       0.21676759       0.52072625       0.46143562
H        0.79757934       1.75699722       4.95972383       0.28253147      -1.21238298      -1.06499437
O        0.21322631       5.95205848       2.75809236      -0.74062823      -0.73150073       0.52666747
H       -0.00381576       5.24065869       3.36093170      -0.31424345      -0.38342090      -0.35566060
H        1.04639342       5.67366700       2.45735075       0.19664794       0.10694942       0.14547774
O        7.29468862       7.80568073       5.83514305      -0.42507499      -0.73186586       0.17405744
H        7.89864161       7.26119080       5.37194790      -0.19640547       0.24018082      -0.09794576
H        6.49764574       7.28844560       5.77810138       0.04314652      -0.07382636      -0.19637167
O        8.50292352      -0.22021029      12.35515792      -2.10821898      -1.40159261      -0.88878036
H        7.60746723      -0.04707964      12.65036210      -0.11394785       0.31075981      -0.09012753
H        9.01335023      13.39726006      13.16362317      -0.52622962       0.16929129      -0.09283970
O        2.85028536      10.49802200       7.23593192       0.14977916       0.46327813       0.60559896
H        2.94034182      10.15351045       6.31158155       0.32374572       0.07512736       0.01923056
H        2.28751136       9.80843172       7.64876021       0.11729816      -0.16808919      -0.07264937
O       11.86502126      13.34122926       2.23168042       0.25102119       0.73192996      -0.13458127
H       12.13802889       0.31167900       2.84947438       0.25666089      -0.01917249      -0.22571629
H       13.88782342      10.02777149       2.76138919      -0.69082443      -2.44097154      -0.39696258
