192
Lattice="13.066373825073242 0.0 0.0 -5.291772140481044e-07 13.066373825073242 0.0 -5.291772140481044e-07 -5.291772140481044e-07 13.066373825073242" Properties=species:S:1:pos:R:3:momenta:R:3 step=5000 time_fs=500.0 phase=production pbc="T T T"
O       12.76454912      -2.43046228     -15.11436100       0.60773602      -0.55586141      -1.02881257
H       11.92663569      -2.26823228     -15.62024571      -0.05213054      -0.10683570      -0.13657408
H       13.09349792      -3.25223160     -15.55239529       0.07674010       0.02390381      -0.08965145
O       24.12854777      25.21017205      -2.08916270      -0.28557546      -1.89742507       0.31541078
H       24.02496219      26.20435854      -2.26168586       0.19580115       0.11698596      -0.35053880
H       24.05710830      25.54756862      -2.95164146      -0.02423352       0.32144604       0.08606018
O        5.90985666       1.20451231       8.85094316      -0.87089313       0.74701913       1.13397212
H        6.40426678       1.30186497       9.72793494       0.08145285       0.24452296       0.08821268
H        5.13795015       0.71750476       9.27228369      -0.12570038      -0.03250392       0.08584629
O       -2.79551315      -4.14064364      -1.64587049       0.59077442       0.77066873       1.23538741
H       -2.74624726      -5.03086708      -1.33384131       0.07640762      -0.07888081      -0.09164508
H       -1.84012431      -3.96596357      -2.03639990       0.21969558       0.12680803       0.09509889
O        4.22573377      18.52910187       9.23092968      -0.21544186      -0.35147040       0.91954215
H        4.53137253      18.26053197      10.10975038      -0.03647608      -0.02759932      -0.07902078
H        3.41162258      18.03746598       8.99869887      -0.10660376      -0.02622919      -0.09731806
O       -4.53511335       1.38725252       2.17965410      -0.36762325      -0.15458021      -0.23938034
H       -5.28785974       0.85603642       2.67130940       0.03299069       0.00993278       0.08238128
H       -4.88988252       2.26503706       1.90241820      -0.00977124      -0.26000305       0.11345290
O       24.53106938      13.47813283       8.45799422       0.30725558       0.93159514      -0.02331056
H       25.43924576      13.71176246       8.22331435      -0.13537662       0.03602775      -0.01084453
H       24.07214740      13.21037428       7.61027773       0.30251586       0.04836194      -0.15373723
O       -0.79709330     -15.34663665       6.24500461      -0.36126477       0.01898048       1.08698927
H       -0.09197513     -14.70245482       6.29682202      -0.16795834      -0.05639048      -0.23583427
H       -1.48470785     -14.72481146       6.40400628      -0.06829494      -0.10829732       0.09875491
O       19.37149938     -17.67963186      10.93996152      -0.59429258       0.41853984       0.24884763
H       20.20463099     -17.77484944      10.38463560      -0.22328981      -0.02395390      -0.07052468
H       19.27365756     -18.58455291      11.27440860       0.05150932      -0.26375385      -0.12456957
O        4.55984557     -15.58547894     -15.27787309      -1.15645682      -0.09042164       0.26341024
H        5.55222777     -15.55678883     -15.13563146       0.08528667      -0.12821919       0.06672577
H        4.23058777     -16.27606089     -14.71772261      -0.07925346      -0.15154636       0.07004367
O       -6.30049345       2.13519500       6.57667651      -0.65707442      -0.00868964       0.50941729
H       -5.78587799       2.76976425       6.09326338       0.14658331      -0.16922986       0.04592937
H       -5.72854030       1.42383142       6.93687714      -0.06116819      -0.12846969       0.17938155
O       -7.21898162      15.78446621      24.17673803      -0.61998830       1.58184298      -4.22665665
H       -7.68748178      16.65124728      24.04239870      -0.06235128      -0.00733363      -0.16050031
H       -7.73601253      15.69593100      23.35147041       0.18608996       0.12293525      -0.49263817
O        9.21155177     -16.81925464      -6.82181200       0.74784935       0.26002129      -0.60182469
H        8.64339458     -17.50981661      -6.58279906      -0.09821617      -0.06725999       0.15477249
H        8.82410920     -16.24639309      -7.45557187      -0.30022027      -0.02723682      -0.16021733
O       14.90501213       7.75183246      20.16472879      -0.52690193      -0.21733692      -0.25932226
H       14.42890350       7.16720981      20.70853863      -0.34739687       0.01202532       0.10208214
H       15.79958128       7.41566394      20.06208917       0.11836087      -0.19228156       0.07968384
O       -1.24435177       1.25943572      -0.69482257      -0.09753285       0.90531488      -0.17938490
H       -1.12918912       1.37144131       0.27533339       0.14089082       0.10561611       0.11373175
H       -0.50395013       1.67390341      -1.11044671       0.08373239      -0.02179392      -0.35157775
O      -16.14581296      12.14073649      19.50882226      -0.40558323      -0.77956642       0.81801203
H      -16.94964302      12.71961902      19.67879180       0.11903362      -0.14365188       0.07165102
H      -16.42112666      11.25574245      19.20621511       0.26743698      -0.02350039      -0.16401531
O      -16.17674537       5.83698661      11.92853248       1.66405917       0.11324999      -0.62456148
H      -16.25113979       6.38078583      11.17571868       0.05631060       0.21864593      -0.02452388
H      -16.24089449       5.44257864      11.09511380       0.11840611      -0.41561445       0.32015832
O       -9.58352954      35.17063566     -13.24725768       0.53731693      -0.45042050       0.48687107
H      -10.52410465      35.24424103     -12.93366583      -0.48515362      -0.00435497      -0.21855721
H      -10.31833175      34.99758769     -13.83450435       0.07720533       0.09588962      -0.14271010
O       36.72269606      10.92173561      22.32388531       0.81837787       0.32165804       0.39955998
H       36.67789514      10.83701659      21.36020430       0.18082436       0.08407219       0.08884438
H       36.58477547      10.05162680      22.72601747       0.15166901       0.07046410      -0.05343861
O       29.77317020     -11.92338749       0.73892095      -0.70927392      -1.37335665       0.64099254
H       29.62984087     -11.66790289       1.68045790       0.09351146      -0.14492094      -0.78044999
H       29.64500868     -12.60829109       1.40278752       0.21921893      -0.00418228       0.07551406
O       16.05761728       9.84032694      -6.71028398      -0.19095137       0.45951878      -0.11008277
H       16.94180797      10.15848438      -6.54500791      -0.07448568      -0.05162634      -0.13548420
H       16.09789464       8.88453621      -6.71314892       0.01271385       0.02625230      -0.06649832
O       -7.17079276       4.34563645      33.79493963       1.04281494       0.54870610      -0.70665297
H       -7.11186563       3.48150526      33.36430591       0.02411099       0.15303497      -0.07968038
H       -7.91062960       4.41489415      34.41100769       0.01405440      -0.06725148       0.01649527
O        4.13014781      -0.01811912      -2.51727775      -1.33677426       0.39764905       0.43303592
H        3.22457468       0.01100896      -2.85475597       0.01047590       0.15189704       0.06735093
H        4.47879825      -0.87474507      -2.24992119       0.07732810       0.02110368       0.16136547
O       22.56868455       2.19257392      11.58917808       0.38850225      -1.09172479      -0.14681622
H       22.39385076       3.05983103      11.97573373       0.13722342       0.16710140       0.13845070
H       23.33352778       1.70548679      11.87345092       0.32612159       0.02493386       0.08406664
O       -2.05305001      33.04451003      14.94450958       0.16132522       0.69304292      -1.15069108
H       -1.92902061      32.51243448      15.78046818      -0.23628002       0.27584599       0.02792790
H       -1.16302837      32.79077825      15.21897173       0.36836771       0.32929320      -0.28818528
O        4.58831906      19.87113622       6.94591307      -0.20926351       0.41790292       0.73028118
H        4.17011658      19.39643598       6.26249261       0.02301964      -0.00864627       0.19771953
H        5.41611742      20.15042272       6.54950235      -0.12431555       0.10370379       0.10860573
O       -9.76867382       9.82234323       8.87817516       0.09867976      -0.56448182       0.17310627
H       -9.46247374       9.89598686       7.94109278      -0.00217068       0.00859005      -0.16506744
H       -9.23336476       9.48490281       9.54045825      -0.07388227      -0.42557173       0.08815067
O       16.93990403      18.93599015      28.95497518      -0.53478871       0.50499612       0.99088855
H       17.66830889      18.35023797      28.55518701       0.01654471      -0.03022252       0.14146375
H       16.17172115      18.89528037      28.34006932      -0.19975175       0.34260317       0.10840077
O        8.29302041      18.03482747       9.96654274      -0.15409468      -0.10663465       1.19966096
H        8.93140370      18.10452902       9.20959576       0.14317797      -0.07078341       0.11080355
H        7.60319685      17.45499257       9.57414107       0.00309517      -0.07003600       0.07509991
O        1.51232161     -14.01978651      10.69718265      -0.23089897       0.58710494      -0.40764998
H        0.60427119     -13.90028547      10.91285240      -0.26746645      -0.01430157       0.00901952
H        1.63929791     -14.86247087      10.20600549      -0.08765082       0.07619951      -0.03592385
O       -1.05808192      11.36643872       1.36816069      -0.40544851      -1.30406034      -0.72822733
H       -0.54705695      10.67178003       1.91071960      -0.11886769      -0.03311778      -0.00909162
H       -1.89862853      11.43038009       1.85477550       0.18954180      -0.08425431       0.15069755
O        1.00399301       0.99935578       7.85486685      -0.41995370       2.24661144      -0.41772173
H        1.62075793       0.40448487       7.36907258       0.02290177      -0.13408019      -0.00289915
H        1.34542998       1.13736818       8.71160459       0.18532577       0.14504806       0.20185456
O      -17.98077453      29.15515755     -17.42678768       1.08107428       0.27089413       0.45420814
H      -16.98263546      29.08963763     -17.36268817      -0.01273352       0.00652521       0.07543154
H      -18.36530235      28.58620777     -16.72227893       0.05352976       0.23477420      -0.12290060
O        5.00296212      25.38544582      -6.53242065       0.48458635      -0.52320569       0.78366197
H        5.71884632      25.77884744      -6.01931448      -0.21093782      -0.26009441       0.00673569
H        4.33040818      26.06789218      -6.70769811       0.20969373       0.03408256      -0.00916278
O      -18.49380430      20.89338078      -0.15155051       1.20605723      -0.99296597      -0.46886108
H      -17.67279761      20.60111416      -0.58291120      -0.00565785      -0.16283778       0.01487238
H      -18.26092933      21.20064877       0.70075703       0.02204027       0.19847126       0.13432698
O       11.10438989      21.12582872       7.59288773       0.50005255       0.58346677      -0.76234448
H       11.92159543      20.94372588       7.11467100       0.32318578       0.17585359      -0.02570771
H       10.54446157      21.44715433       6.79275269       0.03624266      -0.15338601      -0.16528600
O       -9.94427562      -7.78260933       5.40598865       0.41688994      -0.68895682       0.65967819
H       -9.51815452      -7.58738627       4.55067345      -0.02690008      -0.04184564       0.05502099
H       -9.86045122      -8.66836291       5.64101035      -0.04774899      -0.18470747       0.02420238
O      -24.81846200       1.71332711      10.31567780       0.38905051      -0.29151929       1.00765727
H      -25.03937468       0.74813472      10.43243990      -0.21514813       0.12574806      -0.15590463
H      -25.25229751       1.66059662      11.17733354      -0.15576122      -0.03583097      -0.00116853
O      -12.39423507      -7.44806425      21.25903073       0.23157850      -1.70406994       1.35050862
H      -11.86373813      -8.20591354      20.99044275       0.10493558       0.01889907       0.08151705
H      -13.06906661      -7.32671899      20.56872720       0.10303738      -0.24105793      -0.06963078
O        6.57670829       6.78674665      18.37095764      -0.35226961      -1.16673988       0.26521834
H        7.30682389       7.34341745      18.55075037      -0.00964444       0.14431742      -0.05087734
H        6.92054090       5.89813197      18.18897345       0.14251583      -0.11123818      -0.05344833
O      -11.57813864      -1.21648504      19.61681732       0.75621883       1.11973794      -1.58209327
H      -11.34480923      -2.14500447      19.63515895       0.09259902      -0.08661663       0.06761004
H      -11.15383008      -0.80776170      18.86507580      -0.21005558      -0.00139909       0.01639953
O       22.35200538       4.93811010      19.36982121      -0.23628355       1.24052334      -0.65135661
H       21.61133299       4.87473938      18.71227567      -0.32391664      -0.08931469       0.03200434
H       22.32064555       4.04382405      19.78284506      -0.13695284       0.03988910       0.15149226
O       -4.42961855     -17.13450127      -3.57184015       1.38894479      -0.78862259       1.02381839
H       -3.62894428     -17.41784147      -3.10165875       0.11560706       0.06536524       0.11342513
H       -4.39767411     -17.50225915      -4.44213724       0.12897783       0.14543763       0.21795366
O       28.53807765      -9.46544424      -5.13527640      -0.06677286      -0.66092821       0.65326142
H       28.74534317      -9.80406281      -6.04260256       0.03126390      -0.13781148       0.18527552
H       28.50335876     -10.19412414      -4.52341373       0.20773740      -0.40275072       0.08898753
O        7.18540512      -0.15611828       7.71179112      -0.06988608       0.38662692       0.93269988
H        7.31365302       0.10865400       8.65063312       0.10042243      -0.11401128      -0.02417345
H        7.68381335      -0.89672824       7.43312168      -0.12576559      -0.05822229      -0.10043204
O      -19.16791248      -1.56761351      23.69281377      -0.69040881       0.96550011      -0.90136658
H      -18.74852246      -1.93690989      22.90844516      -0.00500273      -0.13493484      -0.09772074
H      -18.56011498      -1.89736151      24.36398391       0.31085535       0.01273521       0.14235192
O        6.25155115      -6.17166480      -4.08757354      -0.76803087      -0.52717796       1.26015719
H        5.72578233      -5.61275975      -3.47976124       0.24636015      -0.16063572       0.10012071
H        5.83616605      -6.18131685      -4.94227913      -0.32999777      -0.05909310      -0.16237064
O       13.46686013       9.55399674       8.14114024       0.57863607      -0.40201157       1.25557596
H       12.70310729       9.45230972       8.73291026       0.02365798       0.02985948      -0.33564637
H       13.45836916      10.15594518       7.37443723       0.13519460       0.36324253      -0.07603594
O        3.80859640      11.81335225      -4.11097391      -2.00326747      -0.54510122      -1.07450614
H        3.13960269      11.47087770      -4.68678237       0.14139491      -0.08407877      -0.21135448
H        4.49294947      12.19482328      -4.69733948      -0.08927991      -0.14271202       0.12837065
O       12.00143587      27.97166554      16.14273006      -0.59421424       1.80956881       1.01883903
H       12.76983164      28.39324594      16.63809838      -0.19738119      -0.19848096       0.19752052
H       11.22617485      28.37884390      16.56533638      -0.04263498       0.51863535       0.02748180
O       -4.78144844       4.17006738      -0.05693449      -0.19762979       0.56003294      -1.88413771
H       -4.29190366       4.75353198      -0.61818963      -0.24402080       0.14178046       0.09193201
H       -5.59273981       4.49831070       0.28476732       0.12745473      -0.07024381       0.01199268
O        7.13956223     -16.29516163       8.59726817      -0.46527739       0.34659026       0.37617562
H        6.88189949     -15.61551650       8.02248363      -0.05248250      -0.03231912      -0.10170070
H        6.48360970     -16.53632083       9.28847985      -0.16528045      -0.16991492      -0.31179099
O        1.72543826       9.36293657      23.11689426      -0.21220984      -0.18608115      -0.36151972
H        2.15081433       8.66104797      23.62061152       0.15333031      -0.01046279      -0.06780584
H        1.70271063       9.00021333      22.21078441       0.22963817      -0.19465581      -0.02714455
O       21.54748277      23.49835508      -0.38764567       0.39990790      -1.02537865      -1.36722643
H       21.30176696      24.31650980       0.05368086       0.21099854       0.14243423      -0.10216136
H       21.04410370      22.81089491       0.02300993      -0.06196122       0.12513656       0.03955225
O       11.05887146       6.04893307     -17.46291157       0.04558488      -0.13618503      -1.03846442
H       10.89983360       5.32188255     -18.04650810      -0.03071359      -0.07944136       0.01732504
H       11.37558094       6.31749618     -18.29929935      -0.03734144      -0.14876765      -0.14309079
O       -7.17221055      22.60419486       3.06042910      -0.65988544       0.48644153       0.50709242
H       -7.83940418      22.88472548       2.38209432      -0.15365585       0.11283726       0.05870881
H       -7.91477429      23.03824899       3.45135631       0.07031989       0.08238785       0.17616238
O        5.44172294     -16.26833177      19.60700373       1.03798109      -0.40211056       1.61327988
H        6.04077430     -16.95463158      19.91042502      -0.11820645      -0.12589032       0.10408062
H        5.71300694     -15.39203936      19.81203341      -0.15513984       0.01340457      -0.09301097
O        1.97935144      16.74942515      -0.86943619       0.49426116      -0.34853504      -0.99847073
H        0.99475945      17.00329468      -0.89282506      -0.02145033      -0.23514239       0.25561737
H        1.71806226      17.62237775      -0.82236013      -0.07074550       0.15616361      -0.32543404
O       -4.70170629      -5.97962530       7.39493150      -0.24627105       0.14310499      -0.05676257
H       -4.21686532      -6.81114796       7.31822088       0.04006713       0.00751600      -0.24059356
H       -5.25959424      -6.02138701       8.18287365      -0.10555000       0.01705028       0.39260107
O       -2.48647066       2.89791818       7.98293351       0.70235543       1.06269039      -0.79233467
H       -1.77583609       3.51534463       8.19134042      -0.00295988      -0.07733251       0.07336591
H       -2.11813840       1.98945002       7.97723759       0.14648311       0.00226381      -0.17358751
O       15.65452692      -6.06794142      -2.22856766       0.54215772       0.59504529       0.39092297
H       15.09867017      -6.72310383      -1.79080213       0.18537609      -0.01428334       0.05470456
H       16.07324131      -6.40366381      -3.01814969      -0.37900232       0.01129217      -0.08300412
O       11.27532063       3.76022276      23.22855937       0.01435934      -0.58254385      -0.67400212
H       10.64041779       3.53120433      23.93850782      -0.18491091      -0.18252070       0.17107233
H       12.12571747       3.33823155      23.39019906       0.03460741      -0.06295619      -0.24220966
O        7.73728695      14.00871528      23.67369571      -0.44936054      -0.26126072      -0.05629133
H        8.60110812      13.91506501      24.05814183       0.09310877       0.00832683      -0.16295434
H        7.56467124      13.08626017      23.85836820       0.18432450      -0.25465159       0.10681732
O       -7.74822302       5.65974098      11.59503802      -0.66155497       0.48347749       0.25617479
H       -7.00504274       6.10871206      11.72544197      -0.15216945      -0.02097674      -0.37151270
H       -6.97332290       5.10472607      11.68417935      -0.20204945      -0.05181877      -0.11477322
192
Lattice="13.066373825073242 0.0 0.0 -5.291772140481044e-07 13.066373825073242 0.0 -5.291772140481044e-07 -5.291772140481044e-07 13.066373825073242" Properties=species:S:1:pos:R:3:momenta:R:3 step=5100 time_fs=510.0 phase=production pbc="T T T"
O       12.80087042      -2.46849230     -15.19423528       0.70143759      -0.69131252      -1.47454749
H       11.99279166      -2.33157998     -15.72377120       0.14376926      -0.03032296      -0.06571821
H       13.27715049      -3.18540871     -15.58303453       0.06483726       0.14797079       0.06272744
O       24.10519295      25.13969551      -2.09374150      -0.46421646      -1.19847652      -0.60694179
H       24.29633538      26.09194321      -2.30512606       0.32246099       0.37248284      -0.07761380
H       24.05687652      25.46816985      -2.99482382       0.03464442      -0.35990244       0.37998015
O        5.84191803       1.22590087       8.94029734      -1.17351006       0.07806297       1.53811774
H        6.36223912       1.62974464       9.65099844      -0.40978830       0.21902916      -0.17702040
H        5.04359186       0.79761804       9.28743295       0.09541769       0.21817540       0.14136131
O       -2.74313772      -4.10817413      -1.56958526       1.15982800       0.29075979       1.29445475
H       -2.73292705      -5.07844519      -1.58682992      -0.06295693      -0.04458424      -0.36352418
H       -1.75560863      -3.88853116      -1.84563175      -0.06339973       0.07920160       0.23908068
O        4.19254843      18.50639488       9.27889497      -0.70059586      -0.48221114       0.65171729
H        4.50665908      18.21870338      10.10932335      -0.13286637      -0.03958546      -0.02886912
H        3.51423342      17.88286326       8.94833487       0.23241217      -0.23649361       0.04681682
O       -4.54764083       1.36898278       2.17125538      -0.21367247      -0.37485682       0.00722981
H       -5.19410837       0.81620430       2.70564234       0.28235913      -0.04300859      -0.07798390
H       -5.03069503       2.23976934       1.94126981      -0.16945250       0.10139091      -0.00368685
O       24.54343034      13.53100587       8.44079542       0.15205763       0.70964665      -0.64155899
H       25.46043065      13.72930531       8.33656614       0.11519698       0.05965803       0.24162687
H       24.27708857      13.15699365       7.59329216       0.08947159      -0.00746347       0.20966792
O       -0.81829033     -15.34631541       6.31413270      -0.07201464      -0.07895413       1.13379763
H       -0.08521433     -14.77505164       6.14563111       0.08801541      -0.15778937      -0.07157958
H       -1.56163639     -14.82337197       6.58936357      -0.16739974       0.04460434       0.31991077
O       19.34689952     -17.67471850      10.95224182      -0.13850363       0.21009108      -0.02395873
H       20.07805399     -17.53094687      10.35683739      -0.18663208       0.31314337       0.34153110
H       19.14113896     -18.56887351      11.25594217      -0.11804490       0.08876028       0.00089667
O        4.49721897     -15.61543442     -15.24492109      -0.65476479      -0.69172990       0.66859172
H        5.50705047     -15.63633824     -15.11986655      -0.19854369       0.08224299      -0.09983446
H        4.13643224     -16.30134898     -14.67283487      -0.17436092      -0.05303946       0.14317695
O       -6.33542909       2.13168792       6.61576719      -0.42924518      -0.14505069       0.78218058
H       -5.69727446       2.68336229       6.16810289       0.02282805       0.05197031       0.08681079
H       -5.82916915       1.38812149       6.99660678      -0.16364527       0.07424196      -0.06878817
O       -7.23769857      15.86934108      23.93608374      -0.27981254       1.51491961      -3.71434201
H       -7.87460826      16.66760872      23.67331888      -0.09784367       0.14901087      -0.10953064
H       -7.68603480      15.98004682      23.02907149       0.01488325      -0.03469543      -0.49261734
O        9.24167837     -16.80143213      -6.85294190       0.07998319       0.46001983      -0.61603210
H        8.69619298     -17.56536076      -6.53720076       0.17418156      -0.23687701       0.07342583
H        8.68758193     -16.41628302      -7.57169379       0.21701468      -0.19164550      -0.02399134
O       14.87704450       7.73638838      20.15853942      -0.33982547      -0.25718563      -0.01347015
H       14.23119848       7.16572444      20.65144460      -0.26238999      -0.14335793      -0.03626609
H       15.69757630       7.15711212      20.17741680      -0.12053069      -0.18591075       0.03324667
O       -1.23646402       1.31445688      -0.69352309       0.32991927       0.83381522       0.37028507
H       -1.02966268       1.54202703       0.19978016      -0.02685295       0.19921954      -0.26855743
H       -0.55846740       1.75298579      -1.24837332      -0.05539202       0.27425851      -0.02998175
O      -16.15642678      12.09511992      19.56363284      -0.19135370      -0.58574914       0.98985505
H      -16.95243541      12.55375992      19.76802375       0.14573741      -0.26432226       0.03037863
H      -16.40212757      11.27460321      19.15895801      -0.28418542      -0.01588209       0.06522606
O      -16.06733141       5.84943285      11.91650374       1.73101837       0.10960586      -0.74198450
H      -16.15610504       6.34984716      11.03640243       0.19658981      -0.06096802       0.14515910
H      -16.11687454       5.35680764      11.06169541       0.14158287       0.17536108       0.24790620
O       -9.57764589      35.15069110     -13.23167879       0.45207825      -0.07844983       0.25118869
H      -10.53895994      35.34277511     -13.17537173       0.06936882       0.00855497      -0.40442763
H      -10.17491820      34.83737647     -13.87440865      -0.23312921      -0.35524542      -0.00705937
O       36.78001582      10.95108695      22.34281679       0.97806607       0.43487450       0.31946925
H       36.85140539      10.94690350      21.39598424       0.14685599       0.10065212      -0.03114577
H       36.62761893      10.07898718      22.69084009      -0.11914936       0.07555926      -0.11918830
O       29.73215619     -12.01052188       0.71856885      -0.70674615      -1.66199289      -1.01711059
H       29.66657986     -11.68848165       1.63744634       0.03060413       0.27615094       0.56889498
H       29.70433396     -12.63984352       1.52797787      -0.08285692       0.01399289      -0.00336841
O       16.03867815       9.85807627      -6.72018006      -0.43943754       0.16379177      -0.17005387
H       16.92059590      10.16835091      -6.66465506       0.02098435      -0.05354434      -0.11206022
H       15.95953369       8.90766122      -6.84282466      -0.24980937       0.01179803      -0.11559706
O       -7.10670792       4.38193710      33.74940350       0.92282117       0.45173167      -0.79167049
H       -7.11507211       3.55139620      33.29148995       0.07975868       0.09664554      -0.10350735
H       -7.82028332       4.30866577      34.38573348       0.12450319       0.05592548      -0.06314447
O        4.06744935       0.02773696      -2.50446966      -0.98313828       0.86974809       0.01052518
H        3.13678037      -0.03560744      -2.69662080      -0.04646039      -0.14791679       0.25267520
H        4.29035182      -0.86016049      -2.16765278      -0.28684588       0.06120000      -0.03383518
O       22.59602327       2.14763834      11.59085855       0.67222647      -0.29321403       0.37471646
H       22.39979073       2.93437326      12.18697117      -0.27587915      -0.21932790       0.16460065
H       23.48868495       1.88714303      11.92905380       0.01972731       0.12630597      -0.05636368
O       -2.04967797      33.08882477      14.86154298       0.07115909       0.76956604      -1.54551932
H       -1.82274641      32.80886960      15.76553603       0.40915851       0.21669403       0.06455501
H       -1.08196319      32.95255434      15.16209453      -0.27753706       0.02308161       0.04100221
O        4.56801440      19.90980819       6.99684481      -0.42132410       0.89356596       0.93933223
H        4.17929068      19.31841992       6.35524371      -0.02790490      -0.24428705      -0.03685574
H        5.32105679      20.29495253       6.50890577      -0.04091968       0.16566451      -0.17314489
O       -9.76177435       9.78262388       8.89733800       0.01500536      -0.48507131       0.01907123
H       -9.45818837       9.59776091       7.97106021      -0.10512877      -0.34634368       0.27014831
H       -9.12698412       9.33557226       9.47443069       0.48037233      -0.10066217       0.10368867
O       16.91613647      18.97785611      29.02414177      -0.37851227       0.92746329       1.36460717
H       17.48621712      18.32106954      28.56557052      -0.06819907      -0.19917536      -0.18748428
H       16.08306983      19.02311120      28.45510359      -0.15999228       0.03113616       0.08489313
O        8.28966153      18.02139894      10.03555742       0.06767258      -0.29639361       1.08483193
H        9.00063944      18.08009031       9.41045834      -0.10678442      -0.00671620       0.27521144
H        7.57672319      17.49900696       9.70566467       0.08756846       0.13732063       0.13219194
O        1.49175356     -13.97114815      10.66535898      -0.20920349       0.65957159      -0.73346847
H        0.52105285     -13.98892262      10.84951414      -0.18556931      -0.01723954      -0.02101063
H        1.53126070     -14.85510431      10.28009595      -0.00358229       0.10246365       0.22236929
O       -1.07571009      11.27931622       1.34408985      -0.10318049      -1.40034419      -0.32219898
H       -0.37387710      10.86351900       1.87888918       0.14084576       0.44280524       0.03323119
H       -1.87863633      11.42443623       1.93984200       0.05944613      -0.09035625       0.10868157
O        0.98952126       1.11874261       7.83658547       0.02209713       1.43752658      -0.24495272
H        1.43158123       0.32754080       7.41741717      -0.43225162       0.15306121       0.09535108
H        1.43807533       1.18926567       8.71904123      -0.06609575       0.01462454       0.01514291
O      -17.91797327      29.17177365     -17.40786860       1.00692807       0.18749543       0.46667892
H      -16.97537150      29.07370819     -17.32520605      -0.16519381      -0.06807203      -0.00564516
H      -18.29488604      28.77502495     -16.65321839       0.25547537       0.25523078      -0.01041311
O        5.01473729      25.35530661      -6.49603234       0.15073153      -0.47608141       0.53463107
H        5.59943339      25.70352194      -5.86791601      -0.21686856       0.00232986       0.21023440
H        4.47611465      26.09353031      -6.79108472       0.04129108       0.08795593      -0.18150658
O      -18.42662133      20.83103456      -0.17203131       0.82140267      -1.03451532      -0.25653733
H      -17.64654114      20.42324256      -0.50807898       0.06723196      -0.15532498       0.22964266
H      -18.31269283      21.18430702       0.73243367       0.00646450      -0.17537119      -0.13933494
O       11.14661967      21.15827630       7.52860796       0.49404370       0.40881227      -1.11714308
H       12.06809205      21.17119915       7.26042589       0.00805002       0.33213420       0.05598614
H       10.51186585      21.37831968       6.81783497       0.26823447       0.00068747       0.27719855
O       -9.92506843      -7.83193969       5.44455057       0.32988790      -0.82003501       0.38811202
H       -9.49938263      -7.74634365       4.58943775      -0.01217940      -0.21854101       0.18322027
H       -9.87284726      -8.79973022       5.70839497       0.00310771      -0.21117116       0.18978198
O      -24.79252276       1.70650408      10.36179773       0.07617848      -0.39357861       0.90585373
H      -25.12158040       0.68905681      10.56440495       0.30088970      -0.24587168      -0.05081849
H      -25.34524994       1.41824388      11.17533214       0.10237507       0.08507632      -0.06757145
O      -12.37779015      -7.54926786      21.33065943       0.23190152      -1.40551117       1.09703391
H      -11.76245969      -8.23581924      21.09320431       0.08359314      -0.12000846       0.03435594
H      -13.07343674      -7.44903796      20.68623091      -0.03320742      -0.08723018       0.27230695
O        6.56634877       6.71340582      18.38764068       0.01623851      -1.32299368       0.26376939
H        7.22853371       7.42175419      18.51821310      -0.09458078       0.08228663      -0.01509815
H        7.05961746       5.91677675      18.17295391       0.01313722       0.19930643       0.04599795
O      -11.53825360      -1.13518597      19.53997337       0.51752102       1.54376028      -0.94312350
H      -11.32024584      -2.08176213      19.63398582      -0.03115718       0.20917045      -0.12070351
H      -11.24034551      -0.79190101      18.69015323      -0.00314927      -0.06615400      -0.29857813
O       22.30942802       4.98153698      19.32023482      -1.12153126       0.26969581      -0.79664166
H       21.45394470       4.99156540      18.90843294       0.10517497       0.20224456       0.34485123
H       22.33581747       4.24561737      19.93489289       0.07959104       0.33823953      -0.00840133
O       -4.36443473     -17.17399302      -3.51279923       0.65968138      -0.41191200       1.04370234
H       -3.64662102     -17.45980406      -2.93929147      -0.14013615      -0.12236628       0.09810172
H       -4.32160030     -17.48169295      -4.40889942       0.09926684      -0.12463577      -0.18439503
O       28.54107248      -9.52998930      -5.08644885       0.38651218      -1.51225577       0.81575256
H       28.85551172      -9.75866447      -5.93447798       0.11376006       0.35306177       0.03808765
H       28.75882758     -10.29203633      -4.49881578       0.16646046       0.13238880       0.10757547
O        7.18733090      -0.13428365       7.75933843       0.10404908       0.45608378       0.83195456
H        7.42064196       0.02407523       8.65487867       0.04515322      -0.07765037      -0.09899091
H        7.62661490      -0.88453955       7.34665379       0.06006993      -0.02693931      -0.08065091
O      -19.16718577      -1.53728012      23.64957676      -0.03555821       0.37359545      -0.46431277
H      -18.99520186      -2.04365386      22.84212353      -0.10571306      -0.07743320       0.10219768
H      -18.63114470      -1.66007458      24.48899180      -0.16709091       0.13437162       0.04424344
O        6.21306378      -6.21599023      -4.02641671      -0.43559530      -0.76518449       1.05101967
H        5.86598142      -5.68775813      -3.34701754       0.02133961      -0.19624072      -0.02738579
H        5.57799648      -6.19191688      -4.79755650      -0.24198267       0.03599293       0.22173999
O       13.51409557       9.53595090       8.19192479       0.38963504      -0.16688204       0.66232119
H       12.64801130       9.53574265       8.55165096       0.20191417      -0.00910896      -0.10257169
H       13.42684456      10.27104625       7.48545117       0.00578284       0.02356476      -0.05296754
O        3.69020056      11.78901797      -4.16827751      -1.77490406      -0.24540950      -0.84939269
H        3.08814608      11.57363620      -4.89195795      -0.20760564       0.07878169      -0.20706795
H        4.44050154      12.19839899      -4.62073532      -0.12187513       0.07768497       0.10233905
O       11.94695285      28.07818239      16.19653355      -1.20292435       1.48941145       0.49878814
H       12.75990863      28.26111261      16.75834911       0.04500318       0.10488403       0.10734553
H       11.29903434      28.74625331      16.47514661       0.29883769       0.30871036      -0.06088944
O       -4.79190687       4.18335361      -0.17744237      -0.13609317       0.29036741      -2.18377150
H       -4.43977770       5.00353649      -0.55715834       0.01054932       0.17538522       0.09638814
H       -5.58609973       4.52712734       0.29505634      -0.07534700      -0.03519581       0.06738536
O        7.12688419     -16.28338515       8.61910090      -0.09659727      -0.17144348       0.48693478
H        6.85215925     -15.70937767       7.91335199      -0.00701506      -0.03134634      -0.27946875
H        6.34041336     -16.65815994       9.02629962       0.00697296      -0.06614572      -0.28252877
O        1.71980798       9.33944010      23.08010479       0.07395311      -0.47678630      -0.79030412
H        2.14921817       8.70482508      23.65772407      -0.16539877       0.04658698       0.08533012
H        1.65409320       9.00536805      22.18679863      -0.16758501       0.07192821       0.05754469
O       21.57433286      23.45694107      -0.47943421       0.39768618      -0.35919509      -1.56372216
H       21.44929636      24.35505357      -0.14322574       0.12014309      -0.06287710      -0.30607044
H       20.90024301      22.94662756      -0.01679170      -0.15985861       0.10564737      -0.11485811
O       11.06201373       6.03447164     -17.52434601       0.03537349      -0.35133727      -0.81836303
H       10.97732918       5.20408480     -18.02317454       0.16456140      -0.13749249      -0.01326253
H       11.28151528       6.28184704     -18.43403104      -0.09604172       0.11770232      -0.24161702
O       -7.20748810      22.63396528       3.08566811      -0.03886798       0.17895260       0.36750331
H       -7.92935827      23.01853149       2.58045779      -0.24466955       0.24476651       0.01920000
H       -7.91008826      23.14815249       3.59174226      -0.29046409       0.30317803       0.36574165
O        5.50265605     -16.30535147      19.69316229       0.85697783      -0.82593191       1.20261554
H        6.05197761     -17.00923614      20.02012725       0.11846954      -0.00905329       0.06854656
H        5.81258407     -15.42498875      19.84440830       0.33934596      -0.02055022       0.15643425
O        2.00724631      16.74414294      -0.92258226       0.21622397      -0.11684336      -0.59465550
H        1.05221904      16.86240813      -0.81847342       0.36073087      -0.22763154      -0.15285913
H        1.54420217      17.54820074      -1.20542634      -0.29361918       0.18725152      -0.52193138
O       -4.72964384      -5.95461726       7.40237428      -0.45538154       0.67715452       0.02145676
H       -4.25861111      -6.75462146       7.17831730      -0.16916099       0.13131018       0.03393203
H       -5.17991306      -5.98652244       8.30693709       0.02827639      -0.01488427       0.12388060
O       -2.43366121       2.95377849       7.92372720       0.99606408       0.74324740      -1.10286997
H       -1.84875930       3.54979798       8.35711540      -0.14298929       0.10407696       0.18586605
H       -2.03348781       2.06204121       7.89407732       0.00995179       0.10306548       0.01153732
O       15.68982121      -6.03799399      -2.20696449       0.54687120       0.09087447       0.21084512
H       15.28195046      -6.72426868      -1.66489676       0.20327023       0.11058789       0.28351466
H       15.69605849      -6.45212996      -3.09165971      -0.36174195       0.02487253      -0.12704129
O       11.27116104       3.71982694      23.18176607       0.11150825      -0.76060350      -0.79809785
H       10.73399462       3.41724873      23.98056566       0.14350880      -0.09155999      -0.01093236
H       12.12398388       3.30446801      23.27696215      -0.11146920       0.04063041      -0.05601408
O        7.71530454      13.98034179      23.68796344      -0.38953902      -0.38413356       0.41877568
H        8.66451348      14.04256776      23.87008977       0.14106558       0.17338987      -0.23434654
H        7.69364858      13.03933310      23.97475597       0.05960309      -0.11958256       0.13783050
O       -7.81337806       5.68298629      11.60094305      -0.16466217       0.42834241      -0.05520419
H       -6.87474454       6.01086538      11.54320938      -0.48632897      -0.10209397       0.01238562
H       -7.07592791       5.07456301      11.54792801      -0.39846658      -0.19257322      -0.17038481
